# vtk DataFile Version 3.0 
vtk output 
ASCII 
DATASET UNSTRUCTURED_GRID 
POINTS 175 float 
-0.026061 0.035625 0.000000 
-0.106992 0.103680 0.000000 
-0.054870 0.095447 0.000000 
-0.028809 0.141331 0.000000 
-0.186430 0.167756 0.000000 
-0.137056 0.165229 0.000000 
-0.114311 0.218877 0.000000 
-0.058186 0.203211 0.000000 
-0.029377 0.243388 0.000000 
-0.265318 0.230911 0.000000 
-0.217198 0.230112 0.000000 
-0.196633 0.287408 0.000000 
-0.143120 0.278700 0.000000 
-0.116563 0.325968 0.000000 
-0.058945 0.306322 0.000000 
-0.029568 0.344442 0.000000 
-0.344206 0.294067 0.000000 
-0.296791 0.294074 0.000000 
-0.278030 0.354017 0.000000 
-0.225992 0.348151 0.000000 
-0.201664 0.400268 0.000000 
-0.145749 0.386794 0.000000 
-0.117890 0.431137 0.000000 
-0.059328 0.408431 0.000000 
-0.029759 0.445497 0.000000 
-0.058559 -0.005126 0.000000 
-0.162226 -0.025969 0.000000 
-0.123292 0.009649 0.000000 
-0.142917 0.058632 0.000000 
-0.261851 -0.048125 0.000000 
-0.229092 -0.011098 0.000000 
-0.256854 0.040134 0.000000 
-0.209613 0.074246 0.000000 
-0.223062 0.121820 0.000000 
-0.360414 -0.070425 0.000000 
-0.329787 -0.033302 0.000000 
-0.361761 0.018500 0.000000 
-0.321587 0.054909 0.000000 
-0.341985 0.105143 0.000000 
-0.290702 0.137942 0.000000 
-0.302189 0.184677 0.000000 
-0.458977 -0.092725 0.000000 
-0.429420 -0.055651 0.000000 
-0.464588 -0.003609 0.000000 
-0.427556 0.033419 0.000000 
-0.453135 0.084933 0.000000 
-0.407738 0.120249 0.000000 
-0.425037 0.169677 0.000000 
-0.370772 0.201306 0.000000 
-0.381315 0.247533 0.000000 
-0.046960 -0.055941 0.000000 
-0.095301 -0.149987 0.000000 
-0.098873 -0.097340 0.000000 
-0.149405 -0.082142 0.000000 
-0.140093 -0.241691 0.000000 
-0.148617 -0.192993 0.000000 
-0.205981 -0.182756 0.000000 
-0.203197 -0.124552 0.000000 
-0.248777 -0.105406 0.000000 
-0.184111 -0.332655 0.000000 
-0.194039 -0.285564 0.000000 
-0.254475 -0.278264 0.000000 
-0.257893 -0.224154 0.000000 
-0.309886 -0.208782 0.000000 
-0.303554 -0.148237 0.000000 
-0.347255 -0.128079 0.000000 
-0.228129 -0.423618 0.000000 
-0.238687 -0.377394 0.000000 
-0.301302 -0.372442 0.000000 
-0.307162 -0.320403 0.000000 
-0.363386 -0.308282 0.000000 
-0.362692 -0.250771 0.000000 
-0.412122 -0.233478 0.000000 
-0.403017 -0.171331 0.000000 
-0.445733 -0.150752 0.000000 
-0.000000 -0.078556 0.000000 
0.043388 -0.174987 0.000000 
-0.000000 -0.144955 0.000000 
-0.043388 -0.174987 0.000000 
0.087158 -0.267184 0.000000 
0.043769 -0.243485 0.000000 
-0.000000 -0.281951 0.000000 
-0.043769 -0.243485 0.000000 
-0.087158 -0.267184 0.000000 
0.130831 -0.358313 0.000000 
0.087824 -0.336714 0.000000 
0.044436 -0.379414 0.000000 
-0.000000 -0.348349 0.000000 
-0.044436 -0.379414 0.000000 
-0.087824 -0.336714 0.000000 
-0.130831 -0.358313 0.000000 
0.174505 -0.449443 0.000000 
0.131782 -0.428877 0.000000 
0.088871 -0.474743 0.000000 
0.044532 -0.446879 0.000000 
-0.000000 -0.483280 0.000000 
-0.044532 -0.446879 0.000000 
-0.088871 -0.474743 0.000000 
-0.131782 -0.428877 0.000000 
-0.174505 -0.449443 0.000000 
0.046960 -0.055941 0.000000 
0.149405 -0.082142 0.000000 
0.098873 -0.097340 0.000000 
0.095301 -0.149987 0.000000 
0.248777 -0.105406 0.000000 
0.203197 -0.124552 0.000000 
0.205981 -0.182756 0.000000 
0.148617 -0.192993 0.000000 
0.140093 -0.241691 0.000000 
0.347255 -0.128079 0.000000 
0.303554 -0.148237 0.000000 
0.309886 -0.208782 0.000000 
0.257893 -0.224154 0.000000 
0.254475 -0.278264 0.000000 
0.194039 -0.285564 0.000000 
0.184111 -0.332655 0.000000 
0.445733 -0.150752 0.000000 
0.403017 -0.171331 0.000000 
0.412122 -0.233478 0.000000 
0.362692 -0.250771 0.000000 
0.363386 -0.308282 0.000000 
0.307162 -0.320403 0.000000 
0.301302 -0.372442 0.000000 
0.238687 -0.377394 0.000000 
0.228129 -0.423618 0.000000 
0.058559 -0.005126 0.000000 
0.142917 0.058632 0.000000 
0.123292 0.009649 0.000000 
0.162226 -0.025969 0.000000 
0.223062 0.121820 0.000000 
0.209613 0.074246 0.000000 
0.256854 0.040134 0.000000 
0.229092 -0.011098 0.000000 
0.261851 -0.048125 0.000000 
0.302189 0.184677 0.000000 
0.290702 0.137942 0.000000 
0.341985 0.105143 0.000000 
0.321587 0.054909 0.000000 
0.361761 0.018500 0.000000 
0.329787 -0.033302 0.000000 
0.360414 -0.070425 0.000000 
0.381315 0.247533 0.000000 
0.370772 0.201306 0.000000 
0.425037 0.169677 0.000000 
0.407738 0.120249 0.000000 
0.453135 0.084933 0.000000 
0.427556 0.033419 0.000000 
0.464588 -0.003609 0.000000 
0.429420 -0.055651 0.000000 
0.458977 -0.092725 0.000000 
0.026061 0.035625 0.000000 
0.028809 0.141331 0.000000 
0.054870 0.095447 0.000000 
0.106992 0.103680 0.000000 
0.029377 0.243388 0.000000 
0.058186 0.203211 0.000000 
0.114311 0.218877 0.000000 
0.137056 0.165229 0.000000 
0.186430 0.167756 0.000000 
0.029568 0.344442 0.000000 
0.058945 0.306322 0.000000 
0.116563 0.325968 0.000000 
0.143120 0.278700 0.000000 
0.196633 0.287408 0.000000 
0.217198 0.230112 0.000000 
0.265318 0.230911 0.000000 
0.029759 0.445497 0.000000 
0.059328 0.408431 0.000000 
0.117890 0.431137 0.000000 
0.145749 0.386794 0.000000 
0.201664 0.400268 0.000000 
0.225992 0.348151 0.000000 
0.278030 0.354017 0.000000 
0.296791 0.294074 0.000000 
0.344206 0.294067 0.000000 
CELLS 175 350 
1 0 
1 1 
1 2 
1 3 
1 4 
1 5 
1 6 
1 7 
1 8 
1 9 
1 10 
1 11 
1 12 
1 13 
1 14 
1 15 
1 16 
1 17 
1 18 
1 19 
1 20 
1 21 
1 22 
1 23 
1 24 
1 25 
1 26 
1 27 
1 28 
1 29 
1 30 
1 31 
1 32 
1 33 
1 34 
1 35 
1 36 
1 37 
1 38 
1 39 
1 40 
1 41 
1 42 
1 43 
1 44 
1 45 
1 46 
1 47 
1 48 
1 49 
1 50 
1 51 
1 52 
1 53 
1 54 
1 55 
1 56 
1 57 
1 58 
1 59 
1 60 
1 61 
1 62 
1 63 
1 64 
1 65 
1 66 
1 67 
1 68 
1 69 
1 70 
1 71 
1 72 
1 73 
1 74 
1 75 
1 76 
1 77 
1 78 
1 79 
1 80 
1 81 
1 82 
1 83 
1 84 
1 85 
1 86 
1 87 
1 88 
1 89 
1 90 
1 91 
1 92 
1 93 
1 94 
1 95 
1 96 
1 97 
1 98 
1 99 
1 100 
1 101 
1 102 
1 103 
1 104 
1 105 
1 106 
1 107 
1 108 
1 109 
1 110 
1 111 
1 112 
1 113 
1 114 
1 115 
1 116 
1 117 
1 118 
1 119 
1 120 
1 121 
1 122 
1 123 
1 124 
1 125 
1 126 
1 127 
1 128 
1 129 
1 130 
1 131 
1 132 
1 133 
1 134 
1 135 
1 136 
1 137 
1 138 
1 139 
1 140 
1 141 
1 142 
1 143 
1 144 
1 145 
1 146 
1 147 
1 148 
1 149 
1 150 
1 151 
1 152 
1 153 
1 154 
1 155 
1 156 
1 157 
1 158 
1 159 
1 160 
1 161 
1 162 
1 163 
1 164 
1 165 
1 166 
1 167 
1 168 
1 169 
1 170 
1 171 
1 172 
1 173 
1 174 
CELL_TYPES 175 
1 
1 
1 
1 
1 
1 
1 
1 
1 
1 
1 
1 
1 
1 
1 
1 
1 
1 
1 
1 
1 
1 
1 
1 
1 
1 
1 
1 
1 
1 
1 
1 
1 
1 
1 
1 
1 
1 
1 
1 
1 
1 
1 
1 
1 
1 
1 
1 
1 
1 
1 
1 
1 
1 
1 
1 
1 
1 
1 
1 
1 
1 
1 
1 
1 
1 
1 
1 
1 
1 
1 
1 
1 
1 
1 
1 
1 
1 
1 
1 
1 
1 
1 
1 
1 
1 
1 
1 
1 
1 
1 
1 
1 
1 
1 
1 
1 
1 
1 
1 
1 
1 
1 
1 
1 
1 
1 
1 
1 
1 
1 
1 
1 
1 
1 
1 
1 
1 
1 
1 
1 
1 
1 
1 
1 
1 
1 
1 
1 
1 
1 
1 
1 
1 
1 
1 
1 
1 
1 
1 
1 
1 
1 
1 
1 
1 
1 
1 
1 
1 
1 
1 
1 
1 
1 
1 
1 
1 
1 
1 
1 
1 
1 
1 
1 
1 
1 
1 
1 
1 
1 
1 
1 
1 
1 
POINT_DATA 175 
VECTORS X_GC float 
-0.026061 0.035625 0.000000 
-0.106992 0.103680 0.000000 
-0.054870 0.095447 0.000000 
-0.028809 0.141331 0.000000 
-0.186430 0.167756 0.000000 
-0.137056 0.165229 0.000000 
-0.114311 0.218877 0.000000 
-0.058186 0.203211 0.000000 
-0.029377 0.243388 0.000000 
-0.265318 0.230911 0.000000 
-0.217198 0.230112 0.000000 
-0.196633 0.287408 0.000000 
-0.143120 0.278700 0.000000 
-0.116563 0.325968 0.000000 
-0.058945 0.306322 0.000000 
-0.029568 0.344442 0.000000 
-0.344206 0.294067 0.000000 
-0.296791 0.294074 0.000000 
-0.278030 0.354017 0.000000 
-0.225992 0.348151 0.000000 
-0.201664 0.400268 0.000000 
-0.145749 0.386794 0.000000 
-0.117890 0.431137 0.000000 
-0.059328 0.408431 0.000000 
-0.029759 0.445497 0.000000 
-0.058559 -0.005126 0.000000 
-0.162226 -0.025969 0.000000 
-0.123292 0.009649 0.000000 
-0.142917 0.058632 0.000000 
-0.261851 -0.048125 0.000000 
-0.229092 -0.011098 0.000000 
-0.256854 0.040134 0.000000 
-0.209613 0.074246 0.000000 
-0.223062 0.121820 0.000000 
-0.360414 -0.070425 0.000000 
-0.329787 -0.033302 0.000000 
-0.361761 0.018500 0.000000 
-0.321587 0.054909 0.000000 
-0.341985 0.105143 0.000000 
-0.290702 0.137942 0.000000 
-0.302189 0.184677 0.000000 
-0.458977 -0.092725 0.000000 
-0.429420 -0.055651 0.000000 
-0.464588 -0.003609 0.000000 
-0.427556 0.033419 0.000000 
-0.453135 0.084933 0.000000 
-0.407738 0.120249 0.000000 
-0.425037 0.169677 0.000000 
-0.370772 0.201306 0.000000 
-0.381315 0.247533 0.000000 
-0.046960 -0.055941 0.000000 
-0.095301 -0.149987 0.000000 
-0.098873 -0.097340 0.000000 
-0.149405 -0.082142 0.000000 
-0.140093 -0.241691 0.000000 
-0.148617 -0.192993 0.000000 
-0.205981 -0.182756 0.000000 
-0.203197 -0.124552 0.000000 
-0.248777 -0.105406 0.000000 
-0.184111 -0.332655 0.000000 
-0.194039 -0.285564 0.000000 
-0.254475 -0.278264 0.000000 
-0.257893 -0.224154 0.000000 
-0.309886 -0.208782 0.000000 
-0.303554 -0.148237 0.000000 
-0.347255 -0.128079 0.000000 
-0.228129 -0.423618 0.000000 
-0.238687 -0.377394 0.000000 
-0.301302 -0.372442 0.000000 
-0.307162 -0.320403 0.000000 
-0.363386 -0.308282 0.000000 
-0.362692 -0.250771 0.000000 
-0.412122 -0.233478 0.000000 
-0.403017 -0.171331 0.000000 
-0.445733 -0.150752 0.000000 
-0.000000 -0.078556 0.000000 
0.043388 -0.174987 0.000000 
-0.000000 -0.144955 0.000000 
-0.043388 -0.174987 0.000000 
0.087158 -0.267184 0.000000 
0.043769 -0.243485 0.000000 
-0.000000 -0.281951 0.000000 
-0.043769 -0.243485 0.000000 
-0.087158 -0.267184 0.000000 
0.130831 -0.358313 0.000000 
0.087824 -0.336714 0.000000 
0.044436 -0.379414 0.000000 
-0.000000 -0.348349 0.000000 
-0.044436 -0.379414 0.000000 
-0.087824 -0.336714 0.000000 
-0.130831 -0.358313 0.000000 
0.174505 -0.449443 0.000000 
0.131782 -0.428877 0.000000 
0.088871 -0.474743 0.000000 
0.044532 -0.446879 0.000000 
-0.000000 -0.483280 0.000000 
-0.044532 -0.446879 0.000000 
-0.088871 -0.474743 0.000000 
-0.131782 -0.428877 0.000000 
-0.174505 -0.449443 0.000000 
0.046960 -0.055941 0.000000 
0.149405 -0.082142 0.000000 
0.098873 -0.097340 0.000000 
0.095301 -0.149987 0.000000 
0.248777 -0.105406 0.000000 
0.203197 -0.124552 0.000000 
0.205981 -0.182756 0.000000 
0.148617 -0.192993 0.000000 
0.140093 -0.241691 0.000000 
0.347255 -0.128079 0.000000 
0.303554 -0.148237 0.000000 
0.309886 -0.208782 0.000000 
0.257893 -0.224154 0.000000 
0.254475 -0.278264 0.000000 
0.194039 -0.285564 0.000000 
0.184111 -0.332655 0.000000 
0.445733 -0.150752 0.000000 
0.403017 -0.171331 0.000000 
0.412122 -0.233478 0.000000 
0.362692 -0.250771 0.000000 
0.363386 -0.308282 0.000000 
0.307162 -0.320403 0.000000 
0.301302 -0.372442 0.000000 
0.238687 -0.377394 0.000000 
0.228129 -0.423618 0.000000 
0.058559 -0.005126 0.000000 
0.142917 0.058632 0.000000 
0.123292 0.009649 0.000000 
0.162226 -0.025969 0.000000 
0.223062 0.121820 0.000000 
0.209613 0.074246 0.000000 
0.256854 0.040134 0.000000 
0.229092 -0.011098 0.000000 
0.261851 -0.048125 0.000000 
0.302189 0.184677 0.000000 
0.290702 0.137942 0.000000 
0.341985 0.105143 0.000000 
0.321587 0.054909 0.000000 
0.361761 0.018500 0.000000 
0.329787 -0.033302 0.000000 
0.360414 -0.070425 0.000000 
0.381315 0.247533 0.000000 
0.370772 0.201306 0.000000 
0.425037 0.169677 0.000000 
0.407738 0.120249 0.000000 
0.453135 0.084933 0.000000 
0.427556 0.033419 0.000000 
0.464588 -0.003609 0.000000 
0.429420 -0.055651 0.000000 
0.458977 -0.092725 0.000000 
0.026061 0.035625 0.000000 
0.028809 0.141331 0.000000 
0.054870 0.095447 0.000000 
0.106992 0.103680 0.000000 
0.029377 0.243388 0.000000 
0.058186 0.203211 0.000000 
0.114311 0.218877 0.000000 
0.137056 0.165229 0.000000 
0.186430 0.167756 0.000000 
0.029568 0.344442 0.000000 
0.058945 0.306322 0.000000 
0.116563 0.325968 0.000000 
0.143120 0.278700 0.000000 
0.196633 0.287408 0.000000 
0.217198 0.230112 0.000000 
0.265318 0.230911 0.000000 
0.029759 0.445497 0.000000 
0.059328 0.408431 0.000000 
0.117890 0.431137 0.000000 
0.145749 0.386794 0.000000 
0.201664 0.400268 0.000000 
0.225992 0.348151 0.000000 
0.278030 0.354017 0.000000 
0.296791 0.294074 0.000000 
0.344206 0.294067 0.000000 
VECTORS X_EC float 
0.338794 0.019067 0.000000 
-0.609100 -0.899682 0.000000 
0.713312 -0.788541 0.000000 
0.374519 0.592030 0.000000 
0.423588 0.235299 0.000000 
-0.218274 0.269403 0.000000 
-0.513962 -0.454836 0.000000 
0.756418 -0.243350 0.000000 
0.381900 -0.785742 0.000000 
-0.550868 -0.617304 0.000000 
0.823577 -0.606509 0.000000 
0.556234 0.619987 0.000000 
-0.139443 0.737556 0.000000 
-0.484677 0.099432 0.000000 
0.766286 0.364647 0.000000 
0.384386 -0.149973 0.000000 
0.474677 0.530093 0.000000 
-0.141715 0.529996 0.000000 
-0.385608 -0.279232 0.000000 
0.937896 -0.200036 0.000000 
0.621631 -0.903616 0.000000 
-0.105264 -0.721717 0.000000 
-0.467428 0.679657 0.000000 
0.771260 0.986185 0.000000 
0.386873 0.485796 0.000000 
0.761262 0.569201 0.000000 
0.108942 0.850578 0.000000 
-0.397202 0.369739 0.000000 
-0.142083 -0.291537 0.000000 
-0.595936 -0.850311 0.000000 
0.978194 0.649823 0.000000 
-0.660903 -0.041802 0.000000 
0.724964 -0.502322 0.000000 
0.899809 0.855429 0.000000 
0.685384 -0.549259 0.000000 
0.287229 0.949582 0.000000 
0.702895 0.250254 0.000000 
0.180633 -0.241265 0.000000 
0.445811 -0.919425 0.000000 
-0.220880 0.637789 0.000000 
-0.071546 0.006864 0.000000 
-0.033296 -0.248207 0.000000 
-0.417537 -0.748717 0.000000 
0.039645 0.548721 0.000000 
-0.441768 0.048850 0.000000 
-0.109248 -0.646601 0.000000 
-0.699407 0.876643 0.000000 
-0.474522 0.209364 0.000000 
0.820030 -0.217629 0.000000 
0.957100 -0.841701 0.000000 
0.610485 -0.744792 0.000000 
-0.761092 0.524827 0.000000 
-0.714655 -0.185911 0.000000 
-0.057734 -0.391078 0.000000 
-0.178789 -0.237169 0.000000 
-0.067979 -0.894595 0.000000 
0.677748 0.967202 0.000000 
0.641556 0.181456 0.000000 
-0.765897 -0.077022 0.000000 
0.393446 0.990840 0.000000 
0.522510 0.355110 0.000000 
-0.691820 0.256566 0.000000 
-0.647393 -0.473917 0.000000 
0.028512 -0.681443 0.000000 
-0.053800 0.501196 0.000000 
0.514316 0.229066 0.000000 
0.965681 0.218849 0.000000 
-0.897068 -0.405179 0.000000 
-0.083078 -0.472032 0.000000 
-0.006893 0.825443 0.000000 
0.724017 0.661810 0.000000 
0.714996 -0.114593 0.000000 
-0.642413 -0.348051 0.000000 
-0.760780 0.812969 0.000000 
-0.205471 0.535153 0.000000 
0.000000 -0.439491 0.000000 
-0.564049 0.862322 0.000000 
0.000000 0.456886 0.000000 
0.564049 0.862322 0.000000 
0.866949 0.106977 0.000000 
-0.569003 -0.212954 0.000000 
0.000000 0.306334 0.000000 
0.569003 -0.212954 0.000000 
-0.866949 0.106977 0.000000 
0.299194 -0.662773 0.000000 
0.858290 -0.954356 0.000000 
-0.577662 -0.377911 0.000000 
0.000000 -0.797289 0.000000 
0.577662 -0.377911 0.000000 
-0.858290 -0.954356 0.000000 
-0.299194 -0.662773 0.000000 
-0.268560 0.567478 0.000000 
0.286830 0.289836 0.000000 
0.844677 0.909034 0.000000 
-0.578910 0.532871 0.000000 
0.000000 -0.975725 0.000000 
0.578910 0.532871 0.000000 
-0.844677 0.909034 0.000000 
-0.286830 0.289836 0.000000 
0.268560 0.567478 0.000000 
-0.610485 -0.744792 0.000000 
0.057734 -0.391078 0.000000 
0.714655 -0.185911 0.000000 
0.761092 0.524827 0.000000 
0.765897 -0.077022 0.000000 
-0.641556 0.181456 0.000000 
-0.677748 0.967202 0.000000 
0.067979 -0.894595 0.000000 
0.178789 -0.237169 0.000000 
-0.514316 0.229066 0.000000 
0.053800 0.501196 0.000000 
-0.028512 -0.681443 0.000000 
0.647393 -0.473917 0.000000 
0.691820 0.256566 0.000000 
-0.522510 0.355110 0.000000 
-0.393446 0.990840 0.000000 
0.205471 0.535153 0.000000 
0.760780 0.812969 0.000000 
0.642413 -0.348051 0.000000 
-0.714996 -0.114593 0.000000 
-0.724017 0.661810 0.000000 
0.006894 0.825443 0.000000 
0.083078 -0.472032 0.000000 
0.897068 -0.405179 0.000000 
-0.965681 0.218849 0.000000 
-0.761262 0.569201 0.000000 
0.142083 -0.291537 0.000000 
0.397202 0.369739 0.000000 
-0.108942 0.850578 0.000000 
-0.899809 0.855429 0.000000 
-0.724964 -0.502322 0.000000 
0.660903 -0.041802 0.000000 
-0.978194 0.649823 0.000000 
0.595936 -0.850311 0.000000 
0.071546 0.006864 0.000000 
0.220880 0.637789 0.000000 
-0.445811 -0.919425 0.000000 
-0.180633 -0.241265 0.000000 
-0.702895 0.250254 0.000000 
-0.287229 0.949582 0.000000 
-0.685384 -0.549259 0.000000 
-0.957100 -0.841701 0.000000 
-0.820030 -0.217629 0.000000 
0.474522 0.209364 0.000000 
0.699407 0.876643 0.000000 
0.109248 -0.646601 0.000000 
0.441768 0.048850 0.000000 
-0.039645 0.548721 0.000000 
0.417537 -0.748717 0.000000 
0.033296 -0.248207 0.000000 
-0.338794 0.019067 0.000000 
-0.374519 0.592030 0.000000 
-0.713312 -0.788541 0.000000 
0.609100 -0.899682 0.000000 
-0.381900 -0.785742 0.000000 
-0.756418 -0.243350 0.000000 
0.513962 -0.454836 0.000000 
0.218274 0.269403 0.000000 
-0.423588 0.235299 0.000000 
-0.384386 -0.149973 0.000000 
-0.766286 0.364647 0.000000 
0.484677 0.099432 0.000000 
0.139443 0.737556 0.000000 
-0.556234 0.619987 0.000000 
-0.823577 -0.606509 0.000000 
0.550868 -0.617304 0.000000 
-0.386873 0.485796 0.000000 
-0.771260 0.986185 0.000000 
0.467428 0.679657 0.000000 
0.105264 -0.721717 0.000000 
-0.621631 -0.903616 0.000000 
-0.937896 -0.200036 0.000000 
0.385608 -0.279232 0.000000 
0.141715 0.529996 0.000000 
-0.474677 0.530093 0.000000 
CELL_DATA 175 
SCALARS MASS float 
LOOKUP_TABLE default 
0.078183 
0.086427 
0.094672 
0.086427 
0.088131 
0.092111 
0.085854 
0.092111 
0.088131 
0.088705 
0.091000 
0.086983 
0.091556 
0.086983 
0.091000 
0.088705 
0.089278 
0.091574 
0.089278 
0.092722 
0.089278 
0.092722 
0.089278 
0.091574 
0.089278 
0.078183 
0.086427 
0.094672 
0.086427 
0.088131 
0.092111 
0.085854 
0.092111 
0.088131 
0.088705 
0.091000 
0.086983 
0.091556 
0.086983 
0.091000 
0.088705 
0.089278 
0.091574 
0.089278 
0.092722 
0.089278 
0.092722 
0.089278 
0.091574 
0.089278 
0.078183 
0.086427 
0.094672 
0.086427 
0.088131 
0.092111 
0.085854 
0.092111 
0.088131 
0.088705 
0.091000 
0.086983 
0.091556 
0.086983 
0.091000 
0.088705 
0.089278 
0.091574 
0.089278 
0.092722 
0.089278 
0.092722 
0.089278 
0.091574 
0.089278 
0.078183 
0.086427 
0.094672 
0.086427 
0.088131 
0.092111 
0.085854 
0.092111 
0.088131 
0.088705 
0.091000 
0.086983 
0.091556 
0.086983 
0.091000 
0.088705 
0.089278 
0.091574 
0.089278 
0.092722 
0.089278 
0.092722 
0.089278 
0.091574 
0.089278 
0.078183 
0.086427 
0.094672 
0.086427 
0.088131 
0.092111 
0.085854 
0.092111 
0.088131 
0.088705 
0.091000 
0.086983 
0.091556 
0.086983 
0.091000 
0.088705 
0.089278 
0.091574 
0.089278 
0.092722 
0.089278 
0.092722 
0.089278 
0.091574 
0.089278 
0.078183 
0.086427 
0.094672 
0.086427 
0.088131 
0.092111 
0.085854 
0.092111 
0.088131 
0.088705 
0.091000 
0.086983 
0.091556 
0.086983 
0.091000 
0.088705 
0.089278 
0.091574 
0.089278 
0.092722 
0.089278 
0.092722 
0.089278 
0.091574 
0.089278 
0.078183 
0.086427 
0.094672 
0.086427 
0.088131 
0.092111 
0.085854 
0.092111 
0.088131 
0.088705 
0.091000 
0.086983 
0.091556 
0.086983 
0.091000 
0.088705 
0.089278 
0.091574 
0.089278 
0.092722 
0.089278 
0.092722 
0.089278 
0.091574 
0.089278 
SCALARS MASS float 
LOOKUP_TABLE default 
0.078183 
0.086427 
0.094672 
0.086427 
0.088131 
0.092111 
0.085854 
0.092111 
0.088131 
0.088705 
0.091000 
0.086983 
0.091556 
0.086983 
0.091000 
0.088705 
0.089278 
0.091574 
0.089278 
0.092722 
0.089278 
0.092722 
0.089278 
0.091574 
0.089278 
0.078183 
0.086427 
0.094672 
0.086427 
0.088131 
0.092111 
0.085854 
0.092111 
0.088131 
0.088705 
0.091000 
0.086983 
0.091556 
0.086983 
0.091000 
0.088705 
0.089278 
0.091574 
0.089278 
0.092722 
0.089278 
0.092722 
0.089278 
0.091574 
0.089278 
0.078183 
0.086427 
0.094672 
0.086427 
0.088131 
0.092111 
0.085854 
0.092111 
0.088131 
0.088705 
0.091000 
0.086983 
0.091556 
0.086983 
0.091000 
0.088705 
0.089278 
0.091574 
0.089278 
0.092722 
0.089278 
0.092722 
0.089278 
0.091574 
0.089278 
0.078183 
0.086427 
0.094672 
0.086427 
0.088131 
0.092111 
0.085854 
0.092111 
0.088131 
0.088705 
0.091000 
0.086983 
0.091556 
0.086983 
0.091000 
0.088705 
0.089278 
0.091574 
0.089278 
0.092722 
0.089278 
0.092722 
0.089278 
0.091574 
0.089278 
0.078183 
0.086427 
0.094672 
0.086427 
0.088131 
0.092111 
0.085854 
0.092111 
0.088131 
0.088705 
0.091000 
0.086983 
0.091556 
0.086983 
0.091000 
0.088705 
0.089278 
0.091574 
0.089278 
0.092722 
0.089278 
0.092722 
0.089278 
0.091574 
0.089278 
0.078183 
0.086427 
0.094672 
0.086427 
0.088131 
0.092111 
0.085854 
0.092111 
0.088131 
0.088705 
0.091000 
0.086983 
0.091556 
0.086983 
0.091000 
0.088705 
0.089278 
0.091574 
0.089278 
0.092722 
0.089278 
0.092722 
0.089278 
0.091574 
0.089278 
0.078183 
0.086427 
0.094672 
0.086427 
0.088131 
0.092111 
0.085854 
0.092111 
0.088131 
0.088705 
0.091000 
0.086983 
0.091556 
0.086983 
0.091000 
0.088705 
0.089278 
0.091574 
0.089278 
0.092722 
0.089278 
0.092722 
0.089278 
0.091574 
0.089278 
SCALARS DENSITY float 
LOOKUP_TABLE default 
20.000000 
20.000000 
20.000000 
20.000000 
20.000000 
20.000000 
20.000000 
20.000000 
20.000000 
20.000000 
20.000000 
20.000000 
20.000000 
20.000000 
20.000000 
20.000000 
20.000000 
20.000000 
20.000000 
20.000000 
20.000000 
20.000000 
20.000000 
20.000000 
20.000000 
20.000000 
20.000000 
20.000000 
20.000000 
20.000000 
20.000000 
20.000000 
20.000000 
20.000000 
20.000000 
20.000000 
20.000000 
20.000000 
20.000000 
20.000000 
20.000000 
20.000000 
20.000000 
20.000000 
20.000000 
20.000000 
20.000000 
20.000000 
20.000000 
20.000000 
20.000000 
20.000000 
20.000000 
20.000000 
20.000000 
20.000000 
20.000000 
20.000000 
20.000000 
20.000000 
20.000000 
20.000000 
20.000000 
20.000000 
20.000000 
20.000000 
20.000000 
20.000000 
20.000000 
20.000000 
20.000000 
20.000000 
20.000000 
20.000000 
20.000000 
20.000000 
20.000000 
20.000000 
20.000000 
20.000000 
20.000000 
20.000000 
20.000000 
20.000000 
20.000000 
20.000000 
20.000000 
20.000000 
20.000000 
20.000000 
20.000000 
20.000000 
20.000000 
20.000000 
20.000000 
20.000000 
20.000000 
20.000000 
20.000000 
20.000000 
20.000000 
20.000000 
20.000000 
20.000000 
20.000000 
20.000000 
20.000000 
20.000000 
20.000000 
20.000000 
20.000000 
20.000000 
20.000000 
20.000000 
20.000000 
20.000000 
20.000000 
20.000000 
20.000000 
20.000000 
20.000000 
20.000000 
20.000000 
20.000000 
20.000000 
20.000000 
20.000000 
20.000000 
20.000000 
20.000000 
20.000000 
20.000000 
20.000000 
20.000000 
20.000000 
20.000000 
20.000000 
20.000000 
20.000000 
20.000000 
20.000000 
20.000000 
20.000000 
20.000000 
20.000000 
20.000000 
20.000000 
20.000000 
20.000000 
20.000000 
20.000000 
20.000000 
20.000000 
20.000000 
20.000000 
20.000000 
20.000000 
20.000000 
20.000000 
20.000000 
20.000000 
20.000000 
20.000000 
20.000000 
20.000000 
20.000000 
20.000000 
20.000000 
20.000000 
20.000000 
20.000000 
20.000000 
20.000000 
20.000000 
20.000000 
SCALARS ELEM_i float 
LOOKUP_TABLE default 
182 
209 
182 
183 
210 
210 
210 
183 
183 
237 
210 
211 
211 
211 
184 
184 
238 
238 
238 
211 
211 
211 
212 
185 
185 
182 
209 
209 
209 
235 
209 
236 
209 
210 
235 
236 
236 
236 
236 
237 
237 
262 
262 
263 
263 
263 
264 
264 
237 
237 
181 
208 
208 
208 
207 
207 
208 
208 
235 
207 
207 
234 
234 
234 
235 
235 
206 
233 
233 
234 
234 
234 
261 
262 
262 
181 
181 
181 
181 
153 
180 
180 
180 
207 
152 
152 
179 
179 
179 
206 
206 
152 
152 
152 
179 
178 
179 
206 
206 
206 
181 
154 
154 
154 
127 
154 
154 
153 
153 
127 
127 
126 
126 
126 
153 
153 
100 
100 
99 
126 
126 
126 
125 
125 
152 
182 
155 
155 
155 
156 
155 
128 
155 
127 
129 
129 
128 
128 
128 
128 
127 
129 
129 
102 
102 
101 
101 
101 
100 
100 
182 
183 
182 
155 
183 
183 
156 
156 
156 
184 
184 
157 
157 
157 
156 
129 
185 
185 
158 
157 
157 
157 
130 
130 
130 
VECTORS VELOCITY float 
0.000000 -0.601942 0.000000 
0.000000 -0.601942 0.000000 
0.000000 -0.601942 0.000000 
0.000000 -0.601942 0.000000 
0.000000 -0.601942 0.000000 
0.000000 -0.601942 0.000000 
0.000000 -0.601942 0.000000 
0.000000 -0.601942 0.000000 
0.000000 -0.601942 0.000000 
0.000000 -0.601942 0.000000 
0.000000 -0.601942 0.000000 
0.000000 -0.601942 0.000000 
0.000000 -0.601942 0.000000 
-0.000000 -0.601942 0.000000 
-0.000000 -0.601942 0.000000 
-0.000000 -0.601942 0.000000 
-0.000000 -0.601942 0.000000 
-0.000000 -0.601942 0.000000 
-0.000000 -0.601942 0.000000 
0.000000 -0.601942 0.000000 
0.000000 -0.601942 0.000000 
-0.000000 -0.601942 0.000000 
0.000000 -0.601942 0.000000 
-0.000000 -0.601942 0.000000 
-0.000000 -0.601942 0.000000 
0.000000 -0.601942 0.000000 
-0.000000 -0.601942 0.000000 
0.000000 -0.601942 0.000000 
0.000000 -0.601942 0.000000 
-0.000000 -0.601942 0.000000 
-0.000000 -0.601942 0.000000 
-0.000000 -0.601942 0.000000 
-0.000000 -0.601942 0.000000 
0.000000 -0.601942 0.000000 
0.000000 -0.601942 0.000000 
0.000000 -0.601942 0.000000 
0.000000 -0.601942 0.000000 
0.000000 -0.601942 0.000000 
-0.000000 -0.601942 0.000000 
-0.000000 -0.601942 0.000000 
0.000000 -0.601942 0.000000 
0.000000 -0.601942 0.000000 
0.000000 -0.601942 0.000000 
0.000000 -0.601942 0.000000 
0.000000 -0.601942 0.000000 
-0.000000 -0.601942 0.000000 
-0.000000 -0.601942 0.000000 
-0.000000 -0.601942 0.000000 
0.000000 -0.601942 0.000000 
0.000000 -0.601942 0.000000 
0.000000 -0.601942 0.000000 
0.000000 -0.601942 0.000000 
0.000000 -0.601942 0.000000 
-0.000000 -0.601942 0.000000 
0.000000 -0.601942 0.000000 
-0.000000 -0.601942 0.000000 
-0.000000 -0.601942 0.000000 
-0.000000 -0.601942 0.000000 
-0.000000 -0.601942 0.000000 
0.000000 -0.601942 0.000000 
0.000000 -0.601942 0.000000 
0.000000 -0.601942 0.000000 
-0.000000 -0.601942 0.000000 
-0.000000 -0.601942 0.000000 
-0.000000 -0.601942 0.000000 
-0.000000 -0.601942 0.000000 
0.000000 -0.601942 0.000000 
0.000000 -0.601942 0.000000 
0.000000 -0.601942 0.000000 
-0.000000 -0.601942 0.000000 
-0.000000 -0.601942 0.000000 
-0.000000 -0.601942 0.000000 
0.000000 -0.601942 0.000000 
-0.000000 -0.601942 0.000000 
0.000000 -0.601942 0.000000 
-0.000000 -0.601942 0.000000 
0.000000 -0.601942 0.000000 
0.000000 -0.601942 0.000000 
0.000000 -0.601942 0.000000 
-0.000000 -0.601942 0.000000 
-0.000000 -0.601942 0.000000 
0.000000 -0.601942 0.000000 
0.000000 -0.601942 0.000000 
0.000000 -0.601942 0.000000 
-0.000000 -0.601942 0.000000 
-0.000000 -0.601942 0.000000 
-0.000000 -0.601942 0.000000 
0.000000 -0.601942 0.000000 
0.000000 -0.601942 0.000000 
0.000000 -0.601942 0.000000 
0.000000 -0.601942 0.000000 
-0.000000 -0.601942 0.000000 
-0.000000 -0.601942 0.000000 
0.000000 -0.601942 0.000000 
0.000000 -0.601942 0.000000 
0.000000 -0.601942 0.000000 
-0.000000 -0.601942 0.000000 
-0.000000 -0.601942 0.000000 
-0.000000 -0.601942 0.000000 
0.000000 -0.601942 0.000000 
-0.000000 -0.601942 0.000000 
0.000000 -0.601942 0.000000 
-0.000000 -0.601942 0.000000 
-0.000000 -0.601942 0.000000 
0.000000 -0.601942 0.000000 
0.000000 -0.601942 0.000000 
-0.000000 -0.601942 0.000000 
-0.000000 -0.601942 0.000000 
-0.000000 -0.601942 0.000000 
0.000000 -0.601942 0.000000 
0.000000 -0.601942 0.000000 
0.000000 -0.601942 0.000000 
-0.000000 -0.601942 0.000000 
-0.000000 -0.601942 0.000000 
-0.000000 -0.601942 0.000000 
0.000000 -0.601942 0.000000 
0.000000 -0.601942 0.000000 
0.000000 -0.601942 0.000000 
0.000000 -0.601942 0.000000 
-0.000000 -0.601942 0.000000 
-0.000000 -0.601942 0.000000 
-0.000000 -0.601942 0.000000 
0.000000 -0.601942 0.000000 
0.000000 -0.601942 0.000000 
-0.000000 -0.601942 0.000000 
-0.000000 -0.601942 0.000000 
0.000000 -0.601942 0.000000 
0.000000 -0.601942 0.000000 
0.000000 -0.601942 0.000000 
-0.000000 -0.601942 0.000000 
0.000000 -0.601942 0.000000 
0.000000 -0.601942 0.000000 
0.000000 -0.601942 0.000000 
0.000000 -0.601942 0.000000 
-0.000000 -0.601942 0.000000 
-0.000000 -0.601942 0.000000 
0.000000 -0.601942 0.000000 
0.000000 -0.601942 0.000000 
0.000000 -0.601942 0.000000 
0.000000 -0.601942 0.000000 
0.000000 -0.601942 0.000000 
-0.000000 -0.601942 0.000000 
-0.000000 -0.601942 0.000000 
0.000000 -0.601942 0.000000 
-0.000000 -0.601942 0.000000 
-0.000000 -0.601942 0.000000 
-0.000000 -0.601942 0.000000 
-0.000000 -0.601942 0.000000 
0.000000 -0.601942 0.000000 
0.000000 -0.601942 0.000000 
0.000000 -0.601942 0.000000 
0.000000 -0.601942 0.000000 
0.000000 -0.601942 0.000000 
0.000000 -0.601942 0.000000 
-0.000000 -0.601942 0.000000 
0.000000 -0.601942 0.000000 
-0.000000 -0.601942 0.000000 
0.000000 -0.601942 0.000000 
-0.000000 -0.601942 0.000000 
-0.000000 -0.601942 0.000000 
-0.000000 -0.601942 0.000000 
-0.000000 -0.601942 0.000000 
-0.000000 -0.601942 0.000000 
-0.000000 -0.601942 0.000000 
-0.000000 -0.601942 0.000000 
-0.000000 -0.601942 0.000000 
-0.000000 -0.601942 0.000000 
0.000000 -0.601942 0.000000 
-0.000000 -0.601942 0.000000 
0.000000 -0.601942 0.000000 
-0.000000 -0.601942 0.000000 
-0.000000 -0.601942 0.000000 
-0.000000 -0.601942 0.000000 
-0.000000 -0.601942 0.000000 
-0.000000 -0.601942 0.000000 
TENSORS STRESS float 
-0.000000 0.000000 0.000000 
0.000000 -0.000000 0.000000 
0.000000 0.000000 0.000000 

-0.000000 -0.000000 0.000000 
0.000000 -0.000000 0.000000 
0.000000 0.000000 0.000000 

-0.000000 0.000000 0.000000 
0.000000 -0.000000 0.000000 
0.000000 0.000000 0.000000 

-0.000000 0.000000 0.000000 
0.000000 0.000000 0.000000 
0.000000 0.000000 0.000000 

-0.000000 -0.000000 0.000000 
0.000000 0.000000 0.000000 
0.000000 0.000000 0.000000 

0.000000 -0.000000 0.000000 
0.000000 0.000000 0.000000 
0.000000 0.000000 0.000000 

-0.000000 0.000000 0.000000 
0.000000 0.000000 0.000000 
0.000000 0.000000 0.000000 

0.000000 -0.000000 0.000000 
0.000000 0.000000 0.000000 
0.000000 0.000000 0.000000 

0.000000 -0.000000 0.000000 
0.000000 0.000000 0.000000 
0.000000 0.000000 0.000000 

0.000000 -0.000000 0.000000 
0.000000 0.000000 0.000000 
0.000000 0.000000 0.000000 

-0.000000 0.000000 0.000000 
0.000000 -0.000000 0.000000 
0.000000 0.000000 0.000000 

-0.000000 -0.000000 0.000000 
0.000000 -0.000000 0.000000 
0.000000 0.000000 0.000000 

-0.000000 0.000000 0.000000 
0.000000 -0.000000 0.000000 
0.000000 0.000000 0.000000 

-0.000000 0.000000 0.000000 
0.000000 0.000000 0.000000 
0.000000 0.000000 0.000000 

-0.000000 -0.000000 0.000000 
0.000000 -0.000000 0.000000 
0.000000 0.000000 0.000000 

-0.000000 0.000000 0.000000 
0.000000 -0.000000 0.000000 
0.000000 0.000000 0.000000 

-0.000000 -0.000000 0.000000 
0.000000 -0.000000 0.000000 
0.000000 0.000000 0.000000 

0.000000 -0.000000 0.000000 
0.000000 -0.000000 0.000000 
0.000000 0.000000 0.000000 

0.000000 -0.000000 0.000000 
0.000000 -0.000000 0.000000 
0.000000 0.000000 0.000000 

-0.000000 -0.000000 0.000000 
0.000000 -0.000000 0.000000 
0.000000 0.000000 0.000000 

0.000000 -0.000000 0.000000 
0.000000 0.000000 0.000000 
0.000000 0.000000 0.000000 

-0.000000 -0.000000 0.000000 
0.000000 -0.000000 0.000000 
0.000000 0.000000 0.000000 

0.000000 -0.000000 0.000000 
0.000000 0.000000 0.000000 
0.000000 0.000000 0.000000 

-0.000000 0.000000 0.000000 
0.000000 -0.000000 0.000000 
0.000000 0.000000 0.000000 

-0.000000 0.000000 0.000000 
0.000000 -0.000000 0.000000 
0.000000 0.000000 0.000000 

-0.000000 0.000000 0.000000 
0.000000 -0.000000 0.000000 
0.000000 0.000000 0.000000 

-0.000000 -0.000000 0.000000 
0.000000 -0.000000 0.000000 
0.000000 0.000000 0.000000 

-0.000000 -0.000000 0.000000 
0.000000 -0.000000 0.000000 
0.000000 0.000000 0.000000 

-0.000000 -0.000000 0.000000 
0.000000 -0.000000 0.000000 
0.000000 0.000000 0.000000 

0.000000 0.000000 0.000000 
0.000000 0.000000 0.000000 
0.000000 0.000000 0.000000 

-0.000000 -0.000000 0.000000 
0.000000 -0.000000 0.000000 
0.000000 0.000000 0.000000 

-0.000000 -0.000000 0.000000 
0.000000 -0.000000 0.000000 
0.000000 0.000000 0.000000 

-0.000000 -0.000000 0.000000 
0.000000 -0.000000 0.000000 
0.000000 0.000000 0.000000 

-0.000000 -0.000000 0.000000 
0.000000 -0.000000 0.000000 
0.000000 0.000000 0.000000 

0.000000 0.000000 0.000000 
0.000000 0.000000 0.000000 
0.000000 0.000000 0.000000 

-0.000000 -0.000000 0.000000 
0.000000 -0.000000 0.000000 
0.000000 0.000000 0.000000 

0.000000 -0.000000 0.000000 
0.000000 0.000000 0.000000 
0.000000 0.000000 0.000000 

-0.000000 -0.000000 0.000000 
0.000000 -0.000000 0.000000 
0.000000 0.000000 0.000000 

0.000000 -0.000000 0.000000 
0.000000 -0.000000 0.000000 
0.000000 0.000000 0.000000 

0.000000 0.000000 0.000000 
0.000000 -0.000000 0.000000 
0.000000 0.000000 0.000000 

0.000000 -0.000000 0.000000 
0.000000 -0.000000 0.000000 
0.000000 0.000000 0.000000 

0.000000 0.000000 0.000000 
0.000000 0.000000 0.000000 
0.000000 0.000000 0.000000 

0.000000 0.000000 0.000000 
0.000000 0.000000 0.000000 
0.000000 0.000000 0.000000 

0.000000 0.000000 0.000000 
0.000000 -0.000000 0.000000 
0.000000 0.000000 0.000000 

-0.000000 0.000000 0.000000 
0.000000 -0.000000 0.000000 
0.000000 0.000000 0.000000 

-0.000000 0.000000 0.000000 
0.000000 -0.000000 0.000000 
0.000000 0.000000 0.000000 

-0.000000 0.000000 0.000000 
0.000000 0.000000 0.000000 
0.000000 0.000000 0.000000 

-0.000000 -0.000000 0.000000 
0.000000 0.000000 0.000000 
0.000000 0.000000 0.000000 

0.000000 -0.000000 0.000000 
0.000000 0.000000 0.000000 
0.000000 0.000000 0.000000 

0.000000 -0.000000 0.000000 
0.000000 -0.000000 0.000000 
0.000000 0.000000 0.000000 

0.000000 0.000000 0.000000 
0.000000 0.000000 0.000000 
0.000000 0.000000 0.000000 

-0.000000 0.000000 0.000000 
0.000000 -0.000000 0.000000 
0.000000 0.000000 0.000000 

-0.000000 0.000000 0.000000 
0.000000 -0.000000 0.000000 
0.000000 0.000000 0.000000 

0.000000 0.000000 0.000000 
0.000000 0.000000 0.000000 
0.000000 0.000000 0.000000 

-0.000000 0.000000 0.000000 
0.000000 -0.000000 0.000000 
0.000000 0.000000 0.000000 

-0.000000 0.000000 0.000000 
0.000000 -0.000000 0.000000 
0.000000 0.000000 0.000000 

0.000000 0.000000 0.000000 
0.000000 0.000000 0.000000 
0.000000 0.000000 0.000000 

0.000000 0.000000 0.000000 
0.000000 0.000000 0.000000 
0.000000 0.000000 0.000000 

0.000000 0.000000 0.000000 
0.000000 0.000000 0.000000 
0.000000 0.000000 0.000000 

-0.000000 0.000000 0.000000 
0.000000 -0.000000 0.000000 
0.000000 0.000000 0.000000 

-0.000000 0.000000 0.000000 
0.000000 -0.000000 0.000000 
0.000000 0.000000 0.000000 

-0.000000 -0.000000 0.000000 
0.000000 0.000000 0.000000 
0.000000 0.000000 0.000000 

-0.000000 0.000000 0.000000 
0.000000 -0.000000 0.000000 
0.000000 0.000000 0.000000 

-0.000000 0.000000 0.000000 
0.000000 -0.000000 0.000000 
0.000000 0.000000 0.000000 

-0.000000 0.000000 0.000000 
0.000000 0.000000 0.000000 
0.000000 0.000000 0.000000 

0.000000 0.000000 0.000000 
0.000000 0.000000 0.000000 
0.000000 0.000000 0.000000 

-0.000000 -0.000000 0.000000 
0.000000 -0.000000 0.000000 
0.000000 0.000000 0.000000 

-0.000000 0.000000 0.000000 
0.000000 0.000000 0.000000 
0.000000 0.000000 0.000000 

0.000000 0.000000 0.000000 
0.000000 0.000000 0.000000 
0.000000 0.000000 0.000000 

-0.000000 -0.000000 0.000000 
0.000000 -0.000000 0.000000 
0.000000 0.000000 0.000000 

-0.000000 0.000000 0.000000 
0.000000 -0.000000 0.000000 
0.000000 0.000000 0.000000 

-0.000000 0.000000 0.000000 
0.000000 -0.000000 0.000000 
0.000000 0.000000 0.000000 

-0.000000 0.000000 0.000000 
0.000000 -0.000000 0.000000 
0.000000 0.000000 0.000000 

0.000000 -0.000000 0.000000 
0.000000 0.000000 0.000000 
0.000000 0.000000 0.000000 

0.000000 -0.000000 0.000000 
0.000000 0.000000 0.000000 
0.000000 0.000000 0.000000 

0.000000 0.000000 0.000000 
0.000000 -0.000000 0.000000 
0.000000 0.000000 0.000000 

0.000000 0.000000 0.000000 
0.000000 0.000000 0.000000 
0.000000 0.000000 0.000000 

0.000000 0.000000 0.000000 
0.000000 0.000000 0.000000 
0.000000 0.000000 0.000000 

0.000000 0.000000 0.000000 
0.000000 0.000000 0.000000 
0.000000 0.000000 0.000000 

0.000000 0.000000 0.000000 
0.000000 0.000000 0.000000 
0.000000 0.000000 0.000000 

0.000000 0.000000 0.000000 
0.000000 0.000000 0.000000 
0.000000 0.000000 0.000000 

0.000000 0.000000 0.000000 
0.000000 0.000000 0.000000 
0.000000 0.000000 0.000000 

0.000000 0.000000 0.000000 
0.000000 0.000000 0.000000 
0.000000 0.000000 0.000000 

-0.000000 0.000000 0.000000 
0.000000 -0.000000 0.000000 
0.000000 0.000000 0.000000 

0.000000 0.000000 0.000000 
0.000000 -0.000000 0.000000 
0.000000 0.000000 0.000000 

0.000000 0.000000 0.000000 
0.000000 0.000000 0.000000 
0.000000 0.000000 0.000000 

-0.000000 -0.000000 0.000000 
0.000000 -0.000000 0.000000 
0.000000 0.000000 0.000000 

0.000000 -0.000000 0.000000 
0.000000 0.000000 0.000000 
0.000000 0.000000 0.000000 

0.000000 -0.000000 0.000000 
0.000000 0.000000 0.000000 
0.000000 0.000000 0.000000 

0.000000 -0.000000 0.000000 
0.000000 0.000000 0.000000 
0.000000 0.000000 0.000000 

-0.000000 -0.000000 0.000000 
0.000000 -0.000000 0.000000 
0.000000 0.000000 0.000000 

0.000000 -0.000000 0.000000 
0.000000 0.000000 0.000000 
0.000000 0.000000 0.000000 

0.000000 0.000000 0.000000 
0.000000 0.000000 0.000000 
0.000000 0.000000 0.000000 

-0.000000 -0.000000 0.000000 
0.000000 -0.000000 0.000000 
0.000000 0.000000 0.000000 

-0.000000 0.000000 0.000000 
0.000000 -0.000000 0.000000 
0.000000 0.000000 0.000000 

-0.000000 0.000000 0.000000 
0.000000 0.000000 0.000000 
0.000000 0.000000 0.000000 

-0.000000 0.000000 0.000000 
0.000000 0.000000 0.000000 
0.000000 0.000000 0.000000 

-0.000000 -0.000000 0.000000 
0.000000 0.000000 0.000000 
0.000000 0.000000 0.000000 

-0.000000 -0.000000 0.000000 
0.000000 0.000000 0.000000 
0.000000 0.000000 0.000000 

0.000000 -0.000000 0.000000 
0.000000 0.000000 0.000000 
0.000000 0.000000 0.000000 

0.000000 0.000000 0.000000 
0.000000 0.000000 0.000000 
0.000000 0.000000 0.000000 

-0.000000 0.000000 0.000000 
0.000000 0.000000 0.000000 
0.000000 0.000000 0.000000 

-0.000000 0.000000 0.000000 
0.000000 0.000000 0.000000 
0.000000 0.000000 0.000000 

0.000000 0.000000 0.000000 
0.000000 0.000000 0.000000 
0.000000 0.000000 0.000000 

-0.000000 0.000000 0.000000 
0.000000 -0.000000 0.000000 
0.000000 0.000000 0.000000 

-0.000000 0.000000 0.000000 
0.000000 0.000000 0.000000 
0.000000 0.000000 0.000000 

-0.000000 -0.000000 0.000000 
0.000000 0.000000 0.000000 
0.000000 0.000000 0.000000 

-0.000000 0.000000 0.000000 
0.000000 0.000000 0.000000 
0.000000 0.000000 0.000000 

0.000000 0.000000 0.000000 
0.000000 0.000000 0.000000 
0.000000 0.000000 0.000000 

-0.000000 0.000000 0.000000 
0.000000 -0.000000 0.000000 
0.000000 0.000000 0.000000 

-0.000000 0.000000 0.000000 
0.000000 0.000000 0.000000 
0.000000 0.000000 0.000000 

-0.000000 0.000000 0.000000 
0.000000 0.000000 0.000000 
0.000000 0.000000 0.000000 

-0.000000 0.000000 0.000000 
0.000000 -0.000000 0.000000 
0.000000 0.000000 0.000000 

-0.000000 0.000000 0.000000 
0.000000 -0.000000 0.000000 
0.000000 0.000000 0.000000 

0.000000 0.000000 0.000000 
0.000000 0.000000 0.000000 
0.000000 0.000000 0.000000 

0.000000 0.000000 0.000000 
0.000000 0.000000 0.000000 
0.000000 0.000000 0.000000 

0.000000 -0.000000 0.000000 
0.000000 0.000000 0.000000 
0.000000 0.000000 0.000000 

-0.000000 -0.000000 0.000000 
0.000000 -0.000000 0.000000 
0.000000 0.000000 0.000000 

0.000000 -0.000000 0.000000 
0.000000 -0.000000 0.000000 
0.000000 0.000000 0.000000 

0.000000 -0.000000 0.000000 
0.000000 0.000000 0.000000 
0.000000 0.000000 0.000000 

0.000000 -0.000000 0.000000 
0.000000 0.000000 0.000000 
0.000000 0.000000 0.000000 

0.000000 -0.000000 0.000000 
0.000000 0.000000 0.000000 
0.000000 0.000000 0.000000 

0.000000 -0.000000 0.000000 
0.000000 -0.000000 0.000000 
0.000000 0.000000 0.000000 

0.000000 -0.000000 0.000000 
0.000000 0.000000 0.000000 
0.000000 0.000000 0.000000 

0.000000 -0.000000 0.000000 
0.000000 0.000000 0.000000 
0.000000 0.000000 0.000000 

0.000000 0.000000 0.000000 
0.000000 0.000000 0.000000 
0.000000 0.000000 0.000000 

0.000000 -0.000000 0.000000 
0.000000 0.000000 0.000000 
0.000000 0.000000 0.000000 

0.000000 -0.000000 0.000000 
0.000000 0.000000 0.000000 
0.000000 0.000000 0.000000 

-0.000000 -0.000000 0.000000 
0.000000 0.000000 0.000000 
0.000000 0.000000 0.000000 

0.000000 -0.000000 0.000000 
0.000000 0.000000 0.000000 
0.000000 0.000000 0.000000 

0.000000 0.000000 0.000000 
0.000000 0.000000 0.000000 
0.000000 0.000000 0.000000 

-0.000000 0.000000 0.000000 
0.000000 -0.000000 0.000000 
0.000000 0.000000 0.000000 

0.000000 -0.000000 0.000000 
0.000000 0.000000 0.000000 
0.000000 0.000000 0.000000 

0.000000 0.000000 0.000000 
0.000000 -0.000000 0.000000 
0.000000 0.000000 0.000000 

-0.000000 0.000000 0.000000 
0.000000 0.000000 0.000000 
0.000000 0.000000 0.000000 

-0.000000 0.000000 0.000000 
0.000000 0.000000 0.000000 
0.000000 0.000000 0.000000 

0.000000 0.000000 0.000000 
0.000000 0.000000 0.000000 
0.000000 0.000000 0.000000 

0.000000 0.000000 0.000000 
0.000000 0.000000 0.000000 
0.000000 0.000000 0.000000 

0.000000 0.000000 0.000000 
0.000000 0.000000 0.000000 
0.000000 0.000000 0.000000 

0.000000 0.000000 0.000000 
0.000000 0.000000 0.000000 
0.000000 0.000000 0.000000 

0.000000 0.000000 0.000000 
0.000000 0.000000 0.000000 
0.000000 0.000000 0.000000 

-0.000000 0.000000 0.000000 
0.000000 -0.000000 0.000000 
0.000000 0.000000 0.000000 

-0.000000 0.000000 0.000000 
0.000000 0.000000 0.000000 
0.000000 0.000000 0.000000 

0.000000 -0.000000 0.000000 
0.000000 0.000000 0.000000 
0.000000 0.000000 0.000000 

-0.000000 -0.000000 0.000000 
0.000000 -0.000000 0.000000 
0.000000 0.000000 0.000000 

0.000000 0.000000 0.000000 
0.000000 0.000000 0.000000 
0.000000 0.000000 0.000000 

-0.000000 0.000000 0.000000 
0.000000 -0.000000 0.000000 
0.000000 0.000000 0.000000 

-0.000000 0.000000 0.000000 
0.000000 0.000000 0.000000 
0.000000 0.000000 0.000000 

-0.000000 0.000000 0.000000 
0.000000 0.000000 0.000000 
0.000000 0.000000 0.000000 

-0.000000 0.000000 0.000000 
0.000000 0.000000 0.000000 
0.000000 0.000000 0.000000 

-0.000000 0.000000 0.000000 
0.000000 0.000000 0.000000 
0.000000 0.000000 0.000000 

-0.000000 0.000000 0.000000 
0.000000 -0.000000 0.000000 
0.000000 0.000000 0.000000 

-0.000000 0.000000 0.000000 
0.000000 -0.000000 0.000000 
0.000000 0.000000 0.000000 

0.000000 -0.000000 0.000000 
0.000000 0.000000 0.000000 
0.000000 0.000000 0.000000 

-0.000000 -0.000000 0.000000 
0.000000 0.000000 0.000000 
0.000000 0.000000 0.000000 

-0.000000 -0.000000 0.000000 
0.000000 -0.000000 0.000000 
0.000000 0.000000 0.000000 

-0.000000 -0.000000 0.000000 
0.000000 -0.000000 0.000000 
0.000000 0.000000 0.000000 

0.000000 -0.000000 0.000000 
0.000000 0.000000 0.000000 
0.000000 0.000000 0.000000 

0.000000 -0.000000 0.000000 
0.000000 0.000000 0.000000 
0.000000 0.000000 0.000000 

-0.000000 -0.000000 0.000000 
0.000000 -0.000000 0.000000 
0.000000 0.000000 0.000000 

-0.000000 0.000000 0.000000 
0.000000 -0.000000 0.000000 
0.000000 0.000000 0.000000 

-0.000000 0.000000 0.000000 
0.000000 -0.000000 0.000000 
0.000000 0.000000 0.000000 

-0.000000 0.000000 0.000000 
0.000000 -0.000000 0.000000 
0.000000 0.000000 0.000000 

0.000000 0.000000 0.000000 
0.000000 0.000000 0.000000 
0.000000 0.000000 0.000000 

0.000000 -0.000000 0.000000 
0.000000 -0.000000 0.000000 
0.000000 0.000000 0.000000 

-0.000000 0.000000 0.000000 
0.000000 -0.000000 0.000000 
0.000000 0.000000 0.000000 

-0.000000 0.000000 0.000000 
0.000000 0.000000 0.000000 
0.000000 0.000000 0.000000 

-0.000000 0.000000 0.000000 
0.000000 0.000000 0.000000 
0.000000 0.000000 0.000000 

-0.000000 0.000000 0.000000 
0.000000 0.000000 0.000000 
0.000000 0.000000 0.000000 

-0.000000 0.000000 0.000000 
0.000000 -0.000000 0.000000 
0.000000 0.000000 0.000000 

-0.000000 0.000000 0.000000 
0.000000 -0.000000 0.000000 
0.000000 0.000000 0.000000 

-0.000000 0.000000 0.000000 
0.000000 0.000000 0.000000 
0.000000 0.000000 0.000000 

-0.000000 0.000000 0.000000 
0.000000 -0.000000 0.000000 
0.000000 0.000000 0.000000 

-0.000000 0.000000 0.000000 
0.000000 0.000000 0.000000 
0.000000 0.000000 0.000000 

-0.000000 0.000000 0.000000 
0.000000 0.000000 0.000000 
0.000000 0.000000 0.000000 

TENSORS STRAIN float 
-0.000000 0.000000 0.000000 
0.000000 0.000000 0.000000 
0.000000 0.000000 0.000000 

-0.000000 -0.000000 0.000000 
0.000000 -0.000000 0.000000 
0.000000 0.000000 0.000000 

-0.000000 0.000000 0.000000 
0.000000 0.000000 0.000000 
0.000000 0.000000 0.000000 

-0.000000 0.000000 0.000000 
0.000000 0.000000 0.000000 
0.000000 0.000000 0.000000 

-0.000000 -0.000000 0.000000 
0.000000 0.000000 0.000000 
0.000000 0.000000 0.000000 

-0.000000 -0.000000 0.000000 
0.000000 0.000000 0.000000 
0.000000 0.000000 0.000000 

-0.000000 0.000000 0.000000 
0.000000 0.000000 0.000000 
0.000000 0.000000 0.000000 

-0.000000 -0.000000 0.000000 
0.000000 0.000000 0.000000 
0.000000 0.000000 0.000000 

-0.000000 -0.000000 0.000000 
0.000000 0.000000 0.000000 
0.000000 0.000000 0.000000 

0.000000 -0.000000 0.000000 
0.000000 0.000000 0.000000 
0.000000 0.000000 0.000000 

-0.000000 0.000000 0.000000 
0.000000 -0.000000 0.000000 
0.000000 0.000000 0.000000 

-0.000000 -0.000000 0.000000 
0.000000 0.000000 0.000000 
0.000000 0.000000 0.000000 

-0.000000 0.000000 0.000000 
0.000000 -0.000000 0.000000 
0.000000 0.000000 0.000000 

-0.000000 0.000000 0.000000 
0.000000 0.000000 0.000000 
0.000000 0.000000 0.000000 

-0.000000 -0.000000 0.000000 
0.000000 -0.000000 0.000000 
0.000000 0.000000 0.000000 

-0.000000 0.000000 0.000000 
0.000000 -0.000000 0.000000 
0.000000 0.000000 0.000000 

0.000000 -0.000000 0.000000 
0.000000 -0.000000 0.000000 
0.000000 0.000000 0.000000 

0.000000 -0.000000 0.000000 
0.000000 -0.000000 0.000000 
0.000000 0.000000 0.000000 

0.000000 -0.000000 0.000000 
0.000000 -0.000000 0.000000 
0.000000 0.000000 0.000000 

-0.000000 -0.000000 0.000000 
0.000000 -0.000000 0.000000 
0.000000 0.000000 0.000000 

0.000000 -0.000000 0.000000 
0.000000 0.000000 0.000000 
0.000000 0.000000 0.000000 

0.000000 -0.000000 0.000000 
0.000000 -0.000000 0.000000 
0.000000 0.000000 0.000000 

0.000000 -0.000000 0.000000 
0.000000 0.000000 0.000000 
0.000000 0.000000 0.000000 

-0.000000 0.000000 0.000000 
0.000000 0.000000 0.000000 
0.000000 0.000000 0.000000 

-0.000000 0.000000 0.000000 
0.000000 0.000000 0.000000 
0.000000 0.000000 0.000000 

0.000000 0.000000 0.000000 
0.000000 -0.000000 0.000000 
0.000000 0.000000 0.000000 

-0.000000 -0.000000 0.000000 
0.000000 -0.000000 0.000000 
0.000000 0.000000 0.000000 

-0.000000 -0.000000 0.000000 
0.000000 -0.000000 0.000000 
0.000000 0.000000 0.000000 

-0.000000 -0.000000 0.000000 
0.000000 -0.000000 0.000000 
0.000000 0.000000 0.000000 

-0.000000 0.000000 0.000000 
0.000000 0.000000 0.000000 
0.000000 0.000000 0.000000 

-0.000000 -0.000000 0.000000 
0.000000 0.000000 0.000000 
0.000000 0.000000 0.000000 

0.000000 -0.000000 0.000000 
0.000000 -0.000000 0.000000 
0.000000 0.000000 0.000000 

-0.000000 -0.000000 0.000000 
0.000000 -0.000000 0.000000 
0.000000 0.000000 0.000000 

-0.000000 -0.000000 0.000000 
0.000000 -0.000000 0.000000 
0.000000 0.000000 0.000000 

-0.000000 0.000000 0.000000 
0.000000 0.000000 0.000000 
0.000000 0.000000 0.000000 

-0.000000 -0.000000 0.000000 
0.000000 -0.000000 0.000000 
0.000000 0.000000 0.000000 

0.000000 -0.000000 0.000000 
0.000000 0.000000 0.000000 
0.000000 0.000000 0.000000 

0.000000 -0.000000 0.000000 
0.000000 -0.000000 0.000000 
0.000000 0.000000 0.000000 

0.000000 -0.000000 0.000000 
0.000000 -0.000000 0.000000 
0.000000 0.000000 0.000000 

0.000000 0.000000 0.000000 
0.000000 -0.000000 0.000000 
0.000000 0.000000 0.000000 

0.000000 -0.000000 0.000000 
0.000000 -0.000000 0.000000 
0.000000 0.000000 0.000000 

0.000000 0.000000 0.000000 
0.000000 0.000000 0.000000 
0.000000 0.000000 0.000000 

0.000000 0.000000 0.000000 
0.000000 0.000000 0.000000 
0.000000 0.000000 0.000000 

0.000000 0.000000 0.000000 
0.000000 -0.000000 0.000000 
0.000000 0.000000 0.000000 

0.000000 0.000000 0.000000 
0.000000 -0.000000 0.000000 
0.000000 0.000000 0.000000 

-0.000000 0.000000 0.000000 
0.000000 -0.000000 0.000000 
0.000000 0.000000 0.000000 

-0.000000 0.000000 0.000000 
0.000000 0.000000 0.000000 
0.000000 0.000000 0.000000 

-0.000000 -0.000000 0.000000 
0.000000 0.000000 0.000000 
0.000000 0.000000 0.000000 

0.000000 -0.000000 0.000000 
0.000000 -0.000000 0.000000 
0.000000 0.000000 0.000000 

0.000000 -0.000000 0.000000 
0.000000 -0.000000 0.000000 
0.000000 0.000000 0.000000 

0.000000 0.000000 0.000000 
0.000000 -0.000000 0.000000 
0.000000 0.000000 0.000000 

0.000000 0.000000 0.000000 
0.000000 -0.000000 0.000000 
0.000000 0.000000 0.000000 

-0.000000 0.000000 0.000000 
0.000000 -0.000000 0.000000 
0.000000 0.000000 0.000000 

-0.000000 0.000000 0.000000 
0.000000 0.000000 0.000000 
0.000000 0.000000 0.000000 

-0.000000 0.000000 0.000000 
0.000000 -0.000000 0.000000 
0.000000 0.000000 0.000000 

0.000000 0.000000 0.000000 
0.000000 -0.000000 0.000000 
0.000000 0.000000 0.000000 

0.000000 0.000000 0.000000 
0.000000 0.000000 0.000000 
0.000000 0.000000 0.000000 

0.000000 0.000000 0.000000 
0.000000 0.000000 0.000000 
0.000000 0.000000 0.000000 

-0.000000 0.000000 0.000000 
0.000000 0.000000 0.000000 
0.000000 0.000000 0.000000 

-0.000000 0.000000 0.000000 
0.000000 -0.000000 0.000000 
0.000000 0.000000 0.000000 

-0.000000 0.000000 0.000000 
0.000000 -0.000000 0.000000 
0.000000 0.000000 0.000000 

-0.000000 -0.000000 0.000000 
0.000000 0.000000 0.000000 
0.000000 0.000000 0.000000 

-0.000000 0.000000 0.000000 
0.000000 -0.000000 0.000000 
0.000000 0.000000 0.000000 

-0.000000 0.000000 0.000000 
0.000000 -0.000000 0.000000 
0.000000 0.000000 0.000000 

-0.000000 0.000000 0.000000 
0.000000 0.000000 0.000000 
0.000000 0.000000 0.000000 

-0.000000 0.000000 0.000000 
0.000000 0.000000 0.000000 
0.000000 0.000000 0.000000 

-0.000000 -0.000000 0.000000 
0.000000 0.000000 0.000000 
0.000000 0.000000 0.000000 

-0.000000 0.000000 0.000000 
0.000000 0.000000 0.000000 
0.000000 0.000000 0.000000 

-0.000000 0.000000 0.000000 
0.000000 0.000000 0.000000 
0.000000 0.000000 0.000000 

-0.000000 -0.000000 0.000000 
0.000000 -0.000000 0.000000 
0.000000 0.000000 0.000000 

-0.000000 0.000000 0.000000 
0.000000 -0.000000 0.000000 
0.000000 0.000000 0.000000 

-0.000000 0.000000 0.000000 
0.000000 -0.000000 0.000000 
0.000000 0.000000 0.000000 

0.000000 0.000000 0.000000 
0.000000 -0.000000 0.000000 
0.000000 0.000000 0.000000 

-0.000000 -0.000000 0.000000 
0.000000 0.000000 0.000000 
0.000000 0.000000 0.000000 

-0.000000 -0.000000 0.000000 
0.000000 0.000000 0.000000 
0.000000 0.000000 0.000000 

0.000000 0.000000 0.000000 
0.000000 -0.000000 0.000000 
0.000000 0.000000 0.000000 

0.000000 0.000000 0.000000 
0.000000 0.000000 0.000000 
0.000000 0.000000 0.000000 

0.000000 0.000000 0.000000 
0.000000 -0.000000 0.000000 
0.000000 0.000000 0.000000 

0.000000 0.000000 0.000000 
0.000000 -0.000000 0.000000 
0.000000 0.000000 0.000000 

0.000000 0.000000 0.000000 
0.000000 0.000000 0.000000 
0.000000 0.000000 0.000000 

0.000000 0.000000 0.000000 
0.000000 0.000000 0.000000 
0.000000 0.000000 0.000000 

0.000000 0.000000 0.000000 
0.000000 0.000000 0.000000 
0.000000 0.000000 0.000000 

0.000000 0.000000 0.000000 
0.000000 -0.000000 0.000000 
0.000000 0.000000 0.000000 

-0.000000 0.000000 0.000000 
0.000000 -0.000000 0.000000 
0.000000 0.000000 0.000000 

0.000000 0.000000 0.000000 
0.000000 -0.000000 0.000000 
0.000000 0.000000 0.000000 

0.000000 0.000000 0.000000 
0.000000 0.000000 0.000000 
0.000000 0.000000 0.000000 

-0.000000 -0.000000 0.000000 
0.000000 -0.000000 0.000000 
0.000000 0.000000 0.000000 

0.000000 -0.000000 0.000000 
0.000000 0.000000 0.000000 
0.000000 0.000000 0.000000 

-0.000000 -0.000000 0.000000 
0.000000 0.000000 0.000000 
0.000000 0.000000 0.000000 

-0.000000 -0.000000 0.000000 
0.000000 0.000000 0.000000 
0.000000 0.000000 0.000000 

-0.000000 -0.000000 0.000000 
0.000000 0.000000 0.000000 
0.000000 0.000000 0.000000 

0.000000 -0.000000 0.000000 
0.000000 0.000000 0.000000 
0.000000 0.000000 0.000000 

0.000000 0.000000 0.000000 
0.000000 0.000000 0.000000 
0.000000 0.000000 0.000000 

0.000000 -0.000000 0.000000 
0.000000 -0.000000 0.000000 
0.000000 0.000000 0.000000 

-0.000000 0.000000 0.000000 
0.000000 -0.000000 0.000000 
0.000000 0.000000 0.000000 

-0.000000 0.000000 0.000000 
0.000000 0.000000 0.000000 
0.000000 0.000000 0.000000 

-0.000000 0.000000 0.000000 
0.000000 0.000000 0.000000 
0.000000 0.000000 0.000000 

-0.000000 -0.000000 0.000000 
0.000000 0.000000 0.000000 
0.000000 0.000000 0.000000 

-0.000000 -0.000000 0.000000 
0.000000 0.000000 0.000000 
0.000000 0.000000 0.000000 

-0.000000 -0.000000 0.000000 
0.000000 0.000000 0.000000 
0.000000 0.000000 0.000000 

0.000000 0.000000 0.000000 
0.000000 0.000000 0.000000 
0.000000 0.000000 0.000000 

-0.000000 0.000000 0.000000 
0.000000 0.000000 0.000000 
0.000000 0.000000 0.000000 

-0.000000 0.000000 0.000000 
0.000000 0.000000 0.000000 
0.000000 0.000000 0.000000 

-0.000000 0.000000 0.000000 
0.000000 0.000000 0.000000 
0.000000 0.000000 0.000000 

-0.000000 0.000000 0.000000 
0.000000 -0.000000 0.000000 
0.000000 0.000000 0.000000 

-0.000000 0.000000 0.000000 
0.000000 0.000000 0.000000 
0.000000 0.000000 0.000000 

-0.000000 -0.000000 0.000000 
0.000000 0.000000 0.000000 
0.000000 0.000000 0.000000 

-0.000000 0.000000 0.000000 
0.000000 0.000000 0.000000 
0.000000 0.000000 0.000000 

-0.000000 0.000000 0.000000 
0.000000 0.000000 0.000000 
0.000000 0.000000 0.000000 

-0.000000 0.000000 0.000000 
0.000000 -0.000000 0.000000 
0.000000 0.000000 0.000000 

-0.000000 0.000000 0.000000 
0.000000 0.000000 0.000000 
0.000000 0.000000 0.000000 

-0.000000 0.000000 0.000000 
0.000000 0.000000 0.000000 
0.000000 0.000000 0.000000 

-0.000000 0.000000 0.000000 
0.000000 0.000000 0.000000 
0.000000 0.000000 0.000000 

0.000000 0.000000 0.000000 
0.000000 -0.000000 0.000000 
0.000000 0.000000 0.000000 

0.000000 0.000000 0.000000 
0.000000 0.000000 0.000000 
0.000000 0.000000 0.000000 

0.000000 0.000000 0.000000 
0.000000 0.000000 0.000000 
0.000000 0.000000 0.000000 

-0.000000 -0.000000 0.000000 
0.000000 0.000000 0.000000 
0.000000 0.000000 0.000000 

-0.000000 -0.000000 0.000000 
0.000000 0.000000 0.000000 
0.000000 0.000000 0.000000 

0.000000 -0.000000 0.000000 
0.000000 -0.000000 0.000000 
0.000000 0.000000 0.000000 

-0.000000 -0.000000 0.000000 
0.000000 0.000000 0.000000 
0.000000 0.000000 0.000000 

0.000000 -0.000000 0.000000 
0.000000 0.000000 0.000000 
0.000000 0.000000 0.000000 

0.000000 -0.000000 0.000000 
0.000000 0.000000 0.000000 
0.000000 0.000000 0.000000 

0.000000 -0.000000 0.000000 
0.000000 -0.000000 0.000000 
0.000000 0.000000 0.000000 

0.000000 -0.000000 0.000000 
0.000000 0.000000 0.000000 
0.000000 0.000000 0.000000 

0.000000 -0.000000 0.000000 
0.000000 0.000000 0.000000 
0.000000 0.000000 0.000000 

0.000000 0.000000 0.000000 
0.000000 0.000000 0.000000 
0.000000 0.000000 0.000000 

0.000000 -0.000000 0.000000 
0.000000 0.000000 0.000000 
0.000000 0.000000 0.000000 

-0.000000 -0.000000 0.000000 
0.000000 0.000000 0.000000 
0.000000 0.000000 0.000000 

-0.000000 -0.000000 0.000000 
0.000000 0.000000 0.000000 
0.000000 0.000000 0.000000 

0.000000 -0.000000 0.000000 
0.000000 0.000000 0.000000 
0.000000 0.000000 0.000000 

0.000000 0.000000 0.000000 
0.000000 0.000000 0.000000 
0.000000 0.000000 0.000000 

-0.000000 0.000000 0.000000 
0.000000 -0.000000 0.000000 
0.000000 0.000000 0.000000 

-0.000000 -0.000000 0.000000 
0.000000 0.000000 0.000000 
0.000000 0.000000 0.000000 

0.000000 0.000000 0.000000 
0.000000 -0.000000 0.000000 
0.000000 0.000000 0.000000 

-0.000000 0.000000 0.000000 
0.000000 0.000000 0.000000 
0.000000 0.000000 0.000000 

-0.000000 0.000000 0.000000 
0.000000 0.000000 0.000000 
0.000000 0.000000 0.000000 

-0.000000 0.000000 0.000000 
0.000000 0.000000 0.000000 
0.000000 0.000000 0.000000 

-0.000000 0.000000 0.000000 
0.000000 0.000000 0.000000 
0.000000 0.000000 0.000000 

0.000000 0.000000 0.000000 
0.000000 0.000000 0.000000 
0.000000 0.000000 0.000000 

0.000000 0.000000 0.000000 
0.000000 0.000000 0.000000 
0.000000 0.000000 0.000000 

0.000000 0.000000 0.000000 
0.000000 -0.000000 0.000000 
0.000000 0.000000 0.000000 

-0.000000 0.000000 0.000000 
0.000000 0.000000 0.000000 
0.000000 0.000000 0.000000 

-0.000000 0.000000 0.000000 
0.000000 0.000000 0.000000 
0.000000 0.000000 0.000000 

0.000000 -0.000000 0.000000 
0.000000 0.000000 0.000000 
0.000000 0.000000 0.000000 

-0.000000 -0.000000 0.000000 
0.000000 -0.000000 0.000000 
0.000000 0.000000 0.000000 

-0.000000 0.000000 0.000000 
0.000000 0.000000 0.000000 
0.000000 0.000000 0.000000 

-0.000000 0.000000 0.000000 
0.000000 0.000000 0.000000 
0.000000 0.000000 0.000000 

-0.000000 0.000000 0.000000 
0.000000 0.000000 0.000000 
0.000000 0.000000 0.000000 

-0.000000 0.000000 0.000000 
0.000000 0.000000 0.000000 
0.000000 0.000000 0.000000 

-0.000000 0.000000 0.000000 
0.000000 0.000000 0.000000 
0.000000 0.000000 0.000000 

-0.000000 0.000000 0.000000 
0.000000 0.000000 0.000000 
0.000000 0.000000 0.000000 

-0.000000 0.000000 0.000000 
0.000000 0.000000 0.000000 
0.000000 0.000000 0.000000 

-0.000000 0.000000 0.000000 
0.000000 0.000000 0.000000 
0.000000 0.000000 0.000000 

0.000000 -0.000000 0.000000 
0.000000 0.000000 0.000000 
0.000000 0.000000 0.000000 

-0.000000 -0.000000 0.000000 
0.000000 0.000000 0.000000 
0.000000 0.000000 0.000000 

-0.000000 -0.000000 0.000000 
0.000000 -0.000000 0.000000 
0.000000 0.000000 0.000000 

0.000000 -0.000000 0.000000 
0.000000 -0.000000 0.000000 
0.000000 0.000000 0.000000 

0.000000 -0.000000 0.000000 
0.000000 0.000000 0.000000 
0.000000 0.000000 0.000000 

0.000000 -0.000000 0.000000 
0.000000 -0.000000 0.000000 
0.000000 0.000000 0.000000 

-0.000000 -0.000000 0.000000 
0.000000 -0.000000 0.000000 
0.000000 0.000000 0.000000 

-0.000000 0.000000 0.000000 
0.000000 -0.000000 0.000000 
0.000000 0.000000 0.000000 

-0.000000 0.000000 0.000000 
0.000000 -0.000000 0.000000 
0.000000 0.000000 0.000000 

-0.000000 0.000000 0.000000 
0.000000 -0.000000 0.000000 
0.000000 0.000000 0.000000 

-0.000000 0.000000 0.000000 
0.000000 0.000000 0.000000 
0.000000 0.000000 0.000000 

0.000000 -0.000000 0.000000 
0.000000 -0.000000 0.000000 
0.000000 0.000000 0.000000 

-0.000000 0.000000 0.000000 
0.000000 -0.000000 0.000000 
0.000000 0.000000 0.000000 

-0.000000 0.000000 0.000000 
0.000000 0.000000 0.000000 
0.000000 0.000000 0.000000 

-0.000000 0.000000 0.000000 
0.000000 0.000000 0.000000 
0.000000 0.000000 0.000000 

-0.000000 0.000000 0.000000 
0.000000 0.000000 0.000000 
0.000000 0.000000 0.000000 

-0.000000 0.000000 0.000000 
0.000000 -0.000000 0.000000 
0.000000 0.000000 0.000000 

-0.000000 0.000000 0.000000 
0.000000 -0.000000 0.000000 
0.000000 0.000000 0.000000 

-0.000000 0.000000 0.000000 
0.000000 0.000000 0.000000 
0.000000 0.000000 0.000000 

-0.000000 0.000000 0.000000 
0.000000 -0.000000 0.000000 
0.000000 0.000000 0.000000 

-0.000000 0.000000 0.000000 
0.000000 0.000000 0.000000 
0.000000 0.000000 0.000000 

-0.000000 0.000000 0.000000 
0.000000 0.000000 0.000000 
0.000000 0.000000 0.000000 

