# vtk DataFile Version 3.0 
vtk output 
ASCII 
DATASET UNSTRUCTURED_GRID 
POINTS 175 float 
-0.026061 -0.215657 0.000000 
-0.106992 -0.147601 0.000000 
-0.054870 -0.155834 0.000000 
-0.028809 -0.109950 0.000000 
-0.186430 -0.083526 0.000000 
-0.137056 -0.086052 0.000000 
-0.114311 -0.032405 0.000000 
-0.058186 -0.048070 0.000000 
-0.029377 -0.007893 0.000000 
-0.265318 -0.020370 0.000000 
-0.217198 -0.021170 0.000000 
-0.196633 0.036127 0.000000 
-0.143120 0.027418 0.000000 
-0.116563 0.074686 0.000000 
-0.058945 0.055041 0.000000 
-0.029568 0.093161 0.000000 
-0.344206 0.042786 0.000000 
-0.296791 0.042793 0.000000 
-0.278030 0.102736 0.000000 
-0.225992 0.096869 0.000000 
-0.201664 0.148986 0.000000 
-0.145749 0.135512 0.000000 
-0.117890 0.179855 0.000000 
-0.059328 0.157149 0.000000 
-0.029759 0.194215 0.000000 
-0.058559 -0.256408 0.000000 
-0.162226 -0.277250 0.000000 
-0.123292 -0.241633 0.000000 
-0.142917 -0.192649 0.000000 
-0.261851 -0.299407 0.000000 
-0.229092 -0.262380 0.000000 
-0.256854 -0.211148 0.000000 
-0.209613 -0.177035 0.000000 
-0.223062 -0.129461 0.000000 
-0.360414 -0.321707 0.000000 
-0.329787 -0.284584 0.000000 
-0.361761 -0.232782 0.000000 
-0.321587 -0.196373 0.000000 
-0.341985 -0.146139 0.000000 
-0.290702 -0.113340 0.000000 
-0.302189 -0.066605 0.000000 
-0.458977 -0.344007 0.000000 
-0.429420 -0.306932 0.000000 
-0.464588 -0.254890 0.000000 
-0.427556 -0.217863 0.000000 
-0.453135 -0.166348 0.000000 
-0.407738 -0.131033 0.000000 
-0.425037 -0.081605 0.000000 
-0.370772 -0.049976 0.000000 
-0.381315 -0.003748 0.000000 
-0.046960 -0.307223 0.000000 
-0.095301 -0.401269 0.000000 
-0.098873 -0.348621 0.000000 
-0.149405 -0.333424 0.000000 
-0.140093 -0.492973 0.000000 
-0.148617 -0.444275 0.000000 
-0.205981 -0.434037 0.000000 
-0.203197 -0.375834 0.000000 
-0.248777 -0.356687 0.000000 
-0.184111 -0.583936 0.000000 
-0.194039 -0.536845 0.000000 
-0.254475 -0.529546 0.000000 
-0.257893 -0.475436 0.000000 
-0.309886 -0.460064 0.000000 
-0.303554 -0.399518 0.000000 
-0.347255 -0.379360 0.000000 
-0.228129 -0.674900 0.000000 
-0.238687 -0.628676 0.000000 
-0.301302 -0.623724 0.000000 
-0.307162 -0.571685 0.000000 
-0.363386 -0.559564 0.000000 
-0.362692 -0.502052 0.000000 
-0.412122 -0.484759 0.000000 
-0.403017 -0.422613 0.000000 
-0.445733 -0.402034 0.000000 
-0.000000 -0.329838 0.000000 
0.043388 -0.426268 0.000000 
-0.000000 -0.396236 0.000000 
-0.043388 -0.426268 0.000000 
0.087158 -0.518465 0.000000 
0.043769 -0.494766 0.000000 
-0.000000 -0.533232 0.000000 
-0.043769 -0.494766 0.000000 
-0.087158 -0.518465 0.000000 
0.130831 -0.609595 0.000000 
0.087824 -0.587996 0.000000 
0.044436 -0.630696 0.000000 
-0.000000 -0.599631 0.000000 
-0.044436 -0.630696 0.000000 
-0.087824 -0.587996 0.000000 
-0.130831 -0.609595 0.000000 
0.174505 -0.700724 0.000000 
0.131782 -0.680158 0.000000 
0.088871 -0.726025 0.000000 
0.044532 -0.698161 0.000000 
-0.000000 -0.734561 0.000000 
-0.044532 -0.698161 0.000000 
-0.088871 -0.726025 0.000000 
-0.131782 -0.680158 0.000000 
-0.174505 -0.700724 0.000000 
0.046960 -0.307223 0.000000 
0.149405 -0.333424 0.000000 
0.098873 -0.348621 0.000000 
0.095301 -0.401269 0.000000 
0.248777 -0.356687 0.000000 
0.203197 -0.375834 0.000000 
0.205981 -0.434037 0.000000 
0.148617 -0.444275 0.000000 
0.140093 -0.492973 0.000000 
0.347255 -0.379360 0.000000 
0.303554 -0.399518 0.000000 
0.309886 -0.460064 0.000000 
0.257893 -0.475436 0.000000 
0.254475 -0.529546 0.000000 
0.194039 -0.536845 0.000000 
0.184111 -0.583936 0.000000 
0.445733 -0.402034 0.000000 
0.403017 -0.422613 0.000000 
0.412122 -0.484759 0.000000 
0.362692 -0.502052 0.000000 
0.363386 -0.559564 0.000000 
0.307162 -0.571685 0.000000 
0.301302 -0.623724 0.000000 
0.238687 -0.628676 0.000000 
0.228129 -0.674900 0.000000 
0.058559 -0.256408 0.000000 
0.142917 -0.192649 0.000000 
0.123292 -0.241633 0.000000 
0.162226 -0.277250 0.000000 
0.223062 -0.129461 0.000000 
0.209613 -0.177035 0.000000 
0.256854 -0.211148 0.000000 
0.229092 -0.262380 0.000000 
0.261851 -0.299407 0.000000 
0.302189 -0.066605 0.000000 
0.290702 -0.113340 0.000000 
0.341985 -0.146139 0.000000 
0.321587 -0.196373 0.000000 
0.361761 -0.232782 0.000000 
0.329787 -0.284584 0.000000 
0.360414 -0.321707 0.000000 
0.381315 -0.003748 0.000000 
0.370772 -0.049976 0.000000 
0.425037 -0.081605 0.000000 
0.407738 -0.131033 0.000000 
0.453135 -0.166348 0.000000 
0.427556 -0.217863 0.000000 
0.464588 -0.254890 0.000000 
0.429420 -0.306932 0.000000 
0.458977 -0.344007 0.000000 
0.026061 -0.215657 0.000000 
0.028809 -0.109950 0.000000 
0.054870 -0.155834 0.000000 
0.106992 -0.147601 0.000000 
0.029377 -0.007893 0.000000 
0.058186 -0.048070 0.000000 
0.114311 -0.032405 0.000000 
0.137056 -0.086052 0.000000 
0.186430 -0.083526 0.000000 
0.029568 0.093161 0.000000 
0.058945 0.055041 0.000000 
0.116563 0.074686 0.000000 
0.143120 0.027418 0.000000 
0.196633 0.036127 0.000000 
0.217198 -0.021170 0.000000 
0.265318 -0.020370 0.000000 
0.029759 0.194215 0.000000 
0.059328 0.157149 0.000000 
0.117890 0.179855 0.000000 
0.145749 0.135512 0.000000 
0.201664 0.148986 0.000000 
0.225992 0.096869 0.000000 
0.278030 0.102736 0.000000 
0.296791 0.042793 0.000000 
0.344206 0.042786 0.000000 
CELLS 175 350 
1 0 
1 1 
1 2 
1 3 
1 4 
1 5 
1 6 
1 7 
1 8 
1 9 
1 10 
1 11 
1 12 
1 13 
1 14 
1 15 
1 16 
1 17 
1 18 
1 19 
1 20 
1 21 
1 22 
1 23 
1 24 
1 25 
1 26 
1 27 
1 28 
1 29 
1 30 
1 31 
1 32 
1 33 
1 34 
1 35 
1 36 
1 37 
1 38 
1 39 
1 40 
1 41 
1 42 
1 43 
1 44 
1 45 
1 46 
1 47 
1 48 
1 49 
1 50 
1 51 
1 52 
1 53 
1 54 
1 55 
1 56 
1 57 
1 58 
1 59 
1 60 
1 61 
1 62 
1 63 
1 64 
1 65 
1 66 
1 67 
1 68 
1 69 
1 70 
1 71 
1 72 
1 73 
1 74 
1 75 
1 76 
1 77 
1 78 
1 79 
1 80 
1 81 
1 82 
1 83 
1 84 
1 85 
1 86 
1 87 
1 88 
1 89 
1 90 
1 91 
1 92 
1 93 
1 94 
1 95 
1 96 
1 97 
1 98 
1 99 
1 100 
1 101 
1 102 
1 103 
1 104 
1 105 
1 106 
1 107 
1 108 
1 109 
1 110 
1 111 
1 112 
1 113 
1 114 
1 115 
1 116 
1 117 
1 118 
1 119 
1 120 
1 121 
1 122 
1 123 
1 124 
1 125 
1 126 
1 127 
1 128 
1 129 
1 130 
1 131 
1 132 
1 133 
1 134 
1 135 
1 136 
1 137 
1 138 
1 139 
1 140 
1 141 
1 142 
1 143 
1 144 
1 145 
1 146 
1 147 
1 148 
1 149 
1 150 
1 151 
1 152 
1 153 
1 154 
1 155 
1 156 
1 157 
1 158 
1 159 
1 160 
1 161 
1 162 
1 163 
1 164 
1 165 
1 166 
1 167 
1 168 
1 169 
1 170 
1 171 
1 172 
1 173 
1 174 
CELL_TYPES 175 
1 
1 
1 
1 
1 
1 
1 
1 
1 
1 
1 
1 
1 
1 
1 
1 
1 
1 
1 
1 
1 
1 
1 
1 
1 
1 
1 
1 
1 
1 
1 
1 
1 
1 
1 
1 
1 
1 
1 
1 
1 
1 
1 
1 
1 
1 
1 
1 
1 
1 
1 
1 
1 
1 
1 
1 
1 
1 
1 
1 
1 
1 
1 
1 
1 
1 
1 
1 
1 
1 
1 
1 
1 
1 
1 
1 
1 
1 
1 
1 
1 
1 
1 
1 
1 
1 
1 
1 
1 
1 
1 
1 
1 
1 
1 
1 
1 
1 
1 
1 
1 
1 
1 
1 
1 
1 
1 
1 
1 
1 
1 
1 
1 
1 
1 
1 
1 
1 
1 
1 
1 
1 
1 
1 
1 
1 
1 
1 
1 
1 
1 
1 
1 
1 
1 
1 
1 
1 
1 
1 
1 
1 
1 
1 
1 
1 
1 
1 
1 
1 
1 
1 
1 
1 
1 
1 
1 
1 
1 
1 
1 
1 
1 
1 
1 
1 
1 
1 
1 
1 
1 
1 
1 
1 
1 
POINT_DATA 175 
VECTORS X_GC float 
-0.026061 -0.215657 0.000000 
-0.106992 -0.147601 0.000000 
-0.054870 -0.155834 0.000000 
-0.028809 -0.109950 0.000000 
-0.186430 -0.083526 0.000000 
-0.137056 -0.086052 0.000000 
-0.114311 -0.032405 0.000000 
-0.058186 -0.048070 0.000000 
-0.029377 -0.007893 0.000000 
-0.265318 -0.020370 0.000000 
-0.217198 -0.021170 0.000000 
-0.196633 0.036127 0.000000 
-0.143120 0.027418 0.000000 
-0.116563 0.074686 0.000000 
-0.058945 0.055041 0.000000 
-0.029568 0.093161 0.000000 
-0.344206 0.042786 0.000000 
-0.296791 0.042793 0.000000 
-0.278030 0.102736 0.000000 
-0.225992 0.096869 0.000000 
-0.201664 0.148986 0.000000 
-0.145749 0.135512 0.000000 
-0.117890 0.179855 0.000000 
-0.059328 0.157149 0.000000 
-0.029759 0.194215 0.000000 
-0.058559 -0.256408 0.000000 
-0.162226 -0.277250 0.000000 
-0.123292 -0.241633 0.000000 
-0.142917 -0.192649 0.000000 
-0.261851 -0.299407 0.000000 
-0.229092 -0.262380 0.000000 
-0.256854 -0.211148 0.000000 
-0.209613 -0.177035 0.000000 
-0.223062 -0.129461 0.000000 
-0.360414 -0.321707 0.000000 
-0.329787 -0.284584 0.000000 
-0.361761 -0.232782 0.000000 
-0.321587 -0.196373 0.000000 
-0.341985 -0.146139 0.000000 
-0.290702 -0.113340 0.000000 
-0.302189 -0.066605 0.000000 
-0.458977 -0.344007 0.000000 
-0.429420 -0.306932 0.000000 
-0.464588 -0.254890 0.000000 
-0.427556 -0.217863 0.000000 
-0.453135 -0.166348 0.000000 
-0.407738 -0.131033 0.000000 
-0.425037 -0.081605 0.000000 
-0.370772 -0.049976 0.000000 
-0.381315 -0.003748 0.000000 
-0.046960 -0.307223 0.000000 
-0.095301 -0.401269 0.000000 
-0.098873 -0.348621 0.000000 
-0.149405 -0.333424 0.000000 
-0.140093 -0.492973 0.000000 
-0.148617 -0.444275 0.000000 
-0.205981 -0.434037 0.000000 
-0.203197 -0.375834 0.000000 
-0.248777 -0.356687 0.000000 
-0.184111 -0.583936 0.000000 
-0.194039 -0.536845 0.000000 
-0.254475 -0.529546 0.000000 
-0.257893 -0.475436 0.000000 
-0.309886 -0.460064 0.000000 
-0.303554 -0.399518 0.000000 
-0.347255 -0.379360 0.000000 
-0.228129 -0.674900 0.000000 
-0.238687 -0.628676 0.000000 
-0.301302 -0.623724 0.000000 
-0.307162 -0.571685 0.000000 
-0.363386 -0.559564 0.000000 
-0.362692 -0.502052 0.000000 
-0.412122 -0.484759 0.000000 
-0.403017 -0.422613 0.000000 
-0.445733 -0.402034 0.000000 
-0.000000 -0.329838 0.000000 
0.043388 -0.426268 0.000000 
-0.000000 -0.396236 0.000000 
-0.043388 -0.426268 0.000000 
0.087158 -0.518465 0.000000 
0.043769 -0.494766 0.000000 
-0.000000 -0.533232 0.000000 
-0.043769 -0.494766 0.000000 
-0.087158 -0.518465 0.000000 
0.130831 -0.609595 0.000000 
0.087824 -0.587996 0.000000 
0.044436 -0.630696 0.000000 
-0.000000 -0.599631 0.000000 
-0.044436 -0.630696 0.000000 
-0.087824 -0.587996 0.000000 
-0.130831 -0.609595 0.000000 
0.174505 -0.700724 0.000000 
0.131782 -0.680158 0.000000 
0.088871 -0.726025 0.000000 
0.044532 -0.698161 0.000000 
-0.000000 -0.734561 0.000000 
-0.044532 -0.698161 0.000000 
-0.088871 -0.726025 0.000000 
-0.131782 -0.680158 0.000000 
-0.174505 -0.700724 0.000000 
0.046960 -0.307223 0.000000 
0.149405 -0.333424 0.000000 
0.098873 -0.348621 0.000000 
0.095301 -0.401269 0.000000 
0.248777 -0.356687 0.000000 
0.203197 -0.375834 0.000000 
0.205981 -0.434037 0.000000 
0.148617 -0.444275 0.000000 
0.140093 -0.492973 0.000000 
0.347255 -0.379360 0.000000 
0.303554 -0.399518 0.000000 
0.309886 -0.460064 0.000000 
0.257893 -0.475436 0.000000 
0.254475 -0.529546 0.000000 
0.194039 -0.536845 0.000000 
0.184111 -0.583936 0.000000 
0.445733 -0.402034 0.000000 
0.403017 -0.422613 0.000000 
0.412122 -0.484759 0.000000 
0.362692 -0.502052 0.000000 
0.363386 -0.559564 0.000000 
0.307162 -0.571685 0.000000 
0.301302 -0.623724 0.000000 
0.238687 -0.628676 0.000000 
0.228129 -0.674900 0.000000 
0.058559 -0.256408 0.000000 
0.142917 -0.192649 0.000000 
0.123292 -0.241633 0.000000 
0.162226 -0.277250 0.000000 
0.223062 -0.129461 0.000000 
0.209613 -0.177035 0.000000 
0.256854 -0.211148 0.000000 
0.229092 -0.262380 0.000000 
0.261851 -0.299407 0.000000 
0.302189 -0.066605 0.000000 
0.290702 -0.113340 0.000000 
0.341985 -0.146139 0.000000 
0.321587 -0.196373 0.000000 
0.361761 -0.232782 0.000000 
0.329787 -0.284584 0.000000 
0.360414 -0.321707 0.000000 
0.381315 -0.003748 0.000000 
0.370772 -0.049976 0.000000 
0.425037 -0.081605 0.000000 
0.407738 -0.131033 0.000000 
0.453135 -0.166348 0.000000 
0.427556 -0.217863 0.000000 
0.464588 -0.254890 0.000000 
0.429420 -0.306932 0.000000 
0.458977 -0.344007 0.000000 
0.026061 -0.215657 0.000000 
0.028809 -0.109950 0.000000 
0.054870 -0.155834 0.000000 
0.106992 -0.147601 0.000000 
0.029377 -0.007893 0.000000 
0.058186 -0.048070 0.000000 
0.114311 -0.032405 0.000000 
0.137056 -0.086052 0.000000 
0.186430 -0.083526 0.000000 
0.029568 0.093161 0.000000 
0.058945 0.055041 0.000000 
0.116563 0.074686 0.000000 
0.143120 0.027418 0.000000 
0.196633 0.036127 0.000000 
0.217198 -0.021170 0.000000 
0.265318 -0.020370 0.000000 
0.029759 0.194215 0.000000 
0.059328 0.157149 0.000000 
0.117890 0.179855 0.000000 
0.145749 0.135512 0.000000 
0.201664 0.148986 0.000000 
0.225992 0.096869 0.000000 
0.278030 0.102736 0.000000 
0.296791 0.042793 0.000000 
0.344206 0.042786 0.000000 
VECTORS X_EC float 
0.338794 -0.588632 0.000000 
-0.609100 0.492619 0.000000 
0.713312 0.603760 0.000000 
0.374519 -0.015670 0.000000 
0.423588 -0.372400 0.000000 
-0.218274 -0.338297 0.000000 
-0.513962 0.937465 0.000000 
0.756418 -0.851049 0.000000 
0.381900 0.606558 0.000000 
-0.550868 0.774997 0.000000 
0.823577 0.785792 0.000000 
0.556234 0.012288 0.000000 
-0.139443 0.129857 0.000000 
-0.484677 -0.508268 0.000000 
0.766286 -0.243052 0.000000 
0.384386 -0.757673 0.000000 
0.474677 -0.077607 0.000000 
-0.141715 -0.077703 0.000000 
-0.385608 -0.886931 0.000000 
0.937896 -0.807736 0.000000 
0.621631 0.488684 0.000000 
-0.105264 0.670584 0.000000 
-0.467428 0.071957 0.000000 
0.771260 0.378486 0.000000 
0.386873 -0.121904 0.000000 
0.761262 -0.038498 0.000000 
0.108942 0.242879 0.000000 
-0.397202 -0.237961 0.000000 
-0.142083 -0.899236 0.000000 
-0.595936 0.541989 0.000000 
0.978194 0.042123 0.000000 
-0.660903 -0.649502 0.000000 
0.724964 0.889978 0.000000 
0.899809 0.247730 0.000000 
0.685384 0.843041 0.000000 
0.287229 0.341883 0.000000 
0.702895 -0.357446 0.000000 
0.180633 -0.848964 0.000000 
0.445811 0.472876 0.000000 
-0.220880 0.030090 0.000000 
-0.071546 -0.600835 0.000000 
-0.033296 -0.855906 0.000000 
-0.417537 0.643584 0.000000 
0.039645 -0.058979 0.000000 
-0.441768 -0.558850 0.000000 
-0.109248 0.745700 0.000000 
-0.699407 0.268944 0.000000 
-0.474522 -0.398335 0.000000 
0.820030 -0.825329 0.000000 
0.957100 0.550600 0.000000 
0.610485 0.647508 0.000000 
-0.761092 -0.082872 0.000000 
-0.714655 -0.793610 0.000000 
-0.057734 -0.998777 0.000000 
-0.178789 -0.844868 0.000000 
-0.067979 0.497706 0.000000 
0.677748 0.359502 0.000000 
0.641556 -0.426243 0.000000 
-0.765897 -0.684721 0.000000 
0.393446 0.383141 0.000000 
0.522510 -0.252589 0.000000 
-0.691820 -0.351133 0.000000 
-0.647393 0.918384 0.000000 
0.028512 0.710858 0.000000 
-0.053800 -0.106503 0.000000 
0.514316 -0.378634 0.000000 
0.965681 -0.388850 0.000000 
-0.897068 0.987121 0.000000 
-0.083078 0.920268 0.000000 
-0.006893 0.217744 0.000000 
0.724017 0.054111 0.000000 
0.714996 -0.722293 0.000000 
-0.642413 -0.955750 0.000000 
-0.760780 0.205269 0.000000 
-0.205471 -0.072546 0.000000 
0.000000 0.952810 0.000000 
-0.564049 0.254623 0.000000 
0.000000 -0.150813 0.000000 
0.564049 0.254623 0.000000 
0.866949 -0.500722 0.000000 
-0.569003 -0.820653 0.000000 
0.000000 -0.301365 0.000000 
0.569003 -0.820653 0.000000 
-0.866949 -0.500722 0.000000 
0.299194 0.729528 0.000000 
0.858290 0.437944 0.000000 
-0.577662 -0.985610 0.000000 
0.000000 0.595012 0.000000 
0.577662 -0.985610 0.000000 
-0.858290 0.437944 0.000000 
-0.299194 0.729528 0.000000 
-0.268560 -0.040222 0.000000 
0.286830 -0.317863 0.000000 
0.844677 0.301335 0.000000 
-0.578910 -0.074828 0.000000 
0.000000 0.416576 0.000000 
0.578910 -0.074828 0.000000 
-0.844677 0.301335 0.000000 
-0.286830 -0.317863 0.000000 
0.268560 -0.040222 0.000000 
-0.610485 0.647508 0.000000 
0.057734 -0.998777 0.000000 
0.714655 -0.793610 0.000000 
0.761092 -0.082872 0.000000 
0.765897 -0.684721 0.000000 
-0.641556 -0.426243 0.000000 
-0.677748 0.359502 0.000000 
0.067979 0.497706 0.000000 
0.178789 -0.844868 0.000000 
-0.514316 -0.378634 0.000000 
0.053800 -0.106503 0.000000 
-0.028512 0.710858 0.000000 
0.647393 0.918384 0.000000 
0.691820 -0.351133 0.000000 
-0.522510 -0.252589 0.000000 
-0.393446 0.383141 0.000000 
0.205471 -0.072546 0.000000 
0.760780 0.205269 0.000000 
0.642413 -0.955750 0.000000 
-0.714996 -0.722293 0.000000 
-0.724017 0.054111 0.000000 
0.006894 0.217744 0.000000 
0.083078 0.920268 0.000000 
0.897068 0.987121 0.000000 
-0.965681 -0.388850 0.000000 
-0.761262 -0.038498 0.000000 
0.142083 -0.899236 0.000000 
0.397202 -0.237961 0.000000 
-0.108942 0.242879 0.000000 
-0.899809 0.247730 0.000000 
-0.724964 0.889978 0.000000 
0.660903 -0.649502 0.000000 
-0.978194 0.042123 0.000000 
0.595936 0.541989 0.000000 
0.071546 -0.600835 0.000000 
0.220880 0.030090 0.000000 
-0.445811 0.472876 0.000000 
-0.180633 -0.848964 0.000000 
-0.702895 -0.357446 0.000000 
-0.287229 0.341883 0.000000 
-0.685384 0.843041 0.000000 
-0.957100 0.550600 0.000000 
-0.820030 -0.825329 0.000000 
0.474522 -0.398335 0.000000 
0.699407 0.268944 0.000000 
0.109248 0.745700 0.000000 
0.441768 -0.558850 0.000000 
-0.039645 -0.058979 0.000000 
0.417537 0.643584 0.000000 
0.033296 -0.855906 0.000000 
-0.338794 -0.588632 0.000000 
-0.374519 -0.015670 0.000000 
-0.713312 0.603760 0.000000 
0.609100 0.492619 0.000000 
-0.381900 0.606558 0.000000 
-0.756418 -0.851049 0.000000 
0.513962 0.937465 0.000000 
0.218274 -0.338297 0.000000 
-0.423588 -0.372400 0.000000 
-0.384386 -0.757673 0.000000 
-0.766286 -0.243052 0.000000 
0.484677 -0.508268 0.000000 
0.139443 0.129857 0.000000 
-0.556234 0.012288 0.000000 
-0.823577 0.785792 0.000000 
0.550868 0.774997 0.000000 
-0.386873 -0.121904 0.000000 
-0.771260 0.378486 0.000000 
0.467428 0.071957 0.000000 
0.105264 0.670584 0.000000 
-0.621631 0.488684 0.000000 
-0.937896 -0.807736 0.000000 
0.385608 -0.886931 0.000000 
0.141715 -0.077703 0.000000 
-0.474677 -0.077607 0.000000 
CELL_DATA 175 
SCALARS MASS float 
LOOKUP_TABLE default 
0.078183 
0.086427 
0.094672 
0.086427 
0.088131 
0.092111 
0.085854 
0.092111 
0.088131 
0.088705 
0.091000 
0.086983 
0.091556 
0.086983 
0.091000 
0.088705 
0.089278 
0.091574 
0.089278 
0.092722 
0.089278 
0.092722 
0.089278 
0.091574 
0.089278 
0.078183 
0.086427 
0.094672 
0.086427 
0.088131 
0.092111 
0.085854 
0.092111 
0.088131 
0.088705 
0.091000 
0.086983 
0.091556 
0.086983 
0.091000 
0.088705 
0.089278 
0.091574 
0.089278 
0.092722 
0.089278 
0.092722 
0.089278 
0.091574 
0.089278 
0.078183 
0.086427 
0.094672 
0.086427 
0.088131 
0.092111 
0.085854 
0.092111 
0.088131 
0.088705 
0.091000 
0.086983 
0.091556 
0.086983 
0.091000 
0.088705 
0.089278 
0.091574 
0.089278 
0.092722 
0.089278 
0.092722 
0.089278 
0.091574 
0.089278 
0.078183 
0.086427 
0.094672 
0.086427 
0.088131 
0.092111 
0.085854 
0.092111 
0.088131 
0.088705 
0.091000 
0.086983 
0.091556 
0.086983 
0.091000 
0.088705 
0.089278 
0.091574 
0.089278 
0.092722 
0.089278 
0.092722 
0.089278 
0.091574 
0.089278 
0.078183 
0.086427 
0.094672 
0.086427 
0.088131 
0.092111 
0.085854 
0.092111 
0.088131 
0.088705 
0.091000 
0.086983 
0.091556 
0.086983 
0.091000 
0.088705 
0.089278 
0.091574 
0.089278 
0.092722 
0.089278 
0.092722 
0.089278 
0.091574 
0.089278 
0.078183 
0.086427 
0.094672 
0.086427 
0.088131 
0.092111 
0.085854 
0.092111 
0.088131 
0.088705 
0.091000 
0.086983 
0.091556 
0.086983 
0.091000 
0.088705 
0.089278 
0.091574 
0.089278 
0.092722 
0.089278 
0.092722 
0.089278 
0.091574 
0.089278 
0.078183 
0.086427 
0.094672 
0.086427 
0.088131 
0.092111 
0.085854 
0.092111 
0.088131 
0.088705 
0.091000 
0.086983 
0.091556 
0.086983 
0.091000 
0.088705 
0.089278 
0.091574 
0.089278 
0.092722 
0.089278 
0.092722 
0.089278 
0.091574 
0.089278 
SCALARS MASS float 
LOOKUP_TABLE default 
0.078183 
0.086427 
0.094672 
0.086427 
0.088131 
0.092111 
0.085854 
0.092111 
0.088131 
0.088705 
0.091000 
0.086983 
0.091556 
0.086983 
0.091000 
0.088705 
0.089278 
0.091574 
0.089278 
0.092722 
0.089278 
0.092722 
0.089278 
0.091574 
0.089278 
0.078183 
0.086427 
0.094672 
0.086427 
0.088131 
0.092111 
0.085854 
0.092111 
0.088131 
0.088705 
0.091000 
0.086983 
0.091556 
0.086983 
0.091000 
0.088705 
0.089278 
0.091574 
0.089278 
0.092722 
0.089278 
0.092722 
0.089278 
0.091574 
0.089278 
0.078183 
0.086427 
0.094672 
0.086427 
0.088131 
0.092111 
0.085854 
0.092111 
0.088131 
0.088705 
0.091000 
0.086983 
0.091556 
0.086983 
0.091000 
0.088705 
0.089278 
0.091574 
0.089278 
0.092722 
0.089278 
0.092722 
0.089278 
0.091574 
0.089278 
0.078183 
0.086427 
0.094672 
0.086427 
0.088131 
0.092111 
0.085854 
0.092111 
0.088131 
0.088705 
0.091000 
0.086983 
0.091556 
0.086983 
0.091000 
0.088705 
0.089278 
0.091574 
0.089278 
0.092722 
0.089278 
0.092722 
0.089278 
0.091574 
0.089278 
0.078183 
0.086427 
0.094672 
0.086427 
0.088131 
0.092111 
0.085854 
0.092111 
0.088131 
0.088705 
0.091000 
0.086983 
0.091556 
0.086983 
0.091000 
0.088705 
0.089278 
0.091574 
0.089278 
0.092722 
0.089278 
0.092722 
0.089278 
0.091574 
0.089278 
0.078183 
0.086427 
0.094672 
0.086427 
0.088131 
0.092111 
0.085854 
0.092111 
0.088131 
0.088705 
0.091000 
0.086983 
0.091556 
0.086983 
0.091000 
0.088705 
0.089278 
0.091574 
0.089278 
0.092722 
0.089278 
0.092722 
0.089278 
0.091574 
0.089278 
0.078183 
0.086427 
0.094672 
0.086427 
0.088131 
0.092111 
0.085854 
0.092111 
0.088131 
0.088705 
0.091000 
0.086983 
0.091556 
0.086983 
0.091000 
0.088705 
0.089278 
0.091574 
0.089278 
0.092722 
0.089278 
0.092722 
0.089278 
0.091574 
0.089278 
SCALARS DENSITY float 
LOOKUP_TABLE default 
20.000000 
20.000000 
20.000000 
20.000000 
20.000000 
20.000000 
20.000000 
20.000000 
20.000000 
20.000000 
20.000000 
20.000000 
20.000000 
20.000000 
20.000000 
20.000000 
20.000000 
20.000000 
20.000000 
20.000000 
20.000000 
20.000000 
20.000000 
20.000000 
20.000000 
20.000000 
20.000000 
20.000000 
20.000000 
20.000000 
20.000000 
20.000000 
20.000000 
20.000000 
20.000000 
20.000000 
20.000000 
20.000000 
20.000000 
20.000000 
20.000000 
20.000000 
20.000000 
20.000000 
20.000000 
20.000000 
20.000000 
20.000000 
20.000000 
20.000000 
20.000000 
20.000000 
20.000000 
20.000000 
20.000000 
20.000000 
20.000000 
20.000000 
20.000000 
20.000000 
20.000000 
20.000000 
20.000000 
20.000000 
20.000000 
20.000000 
20.000000 
20.000000 
20.000000 
20.000000 
20.000000 
20.000000 
20.000000 
20.000000 
20.000000 
20.000000 
20.000000 
20.000000 
20.000000 
20.000000 
20.000000 
20.000000 
20.000000 
20.000000 
20.000000 
20.000000 
20.000000 
20.000000 
20.000000 
20.000000 
20.000000 
20.000000 
20.000000 
20.000000 
20.000000 
20.000000 
20.000000 
20.000000 
20.000000 
20.000000 
20.000000 
20.000000 
20.000000 
20.000000 
20.000000 
20.000000 
20.000000 
20.000000 
20.000000 
20.000000 
20.000000 
20.000000 
20.000000 
20.000000 
20.000000 
20.000000 
20.000000 
20.000000 
20.000000 
20.000000 
20.000000 
20.000000 
20.000000 
20.000000 
20.000000 
20.000000 
20.000000 
20.000000 
20.000000 
20.000000 
20.000000 
20.000000 
20.000000 
20.000000 
20.000000 
20.000000 
20.000000 
20.000000 
20.000000 
20.000000 
20.000000 
20.000000 
20.000000 
20.000000 
20.000000 
20.000000 
20.000000 
20.000000 
20.000000 
20.000000 
20.000000 
20.000000 
20.000000 
20.000000 
20.000000 
20.000000 
20.000000 
20.000000 
20.000000 
20.000000 
20.000000 
20.000000 
20.000000 
20.000000 
20.000000 
20.000000 
20.000000 
20.000000 
20.000000 
20.000000 
20.000000 
20.000000 
20.000000 
20.000000 
20.000000 
SCALARS ELEM_i float 
LOOKUP_TABLE default 
180 
208 
181 
181 
208 
208 
209 
181 
182 
236 
209 
209 
209 
209 
182 
182 
236 
236 
236 
209 
210 
210 
210 
183 
183 
180 
207 
207 
207 
234 
207 
234 
208 
208 
234 
234 
234 
234 
235 
235 
235 
260 
261 
261 
261 
262 
262 
262 
235 
236 
180 
206 
206 
206 
205 
206 
206 
206 
233 
205 
205 
232 
233 
233 
233 
233 
204 
232 
232 
232 
232 
232 
259 
260 
260 
180 
179 
179 
179 
151 
178 
178 
178 
205 
151 
151 
177 
178 
177 
205 
205 
150 
150 
150 
177 
177 
177 
204 
204 
204 
180 
152 
152 
152 
125 
152 
152 
152 
151 
125 
125 
125 
125 
124 
151 
151 
98 
98 
97 
124 
124 
124 
124 
124 
150 
180 
153 
153 
153 
154 
154 
126 
153 
126 
127 
127 
127 
126 
126 
126 
126 
128 
127 
100 
100 
100 
99 
99 
99 
98 
180 
181 
181 
154 
182 
181 
155 
154 
154 
182 
182 
155 
155 
155 
155 
128 
183 
183 
156 
156 
156 
155 
128 
128 
128 
VECTORS VELOCITY float 
0.000000 -2.300249 0.000000 
0.000000 -2.300249 0.000000 
0.000000 -2.300249 0.000000 
0.000000 -2.300249 0.000000 
-0.000000 -2.300249 0.000000 
0.000000 -2.300249 0.000000 
-0.000000 -2.300249 0.000000 
0.000000 -2.300249 0.000000 
0.000000 -2.300249 0.000000 
-0.000000 -2.300249 0.000000 
-0.000000 -2.300249 0.000000 
-0.000000 -2.300249 0.000000 
0.000000 -2.300249 0.000000 
0.000000 -2.300249 0.000000 
0.000000 -2.300249 0.000000 
-0.000000 -2.300249 0.000000 
-0.000000 -2.300249 0.000000 
-0.000000 -2.300249 0.000000 
0.000000 -2.300249 0.000000 
0.000000 -2.300249 0.000000 
-0.000000 -2.300249 0.000000 
-0.000000 -2.300249 0.000000 
-0.000000 -2.300249 0.000000 
-0.000000 -2.300249 0.000000 
-0.000000 -2.300249 0.000000 
0.000000 -2.300249 0.000000 
0.000000 -2.300249 0.000000 
0.000000 -2.300249 0.000000 
0.000000 -2.300249 0.000000 
0.000000 -2.300249 0.000000 
0.000000 -2.300249 0.000000 
0.000000 -2.300249 0.000000 
0.000000 -2.300249 0.000000 
0.000000 -2.300249 0.000000 
0.000000 -2.300249 0.000000 
0.000000 -2.300249 0.000000 
0.000000 -2.300249 0.000000 
0.000000 -2.300249 0.000000 
0.000000 -2.300249 0.000000 
0.000000 -2.300249 0.000000 
-0.000000 -2.300249 0.000000 
-0.000000 -2.300249 0.000000 
0.000000 -2.300249 0.000000 
0.000000 -2.300249 0.000000 
0.000000 -2.300249 0.000000 
0.000000 -2.300249 0.000000 
0.000000 -2.300249 0.000000 
-0.000000 -2.300249 0.000000 
-0.000000 -2.300249 0.000000 
-0.000000 -2.300249 0.000000 
0.000000 -2.300249 0.000000 
0.000000 -2.300249 0.000000 
0.000000 -2.300249 0.000000 
0.000000 -2.300249 0.000000 
0.000000 -2.300249 0.000000 
0.000000 -2.300249 0.000000 
0.000000 -2.300249 0.000000 
0.000000 -2.300249 0.000000 
0.000000 -2.300249 0.000000 
0.000000 -2.300249 0.000000 
0.000000 -2.300249 0.000000 
-0.000000 -2.300249 0.000000 
-0.000000 -2.300249 0.000000 
-0.000000 -2.300249 0.000000 
0.000000 -2.300249 0.000000 
0.000000 -2.300249 0.000000 
0.000000 -2.300249 0.000000 
0.000000 -2.300249 0.000000 
0.000000 -2.300249 0.000000 
-0.000000 -2.300249 0.000000 
-0.000000 -2.300249 0.000000 
-0.000000 -2.300249 0.000000 
-0.000000 -2.300249 0.000000 
-0.000000 -2.300249 0.000000 
-0.000000 -2.300249 0.000000 
-0.000000 -2.300249 0.000000 
0.000000 -2.300249 0.000000 
0.000000 -2.300249 0.000000 
0.000000 -2.300249 0.000000 
-0.000000 -2.300249 0.000000 
0.000000 -2.300249 0.000000 
0.000000 -2.300249 0.000000 
0.000000 -2.300249 0.000000 
0.000000 -2.300249 0.000000 
-0.000000 -2.300249 0.000000 
-0.000000 -2.300249 0.000000 
-0.000000 -2.300249 0.000000 
-0.000000 -2.300249 0.000000 
-0.000000 -2.300249 0.000000 
0.000000 -2.300249 0.000000 
0.000000 -2.300249 0.000000 
-0.000000 -2.300249 0.000000 
-0.000000 -2.300249 0.000000 
-0.000000 -2.300249 0.000000 
-0.000000 -2.300249 0.000000 
-0.000000 -2.300249 0.000000 
-0.000000 -2.300249 0.000000 
-0.000000 -2.300249 0.000000 
-0.000000 -2.300249 0.000000 
-0.000000 -2.300249 0.000000 
-0.000000 -2.300249 0.000000 
0.000000 -2.300249 0.000000 
-0.000000 -2.300249 0.000000 
-0.000000 -2.300249 0.000000 
0.000000 -2.300249 0.000000 
0.000000 -2.300249 0.000000 
-0.000000 -2.300249 0.000000 
-0.000000 -2.300249 0.000000 
-0.000000 -2.300249 0.000000 
0.000000 -2.300249 0.000000 
-0.000000 -2.300249 0.000000 
-0.000000 -2.300249 0.000000 
-0.000000 -2.300249 0.000000 
-0.000000 -2.300249 0.000000 
-0.000000 -2.300249 0.000000 
-0.000000 -2.300249 0.000000 
-0.000000 -2.300249 0.000000 
-0.000000 -2.300249 0.000000 
0.000000 -2.300249 0.000000 
-0.000000 -2.300249 0.000000 
0.000000 -2.300249 0.000000 
-0.000000 -2.300249 0.000000 
0.000000 -2.300249 0.000000 
0.000000 -2.300249 0.000000 
0.000000 -2.300249 0.000000 
0.000000 -2.300249 0.000000 
0.000000 -2.300249 0.000000 
0.000000 -2.300249 0.000000 
0.000000 -2.300249 0.000000 
0.000000 -2.300249 0.000000 
0.000000 -2.300249 0.000000 
-0.000000 -2.300249 0.000000 
0.000000 -2.300249 0.000000 
0.000000 -2.300249 0.000000 
0.000000 -2.300249 0.000000 
0.000000 -2.300249 0.000000 
0.000000 -2.300249 0.000000 
-0.000000 -2.300249 0.000000 
-0.000000 -2.300249 0.000000 
-0.000000 -2.300249 0.000000 
-0.000000 -2.300249 0.000000 
0.000000 -2.300249 0.000000 
0.000000 -2.300249 0.000000 
0.000000 -2.300249 0.000000 
-0.000000 -2.300249 0.000000 
-0.000000 -2.300249 0.000000 
0.000000 -2.300249 0.000000 
0.000000 -2.300249 0.000000 
-0.000000 -2.300249 0.000000 
-0.000000 -2.300249 0.000000 
0.000000 -2.300249 0.000000 
0.000000 -2.300249 0.000000 
0.000000 -2.300249 0.000000 
0.000000 -2.300249 0.000000 
-0.000000 -2.300249 0.000000 
-0.000000 -2.300249 0.000000 
-0.000000 -2.300249 0.000000 
0.000000 -2.300249 0.000000 
0.000000 -2.300249 0.000000 
-0.000000 -2.300249 0.000000 
-0.000000 -2.300249 0.000000 
-0.000000 -2.300249 0.000000 
-0.000000 -2.300249 0.000000 
-0.000000 -2.300249 0.000000 
-0.000000 -2.300249 0.000000 
0.000000 -2.300249 0.000000 
0.000000 -2.300249 0.000000 
-0.000000 -2.300249 0.000000 
0.000000 -2.300249 0.000000 
0.000000 -2.300249 0.000000 
0.000000 -2.300249 0.000000 
0.000000 -2.300249 0.000000 
0.000000 -2.300249 0.000000 
-0.000000 -2.300249 0.000000 
-0.000000 -2.300249 0.000000 
TENSORS STRESS float 
0.000000 0.000000 0.000000 
0.000000 -0.000000 0.000000 
0.000000 0.000000 0.000000 

0.000000 -0.000000 0.000000 
0.000000 0.000000 0.000000 
0.000000 0.000000 0.000000 

0.000000 0.000000 0.000000 
0.000000 0.000000 0.000000 
0.000000 0.000000 0.000000 

0.000000 0.000000 0.000000 
0.000000 0.000000 0.000000 
0.000000 0.000000 0.000000 

-0.000000 -0.000000 0.000000 
0.000000 -0.000000 0.000000 
0.000000 0.000000 0.000000 

0.000000 -0.000000 0.000000 
0.000000 0.000000 0.000000 
0.000000 0.000000 0.000000 

-0.000000 0.000000 0.000000 
0.000000 -0.000000 0.000000 
0.000000 0.000000 0.000000 

0.000000 -0.000000 0.000000 
0.000000 0.000000 0.000000 
0.000000 0.000000 0.000000 

0.000000 -0.000000 0.000000 
0.000000 -0.000000 0.000000 
0.000000 0.000000 0.000000 

-0.000000 0.000000 0.000000 
0.000000 0.000000 0.000000 
0.000000 0.000000 0.000000 

0.000000 -0.000000 0.000000 
0.000000 0.000000 0.000000 
0.000000 0.000000 0.000000 

0.000000 -0.000000 0.000000 
0.000000 0.000000 0.000000 
0.000000 0.000000 0.000000 

-0.000000 0.000000 0.000000 
0.000000 -0.000000 0.000000 
0.000000 0.000000 0.000000 

0.000000 -0.000000 0.000000 
0.000000 -0.000000 0.000000 
0.000000 0.000000 0.000000 

0.000000 -0.000000 0.000000 
0.000000 -0.000000 0.000000 
0.000000 0.000000 0.000000 

0.000000 0.000000 0.000000 
0.000000 -0.000000 0.000000 
0.000000 0.000000 0.000000 

-0.000000 0.000000 0.000000 
0.000000 0.000000 0.000000 
0.000000 0.000000 0.000000 

-0.000000 0.000000 0.000000 
0.000000 0.000000 0.000000 
0.000000 0.000000 0.000000 

-0.000000 0.000000 0.000000 
0.000000 0.000000 0.000000 
0.000000 0.000000 0.000000 

0.000000 0.000000 0.000000 
0.000000 0.000000 0.000000 
0.000000 0.000000 0.000000 

-0.000000 0.000000 0.000000 
0.000000 -0.000000 0.000000 
0.000000 0.000000 0.000000 

-0.000000 0.000000 0.000000 
0.000000 -0.000000 0.000000 
0.000000 0.000000 0.000000 

-0.000000 0.000000 0.000000 
0.000000 0.000000 0.000000 
0.000000 0.000000 0.000000 

-0.000000 0.000000 0.000000 
0.000000 -0.000000 0.000000 
0.000000 0.000000 0.000000 

0.000000 0.000000 0.000000 
0.000000 0.000000 0.000000 
0.000000 0.000000 0.000000 

0.000000 0.000000 0.000000 
0.000000 -0.000000 0.000000 
0.000000 0.000000 0.000000 

0.000000 -0.000000 0.000000 
0.000000 0.000000 0.000000 
0.000000 0.000000 0.000000 

0.000000 -0.000000 0.000000 
0.000000 0.000000 0.000000 
0.000000 0.000000 0.000000 

0.000000 -0.000000 0.000000 
0.000000 0.000000 0.000000 
0.000000 0.000000 0.000000 

-0.000000 -0.000000 0.000000 
0.000000 0.000000 0.000000 
0.000000 0.000000 0.000000 

0.000000 -0.000000 0.000000 
0.000000 0.000000 0.000000 
0.000000 0.000000 0.000000 

-0.000000 -0.000000 0.000000 
0.000000 0.000000 0.000000 
0.000000 0.000000 0.000000 

0.000000 -0.000000 0.000000 
0.000000 -0.000000 0.000000 
0.000000 0.000000 0.000000 

-0.000000 -0.000000 0.000000 
0.000000 -0.000000 0.000000 
0.000000 0.000000 0.000000 

0.000000 -0.000000 0.000000 
0.000000 0.000000 0.000000 
0.000000 0.000000 0.000000 

-0.000000 -0.000000 0.000000 
0.000000 0.000000 0.000000 
0.000000 0.000000 0.000000 

-0.000000 0.000000 0.000000 
0.000000 0.000000 0.000000 
0.000000 0.000000 0.000000 

-0.000000 0.000000 0.000000 
0.000000 0.000000 0.000000 
0.000000 0.000000 0.000000 

-0.000000 0.000000 0.000000 
0.000000 -0.000000 0.000000 
0.000000 0.000000 0.000000 

-0.000000 0.000000 0.000000 
0.000000 -0.000000 0.000000 
0.000000 0.000000 0.000000 

-0.000000 -0.000000 0.000000 
0.000000 -0.000000 0.000000 
0.000000 0.000000 0.000000 

0.000000 -0.000000 0.000000 
0.000000 -0.000000 0.000000 
0.000000 0.000000 0.000000 

0.000000 0.000000 0.000000 
0.000000 0.000000 0.000000 
0.000000 0.000000 0.000000 

-0.000000 0.000000 0.000000 
0.000000 0.000000 0.000000 
0.000000 0.000000 0.000000 

0.000000 0.000000 0.000000 
0.000000 0.000000 0.000000 
0.000000 0.000000 0.000000 

-0.000000 -0.000000 0.000000 
0.000000 -0.000000 0.000000 
0.000000 0.000000 0.000000 

-0.000000 -0.000000 0.000000 
0.000000 0.000000 0.000000 
0.000000 0.000000 0.000000 

-0.000000 -0.000000 0.000000 
0.000000 0.000000 0.000000 
0.000000 0.000000 0.000000 

0.000000 0.000000 0.000000 
0.000000 0.000000 0.000000 
0.000000 0.000000 0.000000 

-0.000000 -0.000000 0.000000 
0.000000 0.000000 0.000000 
0.000000 0.000000 0.000000 

0.000000 -0.000000 0.000000 
0.000000 -0.000000 0.000000 
0.000000 0.000000 0.000000 

-0.000000 -0.000000 0.000000 
0.000000 0.000000 0.000000 
0.000000 0.000000 0.000000 

0.000000 0.000000 0.000000 
0.000000 0.000000 0.000000 
0.000000 0.000000 0.000000 

0.000000 -0.000000 0.000000 
0.000000 0.000000 0.000000 
0.000000 0.000000 0.000000 

-0.000000 0.000000 0.000000 
0.000000 -0.000000 0.000000 
0.000000 0.000000 0.000000 

-0.000000 -0.000000 0.000000 
0.000000 -0.000000 0.000000 
0.000000 0.000000 0.000000 

-0.000000 0.000000 0.000000 
0.000000 0.000000 0.000000 
0.000000 0.000000 0.000000 

-0.000000 -0.000000 0.000000 
0.000000 0.000000 0.000000 
0.000000 0.000000 0.000000 

0.000000 -0.000000 0.000000 
0.000000 0.000000 0.000000 
0.000000 0.000000 0.000000 

-0.000000 0.000000 0.000000 
0.000000 -0.000000 0.000000 
0.000000 0.000000 0.000000 

-0.000000 -0.000000 0.000000 
0.000000 -0.000000 0.000000 
0.000000 0.000000 0.000000 

0.000000 -0.000000 0.000000 
0.000000 -0.000000 0.000000 
0.000000 0.000000 0.000000 

0.000000 0.000000 0.000000 
0.000000 0.000000 0.000000 
0.000000 0.000000 0.000000 

0.000000 -0.000000 0.000000 
0.000000 -0.000000 0.000000 
0.000000 0.000000 0.000000 

0.000000 -0.000000 0.000000 
0.000000 0.000000 0.000000 
0.000000 0.000000 0.000000 

0.000000 -0.000000 0.000000 
0.000000 0.000000 0.000000 
0.000000 0.000000 0.000000 

0.000000 0.000000 0.000000 
0.000000 0.000000 0.000000 
0.000000 0.000000 0.000000 

-0.000000 -0.000000 0.000000 
0.000000 -0.000000 0.000000 
0.000000 0.000000 0.000000 

-0.000000 -0.000000 0.000000 
0.000000 -0.000000 0.000000 
0.000000 0.000000 0.000000 

0.000000 -0.000000 0.000000 
0.000000 -0.000000 0.000000 
0.000000 0.000000 0.000000 

0.000000 -0.000000 0.000000 
0.000000 -0.000000 0.000000 
0.000000 0.000000 0.000000 

-0.000000 0.000000 0.000000 
0.000000 -0.000000 0.000000 
0.000000 0.000000 0.000000 

0.000000 0.000000 0.000000 
0.000000 0.000000 0.000000 
0.000000 0.000000 0.000000 

0.000000 0.000000 0.000000 
0.000000 -0.000000 0.000000 
0.000000 0.000000 0.000000 

0.000000 0.000000 0.000000 
0.000000 0.000000 0.000000 
0.000000 0.000000 0.000000 

0.000000 -0.000000 0.000000 
0.000000 -0.000000 0.000000 
0.000000 0.000000 0.000000 

0.000000 -0.000000 0.000000 
0.000000 0.000000 0.000000 
0.000000 0.000000 0.000000 

0.000000 0.000000 0.000000 
0.000000 0.000000 0.000000 
0.000000 0.000000 0.000000 

0.000000 0.000000 0.000000 
0.000000 0.000000 0.000000 
0.000000 0.000000 0.000000 

-0.000000 -0.000000 0.000000 
0.000000 -0.000000 0.000000 
0.000000 0.000000 0.000000 

0.000000 -0.000000 0.000000 
0.000000 0.000000 0.000000 
0.000000 0.000000 0.000000 

-0.000000 -0.000000 0.000000 
0.000000 -0.000000 0.000000 
0.000000 0.000000 0.000000 

0.000000 -0.000000 0.000000 
0.000000 -0.000000 0.000000 
0.000000 0.000000 0.000000 

0.000000 -0.000000 0.000000 
0.000000 0.000000 0.000000 
0.000000 0.000000 0.000000 

-0.000000 0.000000 0.000000 
0.000000 -0.000000 0.000000 
0.000000 0.000000 0.000000 

-0.000000 -0.000000 0.000000 
0.000000 0.000000 0.000000 
0.000000 0.000000 0.000000 

-0.000000 -0.000000 0.000000 
0.000000 -0.000000 0.000000 
0.000000 0.000000 0.000000 

-0.000000 -0.000000 0.000000 
0.000000 -0.000000 0.000000 
0.000000 0.000000 0.000000 

-0.000000 -0.000000 0.000000 
0.000000 -0.000000 0.000000 
0.000000 0.000000 0.000000 

0.000000 0.000000 0.000000 
0.000000 0.000000 0.000000 
0.000000 0.000000 0.000000 

-0.000000 -0.000000 0.000000 
0.000000 -0.000000 0.000000 
0.000000 0.000000 0.000000 

-0.000000 0.000000 0.000000 
0.000000 -0.000000 0.000000 
0.000000 0.000000 0.000000 

-0.000000 0.000000 0.000000 
0.000000 -0.000000 0.000000 
0.000000 0.000000 0.000000 

-0.000000 0.000000 0.000000 
0.000000 -0.000000 0.000000 
0.000000 0.000000 0.000000 

-0.000000 -0.000000 0.000000 
0.000000 -0.000000 0.000000 
0.000000 0.000000 0.000000 

-0.000000 -0.000000 0.000000 
0.000000 0.000000 0.000000 
0.000000 0.000000 0.000000 

-0.000000 -0.000000 0.000000 
0.000000 -0.000000 0.000000 
0.000000 0.000000 0.000000 

-0.000000 0.000000 0.000000 
0.000000 -0.000000 0.000000 
0.000000 0.000000 0.000000 

-0.000000 0.000000 0.000000 
0.000000 -0.000000 0.000000 
0.000000 0.000000 0.000000 

-0.000000 0.000000 0.000000 
0.000000 -0.000000 0.000000 
0.000000 0.000000 0.000000 

0.000000 -0.000000 0.000000 
0.000000 -0.000000 0.000000 
0.000000 0.000000 0.000000 

-0.000000 -0.000000 0.000000 
0.000000 -0.000000 0.000000 
0.000000 0.000000 0.000000 

-0.000000 -0.000000 0.000000 
0.000000 -0.000000 0.000000 
0.000000 0.000000 0.000000 

0.000000 0.000000 0.000000 
0.000000 0.000000 0.000000 
0.000000 0.000000 0.000000 

0.000000 -0.000000 0.000000 
0.000000 0.000000 0.000000 
0.000000 0.000000 0.000000 

0.000000 0.000000 0.000000 
0.000000 0.000000 0.000000 
0.000000 0.000000 0.000000 

0.000000 -0.000000 0.000000 
0.000000 0.000000 0.000000 
0.000000 0.000000 0.000000 

0.000000 -0.000000 0.000000 
0.000000 0.000000 0.000000 
0.000000 0.000000 0.000000 

0.000000 -0.000000 0.000000 
0.000000 -0.000000 0.000000 
0.000000 0.000000 0.000000 

-0.000000 0.000000 0.000000 
0.000000 0.000000 0.000000 
0.000000 0.000000 0.000000 

0.000000 -0.000000 0.000000 
0.000000 0.000000 0.000000 
0.000000 0.000000 0.000000 

-0.000000 0.000000 0.000000 
0.000000 0.000000 0.000000 
0.000000 0.000000 0.000000 

-0.000000 -0.000000 0.000000 
0.000000 0.000000 0.000000 
0.000000 0.000000 0.000000 

-0.000000 0.000000 0.000000 
0.000000 -0.000000 0.000000 
0.000000 0.000000 0.000000 

0.000000 0.000000 0.000000 
0.000000 0.000000 0.000000 
0.000000 0.000000 0.000000 

-0.000000 0.000000 0.000000 
0.000000 -0.000000 0.000000 
0.000000 0.000000 0.000000 

0.000000 0.000000 0.000000 
0.000000 0.000000 0.000000 
0.000000 0.000000 0.000000 

0.000000 0.000000 0.000000 
0.000000 0.000000 0.000000 
0.000000 0.000000 0.000000 

0.000000 0.000000 0.000000 
0.000000 0.000000 0.000000 
0.000000 0.000000 0.000000 

-0.000000 0.000000 0.000000 
0.000000 -0.000000 0.000000 
0.000000 0.000000 0.000000 

0.000000 -0.000000 0.000000 
0.000000 0.000000 0.000000 
0.000000 0.000000 0.000000 

0.000000 0.000000 0.000000 
0.000000 0.000000 0.000000 
0.000000 0.000000 0.000000 

0.000000 -0.000000 0.000000 
0.000000 0.000000 0.000000 
0.000000 0.000000 0.000000 

-0.000000 -0.000000 0.000000 
0.000000 -0.000000 0.000000 
0.000000 0.000000 0.000000 

-0.000000 0.000000 0.000000 
0.000000 0.000000 0.000000 
0.000000 0.000000 0.000000 

0.000000 -0.000000 0.000000 
0.000000 0.000000 0.000000 
0.000000 0.000000 0.000000 

0.000000 -0.000000 0.000000 
0.000000 -0.000000 0.000000 
0.000000 0.000000 0.000000 

0.000000 -0.000000 0.000000 
0.000000 0.000000 0.000000 
0.000000 0.000000 0.000000 

0.000000 -0.000000 0.000000 
0.000000 0.000000 0.000000 
0.000000 0.000000 0.000000 

-0.000000 -0.000000 0.000000 
0.000000 -0.000000 0.000000 
0.000000 0.000000 0.000000 

-0.000000 -0.000000 0.000000 
0.000000 -0.000000 0.000000 
0.000000 0.000000 0.000000 

0.000000 -0.000000 0.000000 
0.000000 -0.000000 0.000000 
0.000000 0.000000 0.000000 

0.000000 -0.000000 0.000000 
0.000000 0.000000 0.000000 
0.000000 0.000000 0.000000 

0.000000 -0.000000 0.000000 
0.000000 0.000000 0.000000 
0.000000 0.000000 0.000000 

-0.000000 -0.000000 0.000000 
0.000000 -0.000000 0.000000 
0.000000 0.000000 0.000000 

0.000000 0.000000 0.000000 
0.000000 -0.000000 0.000000 
0.000000 0.000000 0.000000 

0.000000 -0.000000 0.000000 
0.000000 -0.000000 0.000000 
0.000000 0.000000 0.000000 

0.000000 -0.000000 0.000000 
0.000000 -0.000000 0.000000 
0.000000 0.000000 0.000000 

0.000000 -0.000000 0.000000 
0.000000 -0.000000 0.000000 
0.000000 0.000000 0.000000 

0.000000 -0.000000 0.000000 
0.000000 -0.000000 0.000000 
0.000000 0.000000 0.000000 

0.000000 -0.000000 0.000000 
0.000000 -0.000000 0.000000 
0.000000 0.000000 0.000000 

0.000000 0.000000 0.000000 
0.000000 0.000000 0.000000 
0.000000 0.000000 0.000000 

-0.000000 0.000000 0.000000 
0.000000 -0.000000 0.000000 
0.000000 0.000000 0.000000 

0.000000 0.000000 0.000000 
0.000000 0.000000 0.000000 
0.000000 0.000000 0.000000 

0.000000 -0.000000 0.000000 
0.000000 0.000000 0.000000 
0.000000 0.000000 0.000000 

-0.000000 0.000000 0.000000 
0.000000 0.000000 0.000000 
0.000000 0.000000 0.000000 

-0.000000 -0.000000 0.000000 
0.000000 -0.000000 0.000000 
0.000000 0.000000 0.000000 

-0.000000 -0.000000 0.000000 
0.000000 -0.000000 0.000000 
0.000000 0.000000 0.000000 

-0.000000 -0.000000 0.000000 
0.000000 -0.000000 0.000000 
0.000000 0.000000 0.000000 

-0.000000 -0.000000 0.000000 
0.000000 -0.000000 0.000000 
0.000000 0.000000 0.000000 

0.000000 -0.000000 0.000000 
0.000000 0.000000 0.000000 
0.000000 0.000000 0.000000 

0.000000 0.000000 0.000000 
0.000000 -0.000000 0.000000 
0.000000 0.000000 0.000000 

0.000000 0.000000 0.000000 
0.000000 0.000000 0.000000 
0.000000 0.000000 0.000000 

-0.000000 -0.000000 0.000000 
0.000000 -0.000000 0.000000 
0.000000 0.000000 0.000000 

0.000000 -0.000000 0.000000 
0.000000 0.000000 0.000000 
0.000000 0.000000 0.000000 

0.000000 0.000000 0.000000 
0.000000 0.000000 0.000000 
0.000000 0.000000 0.000000 

0.000000 0.000000 0.000000 
0.000000 0.000000 0.000000 
0.000000 0.000000 0.000000 

0.000000 -0.000000 0.000000 
0.000000 -0.000000 0.000000 
0.000000 0.000000 0.000000 

0.000000 -0.000000 0.000000 
0.000000 0.000000 0.000000 
0.000000 0.000000 0.000000 

0.000000 0.000000 0.000000 
0.000000 -0.000000 0.000000 
0.000000 0.000000 0.000000 

0.000000 0.000000 0.000000 
0.000000 0.000000 0.000000 
0.000000 0.000000 0.000000 

-0.000000 -0.000000 0.000000 
0.000000 -0.000000 0.000000 
0.000000 0.000000 0.000000 

0.000000 -0.000000 0.000000 
0.000000 -0.000000 0.000000 
0.000000 0.000000 0.000000 

-0.000000 0.000000 0.000000 
0.000000 -0.000000 0.000000 
0.000000 0.000000 0.000000 

0.000000 0.000000 0.000000 
0.000000 -0.000000 0.000000 
0.000000 0.000000 0.000000 

-0.000000 -0.000000 0.000000 
0.000000 -0.000000 0.000000 
0.000000 0.000000 0.000000 

-0.000000 0.000000 0.000000 
0.000000 -0.000000 0.000000 
0.000000 0.000000 0.000000 

-0.000000 0.000000 0.000000 
0.000000 -0.000000 0.000000 
0.000000 0.000000 0.000000 

0.000000 0.000000 0.000000 
0.000000 -0.000000 0.000000 
0.000000 0.000000 0.000000 

0.000000 0.000000 0.000000 
0.000000 -0.000000 0.000000 
0.000000 0.000000 0.000000 

0.000000 0.000000 0.000000 
0.000000 -0.000000 0.000000 
0.000000 0.000000 0.000000 

0.000000 0.000000 0.000000 
0.000000 0.000000 0.000000 
0.000000 0.000000 0.000000 

-0.000000 0.000000 0.000000 
0.000000 -0.000000 0.000000 
0.000000 0.000000 0.000000 

-0.000000 -0.000000 0.000000 
0.000000 -0.000000 0.000000 
0.000000 0.000000 0.000000 

0.000000 0.000000 0.000000 
0.000000 0.000000 0.000000 
0.000000 0.000000 0.000000 

TENSORS STRAIN float 
0.000000 0.000000 0.000000 
0.000000 -0.000000 0.000000 
0.000000 0.000000 0.000000 

0.000000 -0.000000 0.000000 
0.000000 0.000000 0.000000 
0.000000 0.000000 0.000000 

0.000000 0.000000 0.000000 
0.000000 0.000000 0.000000 
0.000000 0.000000 0.000000 

0.000000 0.000000 0.000000 
0.000000 0.000000 0.000000 
0.000000 0.000000 0.000000 

0.000000 -0.000000 0.000000 
0.000000 -0.000000 0.000000 
0.000000 0.000000 0.000000 

0.000000 -0.000000 0.000000 
0.000000 0.000000 0.000000 
0.000000 0.000000 0.000000 

0.000000 0.000000 0.000000 
0.000000 -0.000000 0.000000 
0.000000 0.000000 0.000000 

0.000000 -0.000000 0.000000 
0.000000 0.000000 0.000000 
0.000000 0.000000 0.000000 

0.000000 -0.000000 0.000000 
0.000000 -0.000000 0.000000 
0.000000 0.000000 0.000000 

-0.000000 0.000000 0.000000 
0.000000 0.000000 0.000000 
0.000000 0.000000 0.000000 

0.000000 -0.000000 0.000000 
0.000000 0.000000 0.000000 
0.000000 0.000000 0.000000 

0.000000 -0.000000 0.000000 
0.000000 -0.000000 0.000000 
0.000000 0.000000 0.000000 

0.000000 0.000000 0.000000 
0.000000 -0.000000 0.000000 
0.000000 0.000000 0.000000 

0.000000 -0.000000 0.000000 
0.000000 -0.000000 0.000000 
0.000000 0.000000 0.000000 

0.000000 -0.000000 0.000000 
0.000000 -0.000000 0.000000 
0.000000 0.000000 0.000000 

0.000000 0.000000 0.000000 
0.000000 -0.000000 0.000000 
0.000000 0.000000 0.000000 

-0.000000 0.000000 0.000000 
0.000000 0.000000 0.000000 
0.000000 0.000000 0.000000 

-0.000000 0.000000 0.000000 
0.000000 0.000000 0.000000 
0.000000 0.000000 0.000000 

-0.000000 0.000000 0.000000 
0.000000 0.000000 0.000000 
0.000000 0.000000 0.000000 

-0.000000 0.000000 0.000000 
0.000000 0.000000 0.000000 
0.000000 0.000000 0.000000 

-0.000000 0.000000 0.000000 
0.000000 -0.000000 0.000000 
0.000000 0.000000 0.000000 

-0.000000 0.000000 0.000000 
0.000000 -0.000000 0.000000 
0.000000 0.000000 0.000000 

-0.000000 0.000000 0.000000 
0.000000 0.000000 0.000000 
0.000000 0.000000 0.000000 

0.000000 0.000000 0.000000 
0.000000 -0.000000 0.000000 
0.000000 0.000000 0.000000 

-0.000000 0.000000 0.000000 
0.000000 0.000000 0.000000 
0.000000 0.000000 0.000000 

0.000000 0.000000 0.000000 
0.000000 -0.000000 0.000000 
0.000000 0.000000 0.000000 

0.000000 -0.000000 0.000000 
0.000000 0.000000 0.000000 
0.000000 0.000000 0.000000 

0.000000 -0.000000 0.000000 
0.000000 0.000000 0.000000 
0.000000 0.000000 0.000000 

0.000000 -0.000000 0.000000 
0.000000 0.000000 0.000000 
0.000000 0.000000 0.000000 

-0.000000 -0.000000 0.000000 
0.000000 0.000000 0.000000 
0.000000 0.000000 0.000000 

0.000000 -0.000000 0.000000 
0.000000 0.000000 0.000000 
0.000000 0.000000 0.000000 

-0.000000 -0.000000 0.000000 
0.000000 0.000000 0.000000 
0.000000 0.000000 0.000000 

0.000000 -0.000000 0.000000 
0.000000 -0.000000 0.000000 
0.000000 0.000000 0.000000 

-0.000000 -0.000000 0.000000 
0.000000 -0.000000 0.000000 
0.000000 0.000000 0.000000 

-0.000000 -0.000000 0.000000 
0.000000 0.000000 0.000000 
0.000000 0.000000 0.000000 

-0.000000 -0.000000 0.000000 
0.000000 0.000000 0.000000 
0.000000 0.000000 0.000000 

-0.000000 0.000000 0.000000 
0.000000 0.000000 0.000000 
0.000000 0.000000 0.000000 

-0.000000 0.000000 0.000000 
0.000000 0.000000 0.000000 
0.000000 0.000000 0.000000 

-0.000000 0.000000 0.000000 
0.000000 -0.000000 0.000000 
0.000000 0.000000 0.000000 

-0.000000 0.000000 0.000000 
0.000000 -0.000000 0.000000 
0.000000 0.000000 0.000000 

-0.000000 -0.000000 0.000000 
0.000000 -0.000000 0.000000 
0.000000 0.000000 0.000000 

0.000000 -0.000000 0.000000 
0.000000 -0.000000 0.000000 
0.000000 0.000000 0.000000 

0.000000 0.000000 0.000000 
0.000000 0.000000 0.000000 
0.000000 0.000000 0.000000 

-0.000000 0.000000 0.000000 
0.000000 0.000000 0.000000 
0.000000 0.000000 0.000000 

-0.000000 0.000000 0.000000 
0.000000 0.000000 0.000000 
0.000000 0.000000 0.000000 

-0.000000 -0.000000 0.000000 
0.000000 -0.000000 0.000000 
0.000000 0.000000 0.000000 

-0.000000 -0.000000 0.000000 
0.000000 0.000000 0.000000 
0.000000 0.000000 0.000000 

-0.000000 -0.000000 0.000000 
0.000000 0.000000 0.000000 
0.000000 0.000000 0.000000 

0.000000 0.000000 0.000000 
0.000000 0.000000 0.000000 
0.000000 0.000000 0.000000 

-0.000000 -0.000000 0.000000 
0.000000 0.000000 0.000000 
0.000000 0.000000 0.000000 

0.000000 -0.000000 0.000000 
0.000000 -0.000000 0.000000 
0.000000 0.000000 0.000000 

-0.000000 -0.000000 0.000000 
0.000000 0.000000 0.000000 
0.000000 0.000000 0.000000 

-0.000000 0.000000 0.000000 
0.000000 0.000000 0.000000 
0.000000 0.000000 0.000000 

-0.000000 -0.000000 0.000000 
0.000000 0.000000 0.000000 
0.000000 0.000000 0.000000 

-0.000000 0.000000 0.000000 
0.000000 -0.000000 0.000000 
0.000000 0.000000 0.000000 

-0.000000 -0.000000 0.000000 
0.000000 0.000000 0.000000 
0.000000 0.000000 0.000000 

-0.000000 0.000000 0.000000 
0.000000 0.000000 0.000000 
0.000000 0.000000 0.000000 

-0.000000 -0.000000 0.000000 
0.000000 0.000000 0.000000 
0.000000 0.000000 0.000000 

0.000000 -0.000000 0.000000 
0.000000 0.000000 0.000000 
0.000000 0.000000 0.000000 

0.000000 0.000000 0.000000 
0.000000 -0.000000 0.000000 
0.000000 0.000000 0.000000 

-0.000000 -0.000000 0.000000 
0.000000 -0.000000 0.000000 
0.000000 0.000000 0.000000 

0.000000 -0.000000 0.000000 
0.000000 -0.000000 0.000000 
0.000000 0.000000 0.000000 

0.000000 0.000000 0.000000 
0.000000 0.000000 0.000000 
0.000000 0.000000 0.000000 

0.000000 -0.000000 0.000000 
0.000000 -0.000000 0.000000 
0.000000 0.000000 0.000000 

0.000000 -0.000000 0.000000 
0.000000 0.000000 0.000000 
0.000000 0.000000 0.000000 

0.000000 -0.000000 0.000000 
0.000000 0.000000 0.000000 
0.000000 0.000000 0.000000 

-0.000000 0.000000 0.000000 
0.000000 0.000000 0.000000 
0.000000 0.000000 0.000000 

0.000000 -0.000000 0.000000 
0.000000 -0.000000 0.000000 
0.000000 0.000000 0.000000 

0.000000 -0.000000 0.000000 
0.000000 -0.000000 0.000000 
0.000000 0.000000 0.000000 

0.000000 -0.000000 0.000000 
0.000000 -0.000000 0.000000 
0.000000 0.000000 0.000000 

0.000000 -0.000000 0.000000 
0.000000 -0.000000 0.000000 
0.000000 0.000000 0.000000 

0.000000 0.000000 0.000000 
0.000000 -0.000000 0.000000 
0.000000 0.000000 0.000000 

0.000000 0.000000 0.000000 
0.000000 -0.000000 0.000000 
0.000000 0.000000 0.000000 

0.000000 0.000000 0.000000 
0.000000 -0.000000 0.000000 
0.000000 0.000000 0.000000 

0.000000 0.000000 0.000000 
0.000000 0.000000 0.000000 
0.000000 0.000000 0.000000 

0.000000 -0.000000 0.000000 
0.000000 -0.000000 0.000000 
0.000000 0.000000 0.000000 

0.000000 -0.000000 0.000000 
0.000000 0.000000 0.000000 
0.000000 0.000000 0.000000 

0.000000 0.000000 0.000000 
0.000000 0.000000 0.000000 
0.000000 0.000000 0.000000 

0.000000 0.000000 0.000000 
0.000000 0.000000 0.000000 
0.000000 0.000000 0.000000 

0.000000 -0.000000 0.000000 
0.000000 -0.000000 0.000000 
0.000000 0.000000 0.000000 

0.000000 -0.000000 0.000000 
0.000000 0.000000 0.000000 
0.000000 0.000000 0.000000 

0.000000 -0.000000 0.000000 
0.000000 -0.000000 0.000000 
0.000000 0.000000 0.000000 

0.000000 -0.000000 0.000000 
0.000000 -0.000000 0.000000 
0.000000 0.000000 0.000000 

-0.000000 -0.000000 0.000000 
0.000000 0.000000 0.000000 
0.000000 0.000000 0.000000 

-0.000000 0.000000 0.000000 
0.000000 -0.000000 0.000000 
0.000000 0.000000 0.000000 

-0.000000 -0.000000 0.000000 
0.000000 0.000000 0.000000 
0.000000 0.000000 0.000000 

-0.000000 -0.000000 0.000000 
0.000000 0.000000 0.000000 
0.000000 0.000000 0.000000 

0.000000 -0.000000 0.000000 
0.000000 -0.000000 0.000000 
0.000000 0.000000 0.000000 

-0.000000 -0.000000 0.000000 
0.000000 -0.000000 0.000000 
0.000000 0.000000 0.000000 

0.000000 0.000000 0.000000 
0.000000 0.000000 0.000000 
0.000000 0.000000 0.000000 

0.000000 -0.000000 0.000000 
0.000000 -0.000000 0.000000 
0.000000 0.000000 0.000000 

-0.000000 0.000000 0.000000 
0.000000 -0.000000 0.000000 
0.000000 0.000000 0.000000 

-0.000000 0.000000 0.000000 
0.000000 -0.000000 0.000000 
0.000000 0.000000 0.000000 

-0.000000 0.000000 0.000000 
0.000000 -0.000000 0.000000 
0.000000 0.000000 0.000000 

-0.000000 -0.000000 0.000000 
0.000000 -0.000000 0.000000 
0.000000 0.000000 0.000000 

-0.000000 -0.000000 0.000000 
0.000000 0.000000 0.000000 
0.000000 0.000000 0.000000 

-0.000000 -0.000000 0.000000 
0.000000 -0.000000 0.000000 
0.000000 0.000000 0.000000 

0.000000 0.000000 0.000000 
0.000000 -0.000000 0.000000 
0.000000 0.000000 0.000000 

0.000000 0.000000 0.000000 
0.000000 -0.000000 0.000000 
0.000000 0.000000 0.000000 

0.000000 0.000000 0.000000 
0.000000 -0.000000 0.000000 
0.000000 0.000000 0.000000 

0.000000 -0.000000 0.000000 
0.000000 -0.000000 0.000000 
0.000000 0.000000 0.000000 

0.000000 -0.000000 0.000000 
0.000000 -0.000000 0.000000 
0.000000 0.000000 0.000000 

0.000000 -0.000000 0.000000 
0.000000 -0.000000 0.000000 
0.000000 0.000000 0.000000 

0.000000 0.000000 0.000000 
0.000000 0.000000 0.000000 
0.000000 0.000000 0.000000 

0.000000 -0.000000 0.000000 
0.000000 0.000000 0.000000 
0.000000 0.000000 0.000000 

0.000000 0.000000 0.000000 
0.000000 0.000000 0.000000 
0.000000 0.000000 0.000000 

0.000000 -0.000000 0.000000 
0.000000 0.000000 0.000000 
0.000000 0.000000 0.000000 

0.000000 -0.000000 0.000000 
0.000000 0.000000 0.000000 
0.000000 0.000000 0.000000 

0.000000 -0.000000 0.000000 
0.000000 -0.000000 0.000000 
0.000000 0.000000 0.000000 

-0.000000 0.000000 0.000000 
0.000000 0.000000 0.000000 
0.000000 0.000000 0.000000 

-0.000000 -0.000000 0.000000 
0.000000 0.000000 0.000000 
0.000000 0.000000 0.000000 

-0.000000 0.000000 0.000000 
0.000000 0.000000 0.000000 
0.000000 0.000000 0.000000 

-0.000000 -0.000000 0.000000 
0.000000 0.000000 0.000000 
0.000000 0.000000 0.000000 

-0.000000 0.000000 0.000000 
0.000000 -0.000000 0.000000 
0.000000 0.000000 0.000000 

0.000000 0.000000 0.000000 
0.000000 0.000000 0.000000 
0.000000 0.000000 0.000000 

-0.000000 0.000000 0.000000 
0.000000 -0.000000 0.000000 
0.000000 0.000000 0.000000 

0.000000 0.000000 0.000000 
0.000000 0.000000 0.000000 
0.000000 0.000000 0.000000 

0.000000 0.000000 0.000000 
0.000000 0.000000 0.000000 
0.000000 0.000000 0.000000 

0.000000 0.000000 0.000000 
0.000000 0.000000 0.000000 
0.000000 0.000000 0.000000 

-0.000000 0.000000 0.000000 
0.000000 -0.000000 0.000000 
0.000000 0.000000 0.000000 

-0.000000 -0.000000 0.000000 
0.000000 0.000000 0.000000 
0.000000 0.000000 0.000000 

-0.000000 0.000000 0.000000 
0.000000 0.000000 0.000000 
0.000000 0.000000 0.000000 

-0.000000 -0.000000 0.000000 
0.000000 0.000000 0.000000 
0.000000 0.000000 0.000000 

-0.000000 -0.000000 0.000000 
0.000000 -0.000000 0.000000 
0.000000 0.000000 0.000000 

-0.000000 0.000000 0.000000 
0.000000 0.000000 0.000000 
0.000000 0.000000 0.000000 

0.000000 -0.000000 0.000000 
0.000000 0.000000 0.000000 
0.000000 0.000000 0.000000 

0.000000 -0.000000 0.000000 
0.000000 -0.000000 0.000000 
0.000000 0.000000 0.000000 

0.000000 -0.000000 0.000000 
0.000000 0.000000 0.000000 
0.000000 0.000000 0.000000 

0.000000 -0.000000 0.000000 
0.000000 0.000000 0.000000 
0.000000 0.000000 0.000000 

0.000000 -0.000000 0.000000 
0.000000 -0.000000 0.000000 
0.000000 0.000000 0.000000 

0.000000 -0.000000 0.000000 
0.000000 -0.000000 0.000000 
0.000000 0.000000 0.000000 

0.000000 -0.000000 0.000000 
0.000000 -0.000000 0.000000 
0.000000 0.000000 0.000000 

0.000000 -0.000000 0.000000 
0.000000 0.000000 0.000000 
0.000000 0.000000 0.000000 

0.000000 -0.000000 0.000000 
0.000000 -0.000000 0.000000 
0.000000 0.000000 0.000000 

0.000000 -0.000000 0.000000 
0.000000 -0.000000 0.000000 
0.000000 0.000000 0.000000 

0.000000 0.000000 0.000000 
0.000000 -0.000000 0.000000 
0.000000 0.000000 0.000000 

0.000000 -0.000000 0.000000 
0.000000 -0.000000 0.000000 
0.000000 0.000000 0.000000 

0.000000 -0.000000 0.000000 
0.000000 -0.000000 0.000000 
0.000000 0.000000 0.000000 

0.000000 -0.000000 0.000000 
0.000000 -0.000000 0.000000 
0.000000 0.000000 0.000000 

0.000000 -0.000000 0.000000 
0.000000 -0.000000 0.000000 
0.000000 0.000000 0.000000 

0.000000 -0.000000 0.000000 
0.000000 -0.000000 0.000000 
0.000000 0.000000 0.000000 

0.000000 0.000000 0.000000 
0.000000 0.000000 0.000000 
0.000000 0.000000 0.000000 

0.000000 0.000000 0.000000 
0.000000 -0.000000 0.000000 
0.000000 0.000000 0.000000 

0.000000 0.000000 0.000000 
0.000000 0.000000 0.000000 
0.000000 0.000000 0.000000 

0.000000 -0.000000 0.000000 
0.000000 0.000000 0.000000 
0.000000 0.000000 0.000000 

-0.000000 0.000000 0.000000 
0.000000 0.000000 0.000000 
0.000000 0.000000 0.000000 

-0.000000 -0.000000 0.000000 
0.000000 0.000000 0.000000 
0.000000 0.000000 0.000000 

-0.000000 -0.000000 0.000000 
0.000000 -0.000000 0.000000 
0.000000 0.000000 0.000000 

-0.000000 -0.000000 0.000000 
0.000000 0.000000 0.000000 
0.000000 0.000000 0.000000 

-0.000000 -0.000000 0.000000 
0.000000 -0.000000 0.000000 
0.000000 0.000000 0.000000 

0.000000 -0.000000 0.000000 
0.000000 0.000000 0.000000 
0.000000 0.000000 0.000000 

0.000000 0.000000 0.000000 
0.000000 -0.000000 0.000000 
0.000000 0.000000 0.000000 

0.000000 0.000000 0.000000 
0.000000 -0.000000 0.000000 
0.000000 0.000000 0.000000 

0.000000 -0.000000 0.000000 
0.000000 -0.000000 0.000000 
0.000000 0.000000 0.000000 

0.000000 -0.000000 0.000000 
0.000000 0.000000 0.000000 
0.000000 0.000000 0.000000 

0.000000 0.000000 0.000000 
0.000000 0.000000 0.000000 
0.000000 0.000000 0.000000 

0.000000 0.000000 0.000000 
0.000000 -0.000000 0.000000 
0.000000 0.000000 0.000000 

0.000000 -0.000000 0.000000 
0.000000 -0.000000 0.000000 
0.000000 0.000000 0.000000 

0.000000 -0.000000 0.000000 
0.000000 0.000000 0.000000 
0.000000 0.000000 0.000000 

0.000000 0.000000 0.000000 
0.000000 -0.000000 0.000000 
0.000000 0.000000 0.000000 

0.000000 0.000000 0.000000 
0.000000 0.000000 0.000000 
0.000000 0.000000 0.000000 

0.000000 -0.000000 0.000000 
0.000000 -0.000000 0.000000 
0.000000 0.000000 0.000000 

0.000000 -0.000000 0.000000 
0.000000 -0.000000 0.000000 
0.000000 0.000000 0.000000 

0.000000 0.000000 0.000000 
0.000000 -0.000000 0.000000 
0.000000 0.000000 0.000000 

0.000000 0.000000 0.000000 
0.000000 -0.000000 0.000000 
0.000000 0.000000 0.000000 

0.000000 -0.000000 0.000000 
0.000000 -0.000000 0.000000 
0.000000 0.000000 0.000000 

-0.000000 0.000000 0.000000 
0.000000 -0.000000 0.000000 
0.000000 0.000000 0.000000 

0.000000 0.000000 0.000000 
0.000000 -0.000000 0.000000 
0.000000 0.000000 0.000000 

0.000000 0.000000 0.000000 
0.000000 -0.000000 0.000000 
0.000000 0.000000 0.000000 

0.000000 0.000000 0.000000 
0.000000 -0.000000 0.000000 
0.000000 0.000000 0.000000 

0.000000 0.000000 0.000000 
0.000000 -0.000000 0.000000 
0.000000 0.000000 0.000000 

0.000000 0.000000 0.000000 
0.000000 0.000000 0.000000 
0.000000 0.000000 0.000000 

-0.000000 0.000000 0.000000 
0.000000 -0.000000 0.000000 
0.000000 0.000000 0.000000 

0.000000 -0.000000 0.000000 
0.000000 -0.000000 0.000000 
0.000000 0.000000 0.000000 

0.000000 0.000000 0.000000 
0.000000 0.000000 0.000000 
0.000000 0.000000 0.000000 

