# vtk DataFile Version 3.0 
vtk output 
ASCII 
DATASET UNSTRUCTURED_GRID 
POINTS 175 float 
-0.026061 -1.141911 0.000000 
-0.106992 -1.073856 0.000000 
-0.054870 -1.082088 0.000000 
-0.028809 -1.036205 0.000000 
-0.186430 -1.009780 0.000000 
-0.137056 -1.012306 0.000000 
-0.114311 -0.958659 0.000000 
-0.058186 -0.974325 0.000000 
-0.029377 -0.934148 0.000000 
-0.265318 -0.946624 0.000000 
-0.217198 -0.947424 0.000000 
-0.196633 -0.890128 0.000000 
-0.143120 -0.898836 0.000000 
-0.116563 -0.851568 0.000000 
-0.058945 -0.871213 0.000000 
-0.029568 -0.833093 0.000000 
-0.344206 -0.883469 0.000000 
-0.296791 -0.883462 0.000000 
-0.278030 -0.823519 0.000000 
-0.225992 -0.829385 0.000000 
-0.201664 -0.777268 0.000000 
-0.145749 -0.790742 0.000000 
-0.117890 -0.746399 0.000000 
-0.059328 -0.769105 0.000000 
-0.029759 -0.732039 0.000000 
-0.058559 -1.182662 0.000000 
-0.162226 -1.203505 0.000000 
-0.123292 -1.167887 0.000000 
-0.142917 -1.118904 0.000000 
-0.261851 -1.225661 0.000000 
-0.229092 -1.188634 0.000000 
-0.256854 -1.137402 0.000000 
-0.209613 -1.103290 0.000000 
-0.223062 -1.055716 0.000000 
-0.360414 -1.247961 0.000000 
-0.329787 -1.210838 0.000000 
-0.361761 -1.159036 0.000000 
-0.321587 -1.122627 0.000000 
-0.341985 -1.072393 0.000000 
-0.290702 -1.039594 0.000000 
-0.302189 -0.992859 0.000000 
-0.458977 -1.270261 0.000000 
-0.429420 -1.233187 0.000000 
-0.464588 -1.181145 0.000000 
-0.427556 -1.144117 0.000000 
-0.453135 -1.092602 0.000000 
-0.407738 -1.057287 0.000000 
-0.425037 -1.007859 0.000000 
-0.370772 -0.976230 0.000000 
-0.381315 -0.930002 0.000000 
-0.046960 -1.233477 0.000000 
-0.095301 -1.327523 0.000000 
-0.098873 -1.274876 0.000000 
-0.149405 -1.259678 0.000000 
-0.140093 -1.419227 0.000000 
-0.148617 -1.370529 0.000000 
-0.205981 -1.360292 0.000000 
-0.203197 -1.302088 0.000000 
-0.248777 -1.282942 0.000000 
-0.184111 -1.510191 0.000000 
-0.194039 -1.463100 0.000000 
-0.254475 -1.455800 0.000000 
-0.257893 -1.401690 0.000000 
-0.309886 -1.386318 0.000000 
-0.303554 -1.325773 0.000000 
-0.347255 -1.305615 0.000000 
-0.228129 -1.601154 0.000000 
-0.238687 -1.554930 0.000000 
-0.301302 -1.549978 0.000000 
-0.307162 -1.497939 0.000000 
-0.363386 -1.485818 0.000000 
-0.362692 -1.428307 0.000000 
-0.412122 -1.411014 0.000000 
-0.403017 -1.348867 0.000000 
-0.445733 -1.328288 0.000000 
-0.000000 -1.256092 0.000000 
0.043388 -1.352523 0.000000 
-0.000000 -1.322490 0.000000 
-0.043388 -1.352523 0.000000 
0.087158 -1.444719 0.000000 
0.043769 -1.421021 0.000000 
-0.000000 -1.459487 0.000000 
-0.043769 -1.421021 0.000000 
-0.087158 -1.444719 0.000000 
0.130831 -1.535849 0.000000 
0.087824 -1.514250 0.000000 
0.044436 -1.556950 0.000000 
-0.000000 -1.525885 0.000000 
-0.044436 -1.556950 0.000000 
-0.087824 -1.514250 0.000000 
-0.130831 -1.535849 0.000000 
0.174505 -1.626979 0.000000 
0.131782 -1.606413 0.000000 
0.088871 -1.652279 0.000000 
0.044532 -1.624415 0.000000 
-0.000000 -1.660816 0.000000 
-0.044532 -1.624415 0.000000 
-0.088871 -1.652279 0.000000 
-0.131782 -1.606413 0.000000 
-0.174505 -1.626979 0.000000 
0.046960 -1.233477 0.000000 
0.149405 -1.259678 0.000000 
0.098873 -1.274876 0.000000 
0.095301 -1.327523 0.000000 
0.248777 -1.282942 0.000000 
0.203197 -1.302088 0.000000 
0.205981 -1.360292 0.000000 
0.148617 -1.370529 0.000000 
0.140093 -1.419227 0.000000 
0.347255 -1.305615 0.000000 
0.303554 -1.325773 0.000000 
0.309886 -1.386318 0.000000 
0.257893 -1.401690 0.000000 
0.254475 -1.455800 0.000000 
0.194039 -1.463100 0.000000 
0.184111 -1.510191 0.000000 
0.445733 -1.328288 0.000000 
0.403017 -1.348867 0.000000 
0.412122 -1.411014 0.000000 
0.362692 -1.428307 0.000000 
0.363386 -1.485818 0.000000 
0.307162 -1.497939 0.000000 
0.301302 -1.549978 0.000000 
0.238687 -1.554930 0.000000 
0.228129 -1.601154 0.000000 
0.058559 -1.182662 0.000000 
0.142917 -1.118904 0.000000 
0.123292 -1.167887 0.000000 
0.162226 -1.203505 0.000000 
0.223062 -1.055716 0.000000 
0.209613 -1.103290 0.000000 
0.256854 -1.137402 0.000000 
0.229092 -1.188634 0.000000 
0.261851 -1.225661 0.000000 
0.302189 -0.992859 0.000000 
0.290702 -1.039594 0.000000 
0.341985 -1.072393 0.000000 
0.321587 -1.122627 0.000000 
0.361761 -1.159036 0.000000 
0.329787 -1.210838 0.000000 
0.360414 -1.247961 0.000000 
0.381315 -0.930002 0.000000 
0.370772 -0.976230 0.000000 
0.425037 -1.007859 0.000000 
0.407738 -1.057287 0.000000 
0.453135 -1.092602 0.000000 
0.427556 -1.144117 0.000000 
0.464588 -1.181145 0.000000 
0.429420 -1.233187 0.000000 
0.458977 -1.270261 0.000000 
0.026061 -1.141911 0.000000 
0.028809 -1.036205 0.000000 
0.054870 -1.082088 0.000000 
0.106992 -1.073856 0.000000 
0.029377 -0.934148 0.000000 
0.058186 -0.974325 0.000000 
0.114311 -0.958659 0.000000 
0.137056 -1.012306 0.000000 
0.186430 -1.009780 0.000000 
0.029568 -0.833093 0.000000 
0.058945 -0.871213 0.000000 
0.116563 -0.851568 0.000000 
0.143120 -0.898836 0.000000 
0.196633 -0.890128 0.000000 
0.217198 -0.947424 0.000000 
0.265318 -0.946624 0.000000 
0.029759 -0.732039 0.000000 
0.059328 -0.769105 0.000000 
0.117890 -0.746399 0.000000 
0.145749 -0.790742 0.000000 
0.201664 -0.777268 0.000000 
0.225992 -0.829385 0.000000 
0.278030 -0.823519 0.000000 
0.296791 -0.883462 0.000000 
0.344206 -0.883469 0.000000 
CELLS 175 350 
1 0 
1 1 
1 2 
1 3 
1 4 
1 5 
1 6 
1 7 
1 8 
1 9 
1 10 
1 11 
1 12 
1 13 
1 14 
1 15 
1 16 
1 17 
1 18 
1 19 
1 20 
1 21 
1 22 
1 23 
1 24 
1 25 
1 26 
1 27 
1 28 
1 29 
1 30 
1 31 
1 32 
1 33 
1 34 
1 35 
1 36 
1 37 
1 38 
1 39 
1 40 
1 41 
1 42 
1 43 
1 44 
1 45 
1 46 
1 47 
1 48 
1 49 
1 50 
1 51 
1 52 
1 53 
1 54 
1 55 
1 56 
1 57 
1 58 
1 59 
1 60 
1 61 
1 62 
1 63 
1 64 
1 65 
1 66 
1 67 
1 68 
1 69 
1 70 
1 71 
1 72 
1 73 
1 74 
1 75 
1 76 
1 77 
1 78 
1 79 
1 80 
1 81 
1 82 
1 83 
1 84 
1 85 
1 86 
1 87 
1 88 
1 89 
1 90 
1 91 
1 92 
1 93 
1 94 
1 95 
1 96 
1 97 
1 98 
1 99 
1 100 
1 101 
1 102 
1 103 
1 104 
1 105 
1 106 
1 107 
1 108 
1 109 
1 110 
1 111 
1 112 
1 113 
1 114 
1 115 
1 116 
1 117 
1 118 
1 119 
1 120 
1 121 
1 122 
1 123 
1 124 
1 125 
1 126 
1 127 
1 128 
1 129 
1 130 
1 131 
1 132 
1 133 
1 134 
1 135 
1 136 
1 137 
1 138 
1 139 
1 140 
1 141 
1 142 
1 143 
1 144 
1 145 
1 146 
1 147 
1 148 
1 149 
1 150 
1 151 
1 152 
1 153 
1 154 
1 155 
1 156 
1 157 
1 158 
1 159 
1 160 
1 161 
1 162 
1 163 
1 164 
1 165 
1 166 
1 167 
1 168 
1 169 
1 170 
1 171 
1 172 
1 173 
1 174 
CELL_TYPES 175 
1 
1 
1 
1 
1 
1 
1 
1 
1 
1 
1 
1 
1 
1 
1 
1 
1 
1 
1 
1 
1 
1 
1 
1 
1 
1 
1 
1 
1 
1 
1 
1 
1 
1 
1 
1 
1 
1 
1 
1 
1 
1 
1 
1 
1 
1 
1 
1 
1 
1 
1 
1 
1 
1 
1 
1 
1 
1 
1 
1 
1 
1 
1 
1 
1 
1 
1 
1 
1 
1 
1 
1 
1 
1 
1 
1 
1 
1 
1 
1 
1 
1 
1 
1 
1 
1 
1 
1 
1 
1 
1 
1 
1 
1 
1 
1 
1 
1 
1 
1 
1 
1 
1 
1 
1 
1 
1 
1 
1 
1 
1 
1 
1 
1 
1 
1 
1 
1 
1 
1 
1 
1 
1 
1 
1 
1 
1 
1 
1 
1 
1 
1 
1 
1 
1 
1 
1 
1 
1 
1 
1 
1 
1 
1 
1 
1 
1 
1 
1 
1 
1 
1 
1 
1 
1 
1 
1 
1 
1 
1 
1 
1 
1 
1 
1 
1 
1 
1 
1 
1 
1 
1 
1 
1 
1 
POINT_DATA 175 
VECTORS X_GC float 
-0.026061 -1.141911 0.000000 
-0.106992 -1.073856 0.000000 
-0.054870 -1.082088 0.000000 
-0.028809 -1.036205 0.000000 
-0.186430 -1.009780 0.000000 
-0.137056 -1.012306 0.000000 
-0.114311 -0.958659 0.000000 
-0.058186 -0.974325 0.000000 
-0.029377 -0.934148 0.000000 
-0.265318 -0.946624 0.000000 
-0.217198 -0.947424 0.000000 
-0.196633 -0.890128 0.000000 
-0.143120 -0.898836 0.000000 
-0.116563 -0.851568 0.000000 
-0.058945 -0.871213 0.000000 
-0.029568 -0.833093 0.000000 
-0.344206 -0.883469 0.000000 
-0.296791 -0.883462 0.000000 
-0.278030 -0.823519 0.000000 
-0.225992 -0.829385 0.000000 
-0.201664 -0.777268 0.000000 
-0.145749 -0.790742 0.000000 
-0.117890 -0.746399 0.000000 
-0.059328 -0.769105 0.000000 
-0.029759 -0.732039 0.000000 
-0.058559 -1.182662 0.000000 
-0.162226 -1.203505 0.000000 
-0.123292 -1.167887 0.000000 
-0.142917 -1.118904 0.000000 
-0.261851 -1.225661 0.000000 
-0.229092 -1.188634 0.000000 
-0.256854 -1.137402 0.000000 
-0.209613 -1.103290 0.000000 
-0.223062 -1.055716 0.000000 
-0.360414 -1.247961 0.000000 
-0.329787 -1.210838 0.000000 
-0.361761 -1.159036 0.000000 
-0.321587 -1.122627 0.000000 
-0.341985 -1.072393 0.000000 
-0.290702 -1.039594 0.000000 
-0.302189 -0.992859 0.000000 
-0.458977 -1.270261 0.000000 
-0.429420 -1.233187 0.000000 
-0.464588 -1.181145 0.000000 
-0.427556 -1.144117 0.000000 
-0.453135 -1.092602 0.000000 
-0.407738 -1.057287 0.000000 
-0.425037 -1.007859 0.000000 
-0.370772 -0.976230 0.000000 
-0.381315 -0.930002 0.000000 
-0.046960 -1.233477 0.000000 
-0.095301 -1.327523 0.000000 
-0.098873 -1.274876 0.000000 
-0.149405 -1.259678 0.000000 
-0.140093 -1.419227 0.000000 
-0.148617 -1.370529 0.000000 
-0.205981 -1.360292 0.000000 
-0.203197 -1.302088 0.000000 
-0.248777 -1.282942 0.000000 
-0.184111 -1.510191 0.000000 
-0.194039 -1.463100 0.000000 
-0.254475 -1.455800 0.000000 
-0.257893 -1.401690 0.000000 
-0.309886 -1.386318 0.000000 
-0.303554 -1.325773 0.000000 
-0.347255 -1.305615 0.000000 
-0.228129 -1.601154 0.000000 
-0.238687 -1.554930 0.000000 
-0.301302 -1.549978 0.000000 
-0.307162 -1.497939 0.000000 
-0.363386 -1.485818 0.000000 
-0.362692 -1.428307 0.000000 
-0.412122 -1.411014 0.000000 
-0.403017 -1.348867 0.000000 
-0.445733 -1.328288 0.000000 
-0.000000 -1.256092 0.000000 
0.043388 -1.352523 0.000000 
-0.000000 -1.322490 0.000000 
-0.043388 -1.352523 0.000000 
0.087158 -1.444719 0.000000 
0.043769 -1.421021 0.000000 
-0.000000 -1.459487 0.000000 
-0.043769 -1.421021 0.000000 
-0.087158 -1.444719 0.000000 
0.130831 -1.535849 0.000000 
0.087824 -1.514250 0.000000 
0.044436 -1.556950 0.000000 
-0.000000 -1.525885 0.000000 
-0.044436 -1.556950 0.000000 
-0.087824 -1.514250 0.000000 
-0.130831 -1.535849 0.000000 
0.174505 -1.626979 0.000000 
0.131782 -1.606413 0.000000 
0.088871 -1.652279 0.000000 
0.044532 -1.624415 0.000000 
-0.000000 -1.660816 0.000000 
-0.044532 -1.624415 0.000000 
-0.088871 -1.652279 0.000000 
-0.131782 -1.606413 0.000000 
-0.174505 -1.626979 0.000000 
0.046960 -1.233477 0.000000 
0.149405 -1.259678 0.000000 
0.098873 -1.274876 0.000000 
0.095301 -1.327523 0.000000 
0.248777 -1.282942 0.000000 
0.203197 -1.302088 0.000000 
0.205981 -1.360292 0.000000 
0.148617 -1.370529 0.000000 
0.140093 -1.419227 0.000000 
0.347255 -1.305615 0.000000 
0.303554 -1.325773 0.000000 
0.309886 -1.386318 0.000000 
0.257893 -1.401690 0.000000 
0.254475 -1.455800 0.000000 
0.194039 -1.463100 0.000000 
0.184111 -1.510191 0.000000 
0.445733 -1.328288 0.000000 
0.403017 -1.348867 0.000000 
0.412122 -1.411014 0.000000 
0.362692 -1.428307 0.000000 
0.363386 -1.485818 0.000000 
0.307162 -1.497939 0.000000 
0.301302 -1.549978 0.000000 
0.238687 -1.554930 0.000000 
0.228129 -1.601154 0.000000 
0.058559 -1.182662 0.000000 
0.142917 -1.118904 0.000000 
0.123292 -1.167887 0.000000 
0.162226 -1.203505 0.000000 
0.223062 -1.055716 0.000000 
0.209613 -1.103290 0.000000 
0.256854 -1.137402 0.000000 
0.229092 -1.188634 0.000000 
0.261851 -1.225661 0.000000 
0.302189 -0.992859 0.000000 
0.290702 -1.039594 0.000000 
0.341985 -1.072393 0.000000 
0.321587 -1.122627 0.000000 
0.361761 -1.159036 0.000000 
0.329787 -1.210838 0.000000 
0.360414 -1.247961 0.000000 
0.381315 -0.930002 0.000000 
0.370772 -0.976230 0.000000 
0.425037 -1.007859 0.000000 
0.407738 -1.057287 0.000000 
0.453135 -1.092602 0.000000 
0.427556 -1.144117 0.000000 
0.464588 -1.181145 0.000000 
0.429420 -1.233187 0.000000 
0.458977 -1.270261 0.000000 
0.026061 -1.141911 0.000000 
0.028809 -1.036205 0.000000 
0.054870 -1.082088 0.000000 
0.106992 -1.073856 0.000000 
0.029377 -0.934148 0.000000 
0.058186 -0.974325 0.000000 
0.114311 -0.958659 0.000000 
0.137056 -1.012306 0.000000 
0.186430 -1.009780 0.000000 
0.029568 -0.833093 0.000000 
0.058945 -0.871213 0.000000 
0.116563 -0.851568 0.000000 
0.143120 -0.898836 0.000000 
0.196633 -0.890128 0.000000 
0.217198 -0.947424 0.000000 
0.265318 -0.946624 0.000000 
0.029759 -0.732039 0.000000 
0.059328 -0.769105 0.000000 
0.117890 -0.746399 0.000000 
0.145749 -0.790742 0.000000 
0.201664 -0.777268 0.000000 
0.225992 -0.829385 0.000000 
0.278030 -0.823519 0.000000 
0.296791 -0.883462 0.000000 
0.344206 -0.883469 0.000000 
VECTORS X_EC float 
0.338794 -0.084199 0.000000 
-0.609100 0.997053 0.000000 
0.713312 -0.891806 0.000000 
0.374519 0.488764 0.000000 
0.423588 0.132034 0.000000 
-0.218274 0.166137 0.000000 
-0.513962 -0.558102 0.000000 
0.756418 -0.346616 0.000000 
0.381900 -0.889008 0.000000 
-0.550868 -0.720570 0.000000 
0.823577 -0.709774 0.000000 
0.556234 0.516722 0.000000 
-0.139443 0.634291 0.000000 
-0.484677 -0.003834 0.000000 
0.766286 0.261381 0.000000 
0.384386 -0.253239 0.000000 
0.474677 0.426827 0.000000 
-0.141715 0.426731 0.000000 
-0.385608 -0.382497 0.000000 
0.937896 -0.303302 0.000000 
0.621631 0.993118 0.000000 
-0.105264 -0.824983 0.000000 
-0.467428 0.576391 0.000000 
0.771260 0.882920 0.000000 
0.386873 0.382530 0.000000 
0.761262 0.465936 0.000000 
0.108942 0.747312 0.000000 
-0.397202 0.266473 0.000000 
-0.142083 -0.394802 0.000000 
-0.595936 -0.953577 0.000000 
0.978194 0.546557 0.000000 
-0.660903 -0.145068 0.000000 
0.724964 -0.605588 0.000000 
0.899809 0.752164 0.000000 
0.685384 -0.652525 0.000000 
0.287229 0.846317 0.000000 
0.702895 0.146988 0.000000 
0.180633 -0.344530 0.000000 
0.445811 0.977310 0.000000 
-0.220880 0.534524 0.000000 
-0.071546 -0.096401 0.000000 
-0.033296 -0.351473 0.000000 
-0.417537 -0.851982 0.000000 
0.039645 0.445455 0.000000 
-0.441768 -0.054416 0.000000 
-0.109248 -0.749866 0.000000 
-0.699407 0.773378 0.000000 
-0.474522 0.106099 0.000000 
0.820030 -0.320895 0.000000 
0.957100 -0.944966 0.000000 
0.610485 -0.848058 0.000000 
-0.761092 0.421562 0.000000 
-0.714655 -0.289176 0.000000 
-0.057734 -0.494343 0.000000 
-0.178789 -0.340434 0.000000 
-0.067979 -0.997860 0.000000 
0.677748 0.863936 0.000000 
0.641556 0.078191 0.000000 
-0.765897 -0.180288 0.000000 
0.393446 0.887575 0.000000 
0.522510 0.251845 0.000000 
-0.691820 0.153301 0.000000 
-0.647393 -0.577182 0.000000 
0.028512 -0.784709 0.000000 
-0.053800 0.397931 0.000000 
0.514316 0.125800 0.000000 
0.965681 0.115584 0.000000 
-0.897068 -0.508445 0.000000 
-0.083078 -0.575298 0.000000 
-0.006893 0.722178 0.000000 
0.724017 0.558545 0.000000 
0.714996 -0.217859 0.000000 
-0.642413 -0.451316 0.000000 
-0.760780 0.709703 0.000000 
-0.205471 0.431888 0.000000 
0.000000 -0.542756 0.000000 
-0.564049 0.759057 0.000000 
0.000000 0.353621 0.000000 
0.564049 0.759057 0.000000 
0.866949 0.003712 0.000000 
-0.569003 -0.316219 0.000000 
0.000000 0.203069 0.000000 
0.569003 -0.316219 0.000000 
-0.866949 0.003712 0.000000 
0.299194 -0.766038 0.000000 
0.858290 0.942378 0.000000 
-0.577662 -0.481176 0.000000 
0.000000 -0.900554 0.000000 
0.577662 -0.481176 0.000000 
-0.858290 0.942378 0.000000 
-0.299194 -0.766038 0.000000 
-0.268560 0.464212 0.000000 
0.286830 0.186570 0.000000 
0.844677 0.805769 0.000000 
-0.578910 0.429606 0.000000 
0.000000 0.921010 0.000000 
0.578910 0.429606 0.000000 
-0.844677 0.805769 0.000000 
-0.286830 0.186570 0.000000 
0.268560 0.464212 0.000000 
-0.610485 -0.848058 0.000000 
0.057734 -0.494343 0.000000 
0.714655 -0.289176 0.000000 
0.761092 0.421562 0.000000 
0.765897 -0.180288 0.000000 
-0.641556 0.078191 0.000000 
-0.677748 0.863936 0.000000 
0.067979 -0.997860 0.000000 
0.178789 -0.340434 0.000000 
-0.514316 0.125800 0.000000 
0.053800 0.397931 0.000000 
-0.028512 -0.784709 0.000000 
0.647393 -0.577182 0.000000 
0.691820 0.153301 0.000000 
-0.522510 0.251845 0.000000 
-0.393446 0.887575 0.000000 
0.205471 0.431888 0.000000 
0.760780 0.709703 0.000000 
0.642413 -0.451316 0.000000 
-0.714996 -0.217859 0.000000 
-0.724017 0.558545 0.000000 
0.006894 0.722178 0.000000 
0.083078 -0.575298 0.000000 
0.897068 -0.508445 0.000000 
-0.965681 0.115584 0.000000 
-0.761262 0.465936 0.000000 
0.142083 -0.394802 0.000000 
0.397202 0.266473 0.000000 
-0.108942 0.747312 0.000000 
-0.899809 0.752164 0.000000 
-0.724964 -0.605588 0.000000 
0.660903 -0.145068 0.000000 
-0.978194 0.546557 0.000000 
0.595936 -0.953577 0.000000 
0.071546 -0.096401 0.000000 
0.220880 0.534524 0.000000 
-0.445811 0.977310 0.000000 
-0.180633 -0.344530 0.000000 
-0.702895 0.146988 0.000000 
-0.287229 0.846317 0.000000 
-0.685384 -0.652525 0.000000 
-0.957100 -0.944966 0.000000 
-0.820030 -0.320895 0.000000 
0.474522 0.106099 0.000000 
0.699407 0.773378 0.000000 
0.109248 -0.749866 0.000000 
0.441768 -0.054416 0.000000 
-0.039645 0.445455 0.000000 
0.417537 -0.851982 0.000000 
0.033296 -0.351473 0.000000 
-0.338794 -0.084199 0.000000 
-0.374519 0.488764 0.000000 
-0.713312 -0.891806 0.000000 
0.609100 0.997053 0.000000 
-0.381900 -0.889008 0.000000 
-0.756418 -0.346616 0.000000 
0.513962 -0.558102 0.000000 
0.218274 0.166137 0.000000 
-0.423588 0.132034 0.000000 
-0.384386 -0.253239 0.000000 
-0.766286 0.261381 0.000000 
0.484677 -0.003834 0.000000 
0.139443 0.634291 0.000000 
-0.556234 0.516722 0.000000 
-0.823577 -0.709774 0.000000 
0.550868 -0.720570 0.000000 
-0.386873 0.382530 0.000000 
-0.771260 0.882920 0.000000 
0.467428 0.576391 0.000000 
0.105264 -0.824983 0.000000 
-0.621631 0.993118 0.000000 
-0.937896 -0.303302 0.000000 
0.385608 -0.382497 0.000000 
0.141715 0.426731 0.000000 
-0.474677 0.426827 0.000000 
CELL_DATA 175 
SCALARS MASS float 
LOOKUP_TABLE default 
0.078183 
0.086427 
0.094672 
0.086427 
0.088131 
0.092111 
0.085854 
0.092111 
0.088131 
0.088705 
0.091000 
0.086983 
0.091556 
0.086983 
0.091000 
0.088705 
0.089278 
0.091574 
0.089278 
0.092722 
0.089278 
0.092722 
0.089278 
0.091574 
0.089278 
0.078183 
0.086427 
0.094672 
0.086427 
0.088131 
0.092111 
0.085854 
0.092111 
0.088131 
0.088705 
0.091000 
0.086983 
0.091556 
0.086983 
0.091000 
0.088705 
0.089278 
0.091574 
0.089278 
0.092722 
0.089278 
0.092722 
0.089278 
0.091574 
0.089278 
0.078183 
0.086427 
0.094672 
0.086427 
0.088131 
0.092111 
0.085854 
0.092111 
0.088131 
0.088705 
0.091000 
0.086983 
0.091556 
0.086983 
0.091000 
0.088705 
0.089278 
0.091574 
0.089278 
0.092722 
0.089278 
0.092722 
0.089278 
0.091574 
0.089278 
0.078183 
0.086427 
0.094672 
0.086427 
0.088131 
0.092111 
0.085854 
0.092111 
0.088131 
0.088705 
0.091000 
0.086983 
0.091556 
0.086983 
0.091000 
0.088705 
0.089278 
0.091574 
0.089278 
0.092722 
0.089278 
0.092722 
0.089278 
0.091574 
0.089278 
0.078183 
0.086427 
0.094672 
0.086427 
0.088131 
0.092111 
0.085854 
0.092111 
0.088131 
0.088705 
0.091000 
0.086983 
0.091556 
0.086983 
0.091000 
0.088705 
0.089278 
0.091574 
0.089278 
0.092722 
0.089278 
0.092722 
0.089278 
0.091574 
0.089278 
0.078183 
0.086427 
0.094672 
0.086427 
0.088131 
0.092111 
0.085854 
0.092111 
0.088131 
0.088705 
0.091000 
0.086983 
0.091556 
0.086983 
0.091000 
0.088705 
0.089278 
0.091574 
0.089278 
0.092722 
0.089278 
0.092722 
0.089278 
0.091574 
0.089278 
0.078183 
0.086427 
0.094672 
0.086427 
0.088131 
0.092111 
0.085854 
0.092111 
0.088131 
0.088705 
0.091000 
0.086983 
0.091556 
0.086983 
0.091000 
0.088705 
0.089278 
0.091574 
0.089278 
0.092722 
0.089278 
0.092722 
0.089278 
0.091574 
0.089278 
SCALARS MASS float 
LOOKUP_TABLE default 
0.078183 
0.086427 
0.094672 
0.086427 
0.088131 
0.092111 
0.085854 
0.092111 
0.088131 
0.088705 
0.091000 
0.086983 
0.091556 
0.086983 
0.091000 
0.088705 
0.089278 
0.091574 
0.089278 
0.092722 
0.089278 
0.092722 
0.089278 
0.091574 
0.089278 
0.078183 
0.086427 
0.094672 
0.086427 
0.088131 
0.092111 
0.085854 
0.092111 
0.088131 
0.088705 
0.091000 
0.086983 
0.091556 
0.086983 
0.091000 
0.088705 
0.089278 
0.091574 
0.089278 
0.092722 
0.089278 
0.092722 
0.089278 
0.091574 
0.089278 
0.078183 
0.086427 
0.094672 
0.086427 
0.088131 
0.092111 
0.085854 
0.092111 
0.088131 
0.088705 
0.091000 
0.086983 
0.091556 
0.086983 
0.091000 
0.088705 
0.089278 
0.091574 
0.089278 
0.092722 
0.089278 
0.092722 
0.089278 
0.091574 
0.089278 
0.078183 
0.086427 
0.094672 
0.086427 
0.088131 
0.092111 
0.085854 
0.092111 
0.088131 
0.088705 
0.091000 
0.086983 
0.091556 
0.086983 
0.091000 
0.088705 
0.089278 
0.091574 
0.089278 
0.092722 
0.089278 
0.092722 
0.089278 
0.091574 
0.089278 
0.078183 
0.086427 
0.094672 
0.086427 
0.088131 
0.092111 
0.085854 
0.092111 
0.088131 
0.088705 
0.091000 
0.086983 
0.091556 
0.086983 
0.091000 
0.088705 
0.089278 
0.091574 
0.089278 
0.092722 
0.089278 
0.092722 
0.089278 
0.091574 
0.089278 
0.078183 
0.086427 
0.094672 
0.086427 
0.088131 
0.092111 
0.085854 
0.092111 
0.088131 
0.088705 
0.091000 
0.086983 
0.091556 
0.086983 
0.091000 
0.088705 
0.089278 
0.091574 
0.089278 
0.092722 
0.089278 
0.092722 
0.089278 
0.091574 
0.089278 
0.078183 
0.086427 
0.094672 
0.086427 
0.088131 
0.092111 
0.085854 
0.092111 
0.088131 
0.088705 
0.091000 
0.086983 
0.091556 
0.086983 
0.091000 
0.088705 
0.089278 
0.091574 
0.089278 
0.092722 
0.089278 
0.092722 
0.089278 
0.091574 
0.089278 
SCALARS DENSITY float 
LOOKUP_TABLE default 
20.000000 
20.000000 
20.000000 
20.000000 
20.000000 
20.000000 
20.000000 
20.000000 
20.000000 
20.000000 
20.000000 
20.000000 
20.000000 
20.000000 
20.000000 
20.000000 
20.000000 
20.000000 
20.000000 
20.000000 
20.000000 
20.000000 
20.000000 
20.000000 
20.000000 
20.000000 
20.000000 
20.000000 
20.000000 
20.000000 
20.000000 
20.000000 
20.000000 
20.000000 
20.000000 
20.000000 
20.000000 
20.000000 
20.000000 
20.000000 
20.000000 
20.000000 
20.000000 
20.000000 
20.000000 
20.000000 
20.000000 
20.000000 
20.000000 
20.000000 
20.000000 
20.000000 
20.000000 
20.000000 
20.000000 
20.000000 
20.000000 
20.000000 
20.000000 
20.000000 
20.000000 
20.000000 
20.000000 
20.000000 
20.000000 
20.000000 
20.000000 
20.000000 
20.000000 
20.000000 
20.000000 
20.000000 
20.000000 
20.000000 
20.000000 
20.000000 
20.000000 
20.000000 
20.000000 
20.000000 
20.000000 
20.000000 
20.000000 
20.000000 
20.000000 
20.000000 
20.000000 
20.000000 
20.000000 
20.000000 
20.000000 
20.000000 
20.000000 
20.000000 
20.000000 
20.000000 
20.000000 
20.000000 
20.000000 
20.000000 
20.000000 
20.000000 
20.000000 
20.000000 
20.000000 
20.000000 
20.000000 
20.000000 
20.000000 
20.000000 
20.000000 
20.000000 
20.000000 
20.000000 
20.000000 
20.000000 
20.000000 
20.000000 
20.000000 
20.000000 
20.000000 
20.000000 
20.000000 
20.000000 
20.000000 
20.000000 
20.000000 
20.000000 
20.000000 
20.000000 
20.000000 
20.000000 
20.000000 
20.000000 
20.000000 
20.000000 
20.000000 
20.000000 
20.000000 
20.000000 
20.000000 
20.000000 
20.000000 
20.000000 
20.000000 
20.000000 
20.000000 
20.000000 
20.000000 
20.000000 
20.000000 
20.000000 
20.000000 
20.000000 
20.000000 
20.000000 
20.000000 
20.000000 
20.000000 
20.000000 
20.000000 
20.000000 
20.000000 
20.000000 
20.000000 
20.000000 
20.000000 
20.000000 
20.000000 
20.000000 
20.000000 
20.000000 
20.000000 
20.000000 
20.000000 
SCALARS ELEM_i float 
LOOKUP_TABLE default 
174 
202 
174 
175 
202 
202 
202 
175 
175 
229 
202 
203 
203 
203 
176 
176 
230 
230 
230 
203 
204 
203 
204 
177 
177 
174 
201 
201 
201 
227 
201 
228 
201 
202 
227 
228 
228 
228 
229 
229 
229 
254 
254 
255 
255 
255 
256 
256 
229 
229 
173 
200 
200 
200 
199 
199 
200 
200 
227 
199 
199 
226 
226 
226 
227 
227 
198 
225 
225 
226 
226 
226 
253 
254 
254 
173 
173 
173 
173 
145 
172 
172 
172 
199 
144 
145 
171 
171 
171 
199 
198 
144 
144 
144 
171 
171 
171 
198 
198 
198 
173 
146 
146 
146 
119 
146 
146 
145 
145 
119 
119 
118 
118 
118 
145 
145 
92 
92 
91 
118 
118 
118 
117 
117 
144 
174 
147 
147 
147 
148 
147 
120 
147 
119 
121 
121 
121 
120 
120 
120 
119 
121 
121 
94 
94 
93 
93 
93 
92 
92 
174 
175 
174 
148 
175 
175 
148 
148 
148 
176 
176 
149 
149 
149 
148 
121 
177 
177 
150 
149 
150 
149 
122 
122 
122 
VECTORS VELOCITY float 
0.000000 -4.843786 0.000000 
0.000000 -4.843786 0.000000 
0.000000 -4.843786 0.000000 
-0.000000 -4.843786 0.000000 
-0.000000 -4.843786 0.000000 
-0.000000 -4.843786 0.000000 
-0.000000 -4.843786 0.000000 
-0.000000 -4.843786 0.000000 
-0.000000 -4.843786 0.000000 
0.000000 -4.843786 0.000000 
0.000000 -4.843786 0.000000 
0.000000 -4.843786 0.000000 
-0.000000 -4.843786 0.000000 
0.000000 -4.843786 0.000000 
-0.000000 -4.843786 0.000000 
0.000000 -4.843786 0.000000 
0.000000 -4.843786 0.000000 
0.000000 -4.843786 0.000000 
-0.000000 -4.843786 0.000000 
0.000000 -4.843786 0.000000 
-0.000000 -4.843786 0.000000 
0.000000 -4.843786 0.000000 
0.000000 -4.843786 0.000000 
0.000000 -4.843786 0.000000 
-0.000000 -4.843786 0.000000 
0.000000 -4.843786 0.000000 
-0.000000 -4.843786 0.000000 
0.000000 -4.843786 0.000000 
0.000000 -4.843786 0.000000 
-0.000000 -4.843786 0.000000 
-0.000000 -4.843786 0.000000 
-0.000000 -4.843786 0.000000 
-0.000000 -4.843786 0.000000 
-0.000000 -4.843786 0.000000 
-0.000000 -4.843786 0.000000 
-0.000000 -4.843786 0.000000 
-0.000000 -4.843786 0.000000 
-0.000000 -4.843786 0.000000 
-0.000000 -4.843786 0.000000 
-0.000000 -4.843786 0.000000 
-0.000000 -4.843786 0.000000 
0.000000 -4.843786 0.000000 
0.000000 -4.843786 0.000000 
-0.000000 -4.843786 0.000000 
-0.000000 -4.843786 0.000000 
-0.000000 -4.843786 0.000000 
-0.000000 -4.843786 0.000000 
-0.000000 -4.843786 0.000000 
-0.000000 -4.843786 0.000000 
-0.000000 -4.843786 0.000000 
-0.000000 -4.843786 0.000000 
0.000000 -4.843786 0.000000 
-0.000000 -4.843786 0.000000 
0.000000 -4.843786 0.000000 
0.000000 -4.843786 0.000000 
0.000000 -4.843786 0.000000 
0.000000 -4.843786 0.000000 
0.000000 -4.843786 0.000000 
0.000000 -4.843786 0.000000 
0.000000 -4.843786 0.000000 
0.000000 -4.843786 0.000000 
0.000000 -4.843786 0.000000 
0.000000 -4.843786 0.000000 
0.000000 -4.843786 0.000000 
0.000000 -4.843786 0.000000 
-0.000000 -4.843786 0.000000 
-0.000000 -4.843786 0.000000 
0.000000 -4.843786 0.000000 
0.000000 -4.843786 0.000000 
0.000000 -4.843786 0.000000 
-0.000000 -4.843786 0.000000 
0.000000 -4.843786 0.000000 
-0.000000 -4.843786 0.000000 
-0.000000 -4.843786 0.000000 
-0.000000 -4.843786 0.000000 
-0.000000 -4.843786 0.000000 
0.000000 -4.843786 0.000000 
-0.000000 -4.843786 0.000000 
0.000000 -4.843786 0.000000 
-0.000000 -4.843786 0.000000 
0.000000 -4.843786 0.000000 
0.000000 -4.843786 0.000000 
0.000000 -4.843786 0.000000 
0.000000 -4.843786 0.000000 
-0.000000 -4.843786 0.000000 
-0.000000 -4.843786 0.000000 
-0.000000 -4.843786 0.000000 
-0.000000 -4.843786 0.000000 
-0.000000 -4.843786 0.000000 
0.000000 -4.843786 0.000000 
0.000000 -4.843786 0.000000 
0.000000 -4.843786 0.000000 
-0.000000 -4.843786 0.000000 
-0.000000 -4.843786 0.000000 
-0.000000 -4.843786 0.000000 
-0.000000 -4.843786 0.000000 
-0.000000 -4.843786 0.000000 
0.000000 -4.843786 0.000000 
-0.000000 -4.843786 0.000000 
0.000000 -4.843786 0.000000 
-0.000000 -4.843786 0.000000 
-0.000000 -4.843786 0.000000 
-0.000000 -4.843786 0.000000 
-0.000000 -4.843786 0.000000 
0.000000 -4.843786 0.000000 
-0.000000 -4.843786 0.000000 
0.000000 -4.843786 0.000000 
0.000000 -4.843786 0.000000 
-0.000000 -4.843786 0.000000 
0.000000 -4.843786 0.000000 
0.000000 -4.843786 0.000000 
0.000000 -4.843786 0.000000 
-0.000000 -4.843786 0.000000 
-0.000000 -4.843786 0.000000 
-0.000000 -4.843786 0.000000 
-0.000000 -4.843786 0.000000 
-0.000000 -4.843786 0.000000 
0.000000 -4.843786 0.000000 
-0.000000 -4.843786 0.000000 
0.000000 -4.843786 0.000000 
0.000000 -4.843786 0.000000 
0.000000 -4.843786 0.000000 
0.000000 -4.843786 0.000000 
0.000000 -4.843786 0.000000 
-0.000000 -4.843786 0.000000 
0.000000 -4.843786 0.000000 
0.000000 -4.843786 0.000000 
0.000000 -4.843786 0.000000 
-0.000000 -4.843786 0.000000 
0.000000 -4.843786 0.000000 
0.000000 -4.843786 0.000000 
-0.000000 -4.843786 0.000000 
0.000000 -4.843786 0.000000 
0.000000 -4.843786 0.000000 
0.000000 -4.843786 0.000000 
-0.000000 -4.843786 0.000000 
0.000000 -4.843786 0.000000 
-0.000000 -4.843786 0.000000 
-0.000000 -4.843786 0.000000 
-0.000000 -4.843786 0.000000 
-0.000000 -4.843786 0.000000 
-0.000000 -4.843786 0.000000 
-0.000000 -4.843786 0.000000 
0.000000 -4.843786 0.000000 
0.000000 -4.843786 0.000000 
0.000000 -4.843786 0.000000 
0.000000 -4.843786 0.000000 
0.000000 -4.843786 0.000000 
-0.000000 -4.843786 0.000000 
-0.000000 -4.843786 0.000000 
0.000000 -4.843786 0.000000 
-0.000000 -4.843786 0.000000 
0.000000 -4.843786 0.000000 
0.000000 -4.843786 0.000000 
-0.000000 -4.843786 0.000000 
-0.000000 -4.843786 0.000000 
0.000000 -4.843786 0.000000 
0.000000 -4.843786 0.000000 
0.000000 -4.843786 0.000000 
-0.000000 -4.843786 0.000000 
-0.000000 -4.843786 0.000000 
-0.000000 -4.843786 0.000000 
-0.000000 -4.843786 0.000000 
0.000000 -4.843786 0.000000 
0.000000 -4.843786 0.000000 
0.000000 -4.843786 0.000000 
0.000000 -4.843786 0.000000 
-0.000000 -4.843786 0.000000 
0.000000 -4.843786 0.000000 
-0.000000 -4.843786 0.000000 
0.000000 -4.843786 0.000000 
-0.000000 -4.843786 0.000000 
-0.000000 -4.843786 0.000000 
0.000000 -4.843786 0.000000 
0.000000 -4.843786 0.000000 
TENSORS STRESS float 
-0.000000 -0.000000 0.000000 
0.000000 -0.000000 0.000000 
0.000000 0.000000 0.000000 

-0.000000 -0.000000 0.000000 
0.000000 0.000000 0.000000 
0.000000 0.000000 0.000000 

-0.000000 -0.000000 0.000000 
0.000000 -0.000000 0.000000 
0.000000 0.000000 0.000000 

0.000000 0.000000 0.000000 
0.000000 -0.000000 0.000000 
0.000000 0.000000 0.000000 

-0.000000 -0.000000 0.000000 
0.000000 -0.000000 0.000000 
0.000000 0.000000 0.000000 

0.000000 -0.000000 0.000000 
0.000000 0.000000 0.000000 
0.000000 0.000000 0.000000 

0.000000 0.000000 0.000000 
0.000000 0.000000 0.000000 
0.000000 0.000000 0.000000 

-0.000000 0.000000 0.000000 
0.000000 -0.000000 0.000000 
0.000000 0.000000 0.000000 

-0.000000 0.000000 0.000000 
0.000000 -0.000000 0.000000 
0.000000 0.000000 0.000000 

-0.000000 0.000000 0.000000 
0.000000 -0.000000 0.000000 
0.000000 0.000000 0.000000 

0.000000 -0.000000 0.000000 
0.000000 -0.000000 0.000000 
0.000000 0.000000 0.000000 

0.000000 0.000000 0.000000 
0.000000 0.000000 0.000000 
0.000000 0.000000 0.000000 

0.000000 0.000000 0.000000 
0.000000 0.000000 0.000000 
0.000000 0.000000 0.000000 

-0.000000 -0.000000 0.000000 
0.000000 -0.000000 0.000000 
0.000000 0.000000 0.000000 

-0.000000 -0.000000 0.000000 
0.000000 -0.000000 0.000000 
0.000000 0.000000 0.000000 

0.000000 -0.000000 0.000000 
0.000000 0.000000 0.000000 
0.000000 0.000000 0.000000 

0.000000 0.000000 0.000000 
0.000000 -0.000000 0.000000 
0.000000 0.000000 0.000000 

0.000000 0.000000 0.000000 
0.000000 0.000000 0.000000 
0.000000 0.000000 0.000000 

-0.000000 -0.000000 0.000000 
0.000000 0.000000 0.000000 
0.000000 0.000000 0.000000 

-0.000000 0.000000 0.000000 
0.000000 -0.000000 0.000000 
0.000000 0.000000 0.000000 

0.000000 -0.000000 0.000000 
0.000000 0.000000 0.000000 
0.000000 0.000000 0.000000 

-0.000000 -0.000000 0.000000 
0.000000 0.000000 0.000000 
0.000000 0.000000 0.000000 

0.000000 -0.000000 0.000000 
0.000000 0.000000 0.000000 
0.000000 0.000000 0.000000 

0.000000 -0.000000 0.000000 
0.000000 0.000000 0.000000 
0.000000 0.000000 0.000000 

0.000000 0.000000 0.000000 
0.000000 -0.000000 0.000000 
0.000000 0.000000 0.000000 

-0.000000 0.000000 0.000000 
0.000000 0.000000 0.000000 
0.000000 0.000000 0.000000 

-0.000000 -0.000000 0.000000 
0.000000 -0.000000 0.000000 
0.000000 0.000000 0.000000 

0.000000 -0.000000 0.000000 
0.000000 0.000000 0.000000 
0.000000 0.000000 0.000000 

-0.000000 0.000000 0.000000 
0.000000 -0.000000 0.000000 
0.000000 0.000000 0.000000 

-0.000000 -0.000000 0.000000 
0.000000 -0.000000 0.000000 
0.000000 0.000000 0.000000 

-0.000000 -0.000000 0.000000 
0.000000 0.000000 0.000000 
0.000000 0.000000 0.000000 

-0.000000 -0.000000 0.000000 
0.000000 -0.000000 0.000000 
0.000000 0.000000 0.000000 

-0.000000 -0.000000 0.000000 
0.000000 0.000000 0.000000 
0.000000 0.000000 0.000000 

-0.000000 -0.000000 0.000000 
0.000000 -0.000000 0.000000 
0.000000 0.000000 0.000000 

0.000000 -0.000000 0.000000 
0.000000 0.000000 0.000000 
0.000000 0.000000 0.000000 

0.000000 -0.000000 0.000000 
0.000000 0.000000 0.000000 
0.000000 0.000000 0.000000 

-0.000000 -0.000000 0.000000 
0.000000 0.000000 0.000000 
0.000000 0.000000 0.000000 

0.000000 0.000000 0.000000 
0.000000 0.000000 0.000000 
0.000000 0.000000 0.000000 

0.000000 -0.000000 0.000000 
0.000000 0.000000 0.000000 
0.000000 0.000000 0.000000 

-0.000000 0.000000 0.000000 
0.000000 -0.000000 0.000000 
0.000000 0.000000 0.000000 

0.000000 -0.000000 0.000000 
0.000000 0.000000 0.000000 
0.000000 0.000000 0.000000 

-0.000000 0.000000 0.000000 
0.000000 -0.000000 0.000000 
0.000000 0.000000 0.000000 

-0.000000 0.000000 0.000000 
0.000000 0.000000 0.000000 
0.000000 0.000000 0.000000 

-0.000000 -0.000000 0.000000 
0.000000 -0.000000 0.000000 
0.000000 0.000000 0.000000 

-0.000000 -0.000000 0.000000 
0.000000 0.000000 0.000000 
0.000000 0.000000 0.000000 

-0.000000 -0.000000 0.000000 
0.000000 -0.000000 0.000000 
0.000000 0.000000 0.000000 

-0.000000 0.000000 0.000000 
0.000000 0.000000 0.000000 
0.000000 0.000000 0.000000 

-0.000000 -0.000000 0.000000 
0.000000 0.000000 0.000000 
0.000000 0.000000 0.000000 

-0.000000 -0.000000 0.000000 
0.000000 0.000000 0.000000 
0.000000 0.000000 0.000000 

-0.000000 -0.000000 0.000000 
0.000000 -0.000000 0.000000 
0.000000 0.000000 0.000000 

-0.000000 -0.000000 0.000000 
0.000000 0.000000 0.000000 
0.000000 0.000000 0.000000 

-0.000000 -0.000000 0.000000 
0.000000 -0.000000 0.000000 
0.000000 0.000000 0.000000 

-0.000000 -0.000000 0.000000 
0.000000 0.000000 0.000000 
0.000000 0.000000 0.000000 

-0.000000 -0.000000 0.000000 
0.000000 0.000000 0.000000 
0.000000 0.000000 0.000000 

-0.000000 0.000000 0.000000 
0.000000 -0.000000 0.000000 
0.000000 0.000000 0.000000 

-0.000000 0.000000 0.000000 
0.000000 -0.000000 0.000000 
0.000000 0.000000 0.000000 

0.000000 0.000000 0.000000 
0.000000 0.000000 0.000000 
0.000000 0.000000 0.000000 

-0.000000 0.000000 0.000000 
0.000000 -0.000000 0.000000 
0.000000 0.000000 0.000000 

0.000000 -0.000000 0.000000 
0.000000 0.000000 0.000000 
0.000000 0.000000 0.000000 

-0.000000 0.000000 0.000000 
0.000000 -0.000000 0.000000 
0.000000 0.000000 0.000000 

-0.000000 0.000000 0.000000 
0.000000 0.000000 0.000000 
0.000000 0.000000 0.000000 

0.000000 0.000000 0.000000 
0.000000 0.000000 0.000000 
0.000000 0.000000 0.000000 

0.000000 0.000000 0.000000 
0.000000 0.000000 0.000000 
0.000000 0.000000 0.000000 

0.000000 -0.000000 0.000000 
0.000000 0.000000 0.000000 
0.000000 0.000000 0.000000 

0.000000 -0.000000 0.000000 
0.000000 -0.000000 0.000000 
0.000000 0.000000 0.000000 

-0.000000 -0.000000 0.000000 
0.000000 -0.000000 0.000000 
0.000000 0.000000 0.000000 

-0.000000 -0.000000 0.000000 
0.000000 0.000000 0.000000 
0.000000 0.000000 0.000000 

-0.000000 0.000000 0.000000 
0.000000 0.000000 0.000000 
0.000000 0.000000 0.000000 

-0.000000 -0.000000 0.000000 
0.000000 0.000000 0.000000 
0.000000 0.000000 0.000000 

0.000000 -0.000000 0.000000 
0.000000 0.000000 0.000000 
0.000000 0.000000 0.000000 

0.000000 -0.000000 0.000000 
0.000000 0.000000 0.000000 
0.000000 0.000000 0.000000 

-0.000000 0.000000 0.000000 
0.000000 0.000000 0.000000 
0.000000 0.000000 0.000000 

0.000000 0.000000 0.000000 
0.000000 0.000000 0.000000 
0.000000 0.000000 0.000000 

-0.000000 0.000000 0.000000 
0.000000 -0.000000 0.000000 
0.000000 0.000000 0.000000 

0.000000 0.000000 0.000000 
0.000000 0.000000 0.000000 
0.000000 0.000000 0.000000 

-0.000000 -0.000000 0.000000 
0.000000 -0.000000 0.000000 
0.000000 0.000000 0.000000 

-0.000000 -0.000000 0.000000 
0.000000 0.000000 0.000000 
0.000000 0.000000 0.000000 

-0.000000 -0.000000 0.000000 
0.000000 0.000000 0.000000 
0.000000 0.000000 0.000000 

-0.000000 -0.000000 0.000000 
0.000000 0.000000 0.000000 
0.000000 0.000000 0.000000 

-0.000000 0.000000 0.000000 
0.000000 -0.000000 0.000000 
0.000000 0.000000 0.000000 

-0.000000 -0.000000 0.000000 
0.000000 0.000000 0.000000 
0.000000 0.000000 0.000000 

-0.000000 0.000000 0.000000 
0.000000 -0.000000 0.000000 
0.000000 0.000000 0.000000 

-0.000000 0.000000 0.000000 
0.000000 -0.000000 0.000000 
0.000000 0.000000 0.000000 

-0.000000 0.000000 0.000000 
0.000000 0.000000 0.000000 
0.000000 0.000000 0.000000 

0.000000 0.000000 0.000000 
0.000000 0.000000 0.000000 
0.000000 0.000000 0.000000 

0.000000 0.000000 0.000000 
0.000000 0.000000 0.000000 
0.000000 0.000000 0.000000 

0.000000 -0.000000 0.000000 
0.000000 0.000000 0.000000 
0.000000 0.000000 0.000000 

-0.000000 -0.000000 0.000000 
0.000000 -0.000000 0.000000 
0.000000 0.000000 0.000000 

0.000000 -0.000000 0.000000 
0.000000 0.000000 0.000000 
0.000000 0.000000 0.000000 

-0.000000 0.000000 0.000000 
0.000000 -0.000000 0.000000 
0.000000 0.000000 0.000000 

0.000000 -0.000000 0.000000 
0.000000 0.000000 0.000000 
0.000000 0.000000 0.000000 

-0.000000 0.000000 0.000000 
0.000000 -0.000000 0.000000 
0.000000 0.000000 0.000000 

-0.000000 0.000000 0.000000 
0.000000 0.000000 0.000000 
0.000000 0.000000 0.000000 

-0.000000 0.000000 0.000000 
0.000000 -0.000000 0.000000 
0.000000 0.000000 0.000000 

0.000000 -0.000000 0.000000 
0.000000 0.000000 0.000000 
0.000000 0.000000 0.000000 

0.000000 -0.000000 0.000000 
0.000000 0.000000 0.000000 
0.000000 0.000000 0.000000 

0.000000 -0.000000 0.000000 
0.000000 -0.000000 0.000000 
0.000000 0.000000 0.000000 

-0.000000 0.000000 0.000000 
0.000000 0.000000 0.000000 
0.000000 0.000000 0.000000 

-0.000000 -0.000000 0.000000 
0.000000 -0.000000 0.000000 
0.000000 0.000000 0.000000 

0.000000 -0.000000 0.000000 
0.000000 0.000000 0.000000 
0.000000 0.000000 0.000000 

-0.000000 -0.000000 0.000000 
0.000000 0.000000 0.000000 
0.000000 0.000000 0.000000 

0.000000 0.000000 0.000000 
0.000000 0.000000 0.000000 
0.000000 0.000000 0.000000 

0.000000 0.000000 0.000000 
0.000000 0.000000 0.000000 
0.000000 0.000000 0.000000 

0.000000 0.000000 0.000000 
0.000000 0.000000 0.000000 
0.000000 0.000000 0.000000 

0.000000 0.000000 0.000000 
0.000000 -0.000000 0.000000 
0.000000 0.000000 0.000000 

0.000000 -0.000000 0.000000 
0.000000 0.000000 0.000000 
0.000000 0.000000 0.000000 

-0.000000 0.000000 0.000000 
0.000000 0.000000 0.000000 
0.000000 0.000000 0.000000 

-0.000000 -0.000000 0.000000 
0.000000 -0.000000 0.000000 
0.000000 0.000000 0.000000 

-0.000000 -0.000000 0.000000 
0.000000 0.000000 0.000000 
0.000000 0.000000 0.000000 

-0.000000 0.000000 0.000000 
0.000000 -0.000000 0.000000 
0.000000 0.000000 0.000000 

0.000000 0.000000 0.000000 
0.000000 0.000000 0.000000 
0.000000 0.000000 0.000000 

-0.000000 0.000000 0.000000 
0.000000 -0.000000 0.000000 
0.000000 0.000000 0.000000 

-0.000000 0.000000 0.000000 
0.000000 -0.000000 0.000000 
0.000000 0.000000 0.000000 

0.000000 -0.000000 0.000000 
0.000000 -0.000000 0.000000 
0.000000 0.000000 0.000000 

0.000000 0.000000 0.000000 
0.000000 0.000000 0.000000 
0.000000 0.000000 0.000000 

0.000000 0.000000 0.000000 
0.000000 0.000000 0.000000 
0.000000 0.000000 0.000000 

0.000000 -0.000000 0.000000 
0.000000 0.000000 0.000000 
0.000000 0.000000 0.000000 

0.000000 -0.000000 0.000000 
0.000000 0.000000 0.000000 
0.000000 0.000000 0.000000 

0.000000 0.000000 0.000000 
0.000000 0.000000 0.000000 
0.000000 0.000000 0.000000 

-0.000000 -0.000000 0.000000 
0.000000 -0.000000 0.000000 
0.000000 0.000000 0.000000 

-0.000000 0.000000 0.000000 
0.000000 -0.000000 0.000000 
0.000000 0.000000 0.000000 

0.000000 0.000000 0.000000 
0.000000 0.000000 0.000000 
0.000000 0.000000 0.000000 

-0.000000 0.000000 0.000000 
0.000000 -0.000000 0.000000 
0.000000 0.000000 0.000000 

-0.000000 -0.000000 0.000000 
0.000000 0.000000 0.000000 
0.000000 0.000000 0.000000 

-0.000000 0.000000 0.000000 
0.000000 -0.000000 0.000000 
0.000000 0.000000 0.000000 

-0.000000 -0.000000 0.000000 
0.000000 -0.000000 0.000000 
0.000000 0.000000 0.000000 

-0.000000 -0.000000 0.000000 
0.000000 -0.000000 0.000000 
0.000000 0.000000 0.000000 

0.000000 -0.000000 0.000000 
0.000000 0.000000 0.000000 
0.000000 0.000000 0.000000 

-0.000000 -0.000000 0.000000 
0.000000 -0.000000 0.000000 
0.000000 0.000000 0.000000 

-0.000000 0.000000 0.000000 
0.000000 -0.000000 0.000000 
0.000000 0.000000 0.000000 

0.000000 0.000000 0.000000 
0.000000 0.000000 0.000000 
0.000000 0.000000 0.000000 

-0.000000 -0.000000 0.000000 
0.000000 -0.000000 0.000000 
0.000000 0.000000 0.000000 

0.000000 -0.000000 0.000000 
0.000000 0.000000 0.000000 
0.000000 0.000000 0.000000 

-0.000000 0.000000 0.000000 
0.000000 -0.000000 0.000000 
0.000000 0.000000 0.000000 

0.000000 0.000000 0.000000 
0.000000 -0.000000 0.000000 
0.000000 0.000000 0.000000 

0.000000 -0.000000 0.000000 
0.000000 -0.000000 0.000000 
0.000000 0.000000 0.000000 

0.000000 0.000000 0.000000 
0.000000 -0.000000 0.000000 
0.000000 0.000000 0.000000 

0.000000 0.000000 0.000000 
0.000000 0.000000 0.000000 
0.000000 0.000000 0.000000 

0.000000 0.000000 0.000000 
0.000000 0.000000 0.000000 
0.000000 0.000000 0.000000 

-0.000000 -0.000000 0.000000 
0.000000 -0.000000 0.000000 
0.000000 0.000000 0.000000 

-0.000000 0.000000 0.000000 
0.000000 -0.000000 0.000000 
0.000000 0.000000 0.000000 

-0.000000 0.000000 0.000000 
0.000000 -0.000000 0.000000 
0.000000 0.000000 0.000000 

0.000000 0.000000 0.000000 
0.000000 -0.000000 0.000000 
0.000000 0.000000 0.000000 

0.000000 0.000000 0.000000 
0.000000 -0.000000 0.000000 
0.000000 0.000000 0.000000 

0.000000 -0.000000 0.000000 
0.000000 -0.000000 0.000000 
0.000000 0.000000 0.000000 

0.000000 -0.000000 0.000000 
0.000000 0.000000 0.000000 
0.000000 0.000000 0.000000 

0.000000 -0.000000 0.000000 
0.000000 0.000000 0.000000 
0.000000 0.000000 0.000000 

0.000000 0.000000 0.000000 
0.000000 -0.000000 0.000000 
0.000000 0.000000 0.000000 

-0.000000 -0.000000 0.000000 
0.000000 -0.000000 0.000000 
0.000000 0.000000 0.000000 

-0.000000 -0.000000 0.000000 
0.000000 -0.000000 0.000000 
0.000000 0.000000 0.000000 

-0.000000 0.000000 0.000000 
0.000000 -0.000000 0.000000 
0.000000 0.000000 0.000000 

0.000000 0.000000 0.000000 
0.000000 0.000000 0.000000 
0.000000 0.000000 0.000000 

0.000000 0.000000 0.000000 
0.000000 -0.000000 0.000000 
0.000000 0.000000 0.000000 

-0.000000 0.000000 0.000000 
0.000000 -0.000000 0.000000 
0.000000 0.000000 0.000000 

-0.000000 0.000000 0.000000 
0.000000 -0.000000 0.000000 
0.000000 0.000000 0.000000 

-0.000000 0.000000 0.000000 
0.000000 -0.000000 0.000000 
0.000000 0.000000 0.000000 

-0.000000 -0.000000 0.000000 
0.000000 -0.000000 0.000000 
0.000000 0.000000 0.000000 

-0.000000 -0.000000 0.000000 
0.000000 0.000000 0.000000 
0.000000 0.000000 0.000000 

-0.000000 0.000000 0.000000 
0.000000 0.000000 0.000000 
0.000000 0.000000 0.000000 

0.000000 0.000000 0.000000 
0.000000 0.000000 0.000000 
0.000000 0.000000 0.000000 

-0.000000 0.000000 0.000000 
0.000000 -0.000000 0.000000 
0.000000 0.000000 0.000000 

0.000000 0.000000 0.000000 
0.000000 -0.000000 0.000000 
0.000000 0.000000 0.000000 

0.000000 0.000000 0.000000 
0.000000 0.000000 0.000000 
0.000000 0.000000 0.000000 

0.000000 0.000000 0.000000 
0.000000 0.000000 0.000000 
0.000000 0.000000 0.000000 

-0.000000 -0.000000 0.000000 
0.000000 -0.000000 0.000000 
0.000000 0.000000 0.000000 

0.000000 -0.000000 0.000000 
0.000000 -0.000000 0.000000 
0.000000 0.000000 0.000000 

0.000000 0.000000 0.000000 
0.000000 0.000000 0.000000 
0.000000 0.000000 0.000000 

0.000000 -0.000000 0.000000 
0.000000 0.000000 0.000000 
0.000000 0.000000 0.000000 

0.000000 -0.000000 0.000000 
0.000000 0.000000 0.000000 
0.000000 0.000000 0.000000 

0.000000 -0.000000 0.000000 
0.000000 -0.000000 0.000000 
0.000000 0.000000 0.000000 

0.000000 -0.000000 0.000000 
0.000000 0.000000 0.000000 
0.000000 0.000000 0.000000 

0.000000 0.000000 0.000000 
0.000000 -0.000000 0.000000 
0.000000 0.000000 0.000000 

-0.000000 -0.000000 0.000000 
0.000000 -0.000000 0.000000 
0.000000 0.000000 0.000000 

-0.000000 0.000000 0.000000 
0.000000 -0.000000 0.000000 
0.000000 0.000000 0.000000 

-0.000000 -0.000000 0.000000 
0.000000 -0.000000 0.000000 
0.000000 0.000000 0.000000 

TENSORS STRAIN float 
-0.000000 -0.000000 0.000000 
0.000000 -0.000000 0.000000 
0.000000 0.000000 0.000000 

-0.000000 -0.000000 0.000000 
0.000000 0.000000 0.000000 
0.000000 0.000000 0.000000 

0.000000 -0.000000 0.000000 
0.000000 -0.000000 0.000000 
0.000000 0.000000 0.000000 

0.000000 0.000000 0.000000 
0.000000 -0.000000 0.000000 
0.000000 0.000000 0.000000 

-0.000000 -0.000000 0.000000 
0.000000 -0.000000 0.000000 
0.000000 0.000000 0.000000 

-0.000000 -0.000000 0.000000 
0.000000 0.000000 0.000000 
0.000000 0.000000 0.000000 

0.000000 0.000000 0.000000 
0.000000 0.000000 0.000000 
0.000000 0.000000 0.000000 

-0.000000 0.000000 0.000000 
0.000000 0.000000 0.000000 
0.000000 0.000000 0.000000 

-0.000000 0.000000 0.000000 
0.000000 -0.000000 0.000000 
0.000000 0.000000 0.000000 

-0.000000 0.000000 0.000000 
0.000000 -0.000000 0.000000 
0.000000 0.000000 0.000000 

0.000000 -0.000000 0.000000 
0.000000 -0.000000 0.000000 
0.000000 0.000000 0.000000 

0.000000 0.000000 0.000000 
0.000000 0.000000 0.000000 
0.000000 0.000000 0.000000 

0.000000 0.000000 0.000000 
0.000000 0.000000 0.000000 
0.000000 0.000000 0.000000 

0.000000 -0.000000 0.000000 
0.000000 -0.000000 0.000000 
0.000000 0.000000 0.000000 

-0.000000 -0.000000 0.000000 
0.000000 -0.000000 0.000000 
0.000000 0.000000 0.000000 

0.000000 -0.000000 0.000000 
0.000000 0.000000 0.000000 
0.000000 0.000000 0.000000 

0.000000 0.000000 0.000000 
0.000000 -0.000000 0.000000 
0.000000 0.000000 0.000000 

0.000000 0.000000 0.000000 
0.000000 -0.000000 0.000000 
0.000000 0.000000 0.000000 

-0.000000 -0.000000 0.000000 
0.000000 0.000000 0.000000 
0.000000 0.000000 0.000000 

0.000000 0.000000 0.000000 
0.000000 -0.000000 0.000000 
0.000000 0.000000 0.000000 

-0.000000 -0.000000 0.000000 
0.000000 0.000000 0.000000 
0.000000 0.000000 0.000000 

-0.000000 -0.000000 0.000000 
0.000000 0.000000 0.000000 
0.000000 0.000000 0.000000 

0.000000 -0.000000 0.000000 
0.000000 0.000000 0.000000 
0.000000 0.000000 0.000000 

0.000000 -0.000000 0.000000 
0.000000 0.000000 0.000000 
0.000000 0.000000 0.000000 

0.000000 0.000000 0.000000 
0.000000 -0.000000 0.000000 
0.000000 0.000000 0.000000 

-0.000000 0.000000 0.000000 
0.000000 0.000000 0.000000 
0.000000 0.000000 0.000000 

-0.000000 -0.000000 0.000000 
0.000000 0.000000 0.000000 
0.000000 0.000000 0.000000 

-0.000000 -0.000000 0.000000 
0.000000 0.000000 0.000000 
0.000000 0.000000 0.000000 

-0.000000 0.000000 0.000000 
0.000000 -0.000000 0.000000 
0.000000 0.000000 0.000000 

-0.000000 -0.000000 0.000000 
0.000000 -0.000000 0.000000 
0.000000 0.000000 0.000000 

-0.000000 -0.000000 0.000000 
0.000000 0.000000 0.000000 
0.000000 0.000000 0.000000 

-0.000000 -0.000000 0.000000 
0.000000 -0.000000 0.000000 
0.000000 0.000000 0.000000 

-0.000000 -0.000000 0.000000 
0.000000 0.000000 0.000000 
0.000000 0.000000 0.000000 

-0.000000 -0.000000 0.000000 
0.000000 0.000000 0.000000 
0.000000 0.000000 0.000000 

-0.000000 -0.000000 0.000000 
0.000000 0.000000 0.000000 
0.000000 0.000000 0.000000 

-0.000000 -0.000000 0.000000 
0.000000 0.000000 0.000000 
0.000000 0.000000 0.000000 

-0.000000 -0.000000 0.000000 
0.000000 0.000000 0.000000 
0.000000 0.000000 0.000000 

-0.000000 0.000000 0.000000 
0.000000 0.000000 0.000000 
0.000000 0.000000 0.000000 

0.000000 -0.000000 0.000000 
0.000000 0.000000 0.000000 
0.000000 0.000000 0.000000 

0.000000 0.000000 0.000000 
0.000000 -0.000000 0.000000 
0.000000 0.000000 0.000000 

-0.000000 -0.000000 0.000000 
0.000000 0.000000 0.000000 
0.000000 0.000000 0.000000 

-0.000000 0.000000 0.000000 
0.000000 -0.000000 0.000000 
0.000000 0.000000 0.000000 

-0.000000 0.000000 0.000000 
0.000000 0.000000 0.000000 
0.000000 0.000000 0.000000 

-0.000000 -0.000000 0.000000 
0.000000 -0.000000 0.000000 
0.000000 0.000000 0.000000 

-0.000000 -0.000000 0.000000 
0.000000 0.000000 0.000000 
0.000000 0.000000 0.000000 

-0.000000 -0.000000 0.000000 
0.000000 -0.000000 0.000000 
0.000000 0.000000 0.000000 

-0.000000 0.000000 0.000000 
0.000000 0.000000 0.000000 
0.000000 0.000000 0.000000 

-0.000000 -0.000000 0.000000 
0.000000 0.000000 0.000000 
0.000000 0.000000 0.000000 

-0.000000 -0.000000 0.000000 
0.000000 0.000000 0.000000 
0.000000 0.000000 0.000000 

-0.000000 -0.000000 0.000000 
0.000000 -0.000000 0.000000 
0.000000 0.000000 0.000000 

-0.000000 -0.000000 0.000000 
0.000000 0.000000 0.000000 
0.000000 0.000000 0.000000 

-0.000000 -0.000000 0.000000 
0.000000 -0.000000 0.000000 
0.000000 0.000000 0.000000 

-0.000000 -0.000000 0.000000 
0.000000 0.000000 0.000000 
0.000000 0.000000 0.000000 

-0.000000 -0.000000 0.000000 
0.000000 0.000000 0.000000 
0.000000 0.000000 0.000000 

-0.000000 0.000000 0.000000 
0.000000 -0.000000 0.000000 
0.000000 0.000000 0.000000 

-0.000000 0.000000 0.000000 
0.000000 0.000000 0.000000 
0.000000 0.000000 0.000000 

-0.000000 0.000000 0.000000 
0.000000 0.000000 0.000000 
0.000000 0.000000 0.000000 

-0.000000 0.000000 0.000000 
0.000000 -0.000000 0.000000 
0.000000 0.000000 0.000000 

0.000000 -0.000000 0.000000 
0.000000 0.000000 0.000000 
0.000000 0.000000 0.000000 

-0.000000 0.000000 0.000000 
0.000000 0.000000 0.000000 
0.000000 0.000000 0.000000 

-0.000000 0.000000 0.000000 
0.000000 0.000000 0.000000 
0.000000 0.000000 0.000000 

0.000000 0.000000 0.000000 
0.000000 -0.000000 0.000000 
0.000000 0.000000 0.000000 

-0.000000 0.000000 0.000000 
0.000000 0.000000 0.000000 
0.000000 0.000000 0.000000 

-0.000000 -0.000000 0.000000 
0.000000 0.000000 0.000000 
0.000000 0.000000 0.000000 

0.000000 -0.000000 0.000000 
0.000000 -0.000000 0.000000 
0.000000 0.000000 0.000000 

0.000000 -0.000000 0.000000 
0.000000 -0.000000 0.000000 
0.000000 0.000000 0.000000 

-0.000000 -0.000000 0.000000 
0.000000 0.000000 0.000000 
0.000000 0.000000 0.000000 

-0.000000 0.000000 0.000000 
0.000000 0.000000 0.000000 
0.000000 0.000000 0.000000 

-0.000000 -0.000000 0.000000 
0.000000 0.000000 0.000000 
0.000000 0.000000 0.000000 

0.000000 -0.000000 0.000000 
0.000000 0.000000 0.000000 
0.000000 0.000000 0.000000 

0.000000 -0.000000 0.000000 
0.000000 -0.000000 0.000000 
0.000000 0.000000 0.000000 

-0.000000 0.000000 0.000000 
0.000000 0.000000 0.000000 
0.000000 0.000000 0.000000 

0.000000 0.000000 0.000000 
0.000000 0.000000 0.000000 
0.000000 0.000000 0.000000 

0.000000 0.000000 0.000000 
0.000000 -0.000000 0.000000 
0.000000 0.000000 0.000000 

-0.000000 0.000000 0.000000 
0.000000 0.000000 0.000000 
0.000000 0.000000 0.000000 

-0.000000 -0.000000 0.000000 
0.000000 -0.000000 0.000000 
0.000000 0.000000 0.000000 

-0.000000 -0.000000 0.000000 
0.000000 0.000000 0.000000 
0.000000 0.000000 0.000000 

-0.000000 -0.000000 0.000000 
0.000000 0.000000 0.000000 
0.000000 0.000000 0.000000 

-0.000000 -0.000000 0.000000 
0.000000 0.000000 0.000000 
0.000000 0.000000 0.000000 

-0.000000 0.000000 0.000000 
0.000000 -0.000000 0.000000 
0.000000 0.000000 0.000000 

-0.000000 -0.000000 0.000000 
0.000000 0.000000 0.000000 
0.000000 0.000000 0.000000 

-0.000000 0.000000 0.000000 
0.000000 -0.000000 0.000000 
0.000000 0.000000 0.000000 

-0.000000 0.000000 0.000000 
0.000000 -0.000000 0.000000 
0.000000 0.000000 0.000000 

-0.000000 0.000000 0.000000 
0.000000 0.000000 0.000000 
0.000000 0.000000 0.000000 

-0.000000 0.000000 0.000000 
0.000000 0.000000 0.000000 
0.000000 0.000000 0.000000 

0.000000 0.000000 0.000000 
0.000000 0.000000 0.000000 
0.000000 0.000000 0.000000 

-0.000000 -0.000000 0.000000 
0.000000 0.000000 0.000000 
0.000000 0.000000 0.000000 

-0.000000 -0.000000 0.000000 
0.000000 -0.000000 0.000000 
0.000000 0.000000 0.000000 

-0.000000 -0.000000 0.000000 
0.000000 0.000000 0.000000 
0.000000 0.000000 0.000000 

-0.000000 0.000000 0.000000 
0.000000 -0.000000 0.000000 
0.000000 0.000000 0.000000 

-0.000000 -0.000000 0.000000 
0.000000 0.000000 0.000000 
0.000000 0.000000 0.000000 

-0.000000 0.000000 0.000000 
0.000000 -0.000000 0.000000 
0.000000 0.000000 0.000000 

-0.000000 0.000000 0.000000 
0.000000 0.000000 0.000000 
0.000000 0.000000 0.000000 

-0.000000 0.000000 0.000000 
0.000000 -0.000000 0.000000 
0.000000 0.000000 0.000000 

0.000000 -0.000000 0.000000 
0.000000 0.000000 0.000000 
0.000000 0.000000 0.000000 

-0.000000 -0.000000 0.000000 
0.000000 0.000000 0.000000 
0.000000 0.000000 0.000000 

0.000000 -0.000000 0.000000 
0.000000 -0.000000 0.000000 
0.000000 0.000000 0.000000 

-0.000000 0.000000 0.000000 
0.000000 0.000000 0.000000 
0.000000 0.000000 0.000000 

-0.000000 -0.000000 0.000000 
0.000000 0.000000 0.000000 
0.000000 0.000000 0.000000 

-0.000000 -0.000000 0.000000 
0.000000 0.000000 0.000000 
0.000000 0.000000 0.000000 

-0.000000 -0.000000 0.000000 
0.000000 0.000000 0.000000 
0.000000 0.000000 0.000000 

0.000000 0.000000 0.000000 
0.000000 0.000000 0.000000 
0.000000 0.000000 0.000000 

0.000000 0.000000 0.000000 
0.000000 0.000000 0.000000 
0.000000 0.000000 0.000000 

-0.000000 0.000000 0.000000 
0.000000 0.000000 0.000000 
0.000000 0.000000 0.000000 

0.000000 0.000000 0.000000 
0.000000 -0.000000 0.000000 
0.000000 0.000000 0.000000 

-0.000000 -0.000000 0.000000 
0.000000 0.000000 0.000000 
0.000000 0.000000 0.000000 

-0.000000 0.000000 0.000000 
0.000000 0.000000 0.000000 
0.000000 0.000000 0.000000 

-0.000000 -0.000000 0.000000 
0.000000 -0.000000 0.000000 
0.000000 0.000000 0.000000 

-0.000000 -0.000000 0.000000 
0.000000 0.000000 0.000000 
0.000000 0.000000 0.000000 

-0.000000 0.000000 0.000000 
0.000000 -0.000000 0.000000 
0.000000 0.000000 0.000000 

-0.000000 0.000000 0.000000 
0.000000 0.000000 0.000000 
0.000000 0.000000 0.000000 

0.000000 0.000000 0.000000 
0.000000 -0.000000 0.000000 
0.000000 0.000000 0.000000 

0.000000 0.000000 0.000000 
0.000000 -0.000000 0.000000 
0.000000 0.000000 0.000000 

0.000000 -0.000000 0.000000 
0.000000 -0.000000 0.000000 
0.000000 0.000000 0.000000 

-0.000000 0.000000 0.000000 
0.000000 0.000000 0.000000 
0.000000 0.000000 0.000000 

0.000000 0.000000 0.000000 
0.000000 0.000000 0.000000 
0.000000 0.000000 0.000000 

0.000000 -0.000000 0.000000 
0.000000 0.000000 0.000000 
0.000000 0.000000 0.000000 

0.000000 -0.000000 0.000000 
0.000000 -0.000000 0.000000 
0.000000 0.000000 0.000000 

-0.000000 0.000000 0.000000 
0.000000 0.000000 0.000000 
0.000000 0.000000 0.000000 

-0.000000 -0.000000 0.000000 
0.000000 -0.000000 0.000000 
0.000000 0.000000 0.000000 

0.000000 0.000000 0.000000 
0.000000 -0.000000 0.000000 
0.000000 0.000000 0.000000 

-0.000000 0.000000 0.000000 
0.000000 0.000000 0.000000 
0.000000 0.000000 0.000000 

-0.000000 0.000000 0.000000 
0.000000 -0.000000 0.000000 
0.000000 0.000000 0.000000 

-0.000000 -0.000000 0.000000 
0.000000 0.000000 0.000000 
0.000000 0.000000 0.000000 

-0.000000 0.000000 0.000000 
0.000000 0.000000 0.000000 
0.000000 0.000000 0.000000 

-0.000000 -0.000000 0.000000 
0.000000 -0.000000 0.000000 
0.000000 0.000000 0.000000 

0.000000 -0.000000 0.000000 
0.000000 -0.000000 0.000000 
0.000000 0.000000 0.000000 

0.000000 -0.000000 0.000000 
0.000000 0.000000 0.000000 
0.000000 0.000000 0.000000 

0.000000 -0.000000 0.000000 
0.000000 -0.000000 0.000000 
0.000000 0.000000 0.000000 

-0.000000 0.000000 0.000000 
0.000000 -0.000000 0.000000 
0.000000 0.000000 0.000000 

0.000000 0.000000 0.000000 
0.000000 0.000000 0.000000 
0.000000 0.000000 0.000000 

0.000000 -0.000000 0.000000 
0.000000 -0.000000 0.000000 
0.000000 0.000000 0.000000 

0.000000 -0.000000 0.000000 
0.000000 0.000000 0.000000 
0.000000 0.000000 0.000000 

0.000000 0.000000 0.000000 
0.000000 -0.000000 0.000000 
0.000000 0.000000 0.000000 

0.000000 0.000000 0.000000 
0.000000 -0.000000 0.000000 
0.000000 0.000000 0.000000 

0.000000 -0.000000 0.000000 
0.000000 -0.000000 0.000000 
0.000000 0.000000 0.000000 

0.000000 0.000000 0.000000 
0.000000 -0.000000 0.000000 
0.000000 0.000000 0.000000 

0.000000 0.000000 0.000000 
0.000000 0.000000 0.000000 
0.000000 0.000000 0.000000 

0.000000 0.000000 0.000000 
0.000000 0.000000 0.000000 
0.000000 0.000000 0.000000 

-0.000000 -0.000000 0.000000 
0.000000 -0.000000 0.000000 
0.000000 0.000000 0.000000 

0.000000 0.000000 0.000000 
0.000000 -0.000000 0.000000 
0.000000 0.000000 0.000000 

0.000000 0.000000 0.000000 
0.000000 -0.000000 0.000000 
0.000000 0.000000 0.000000 

0.000000 0.000000 0.000000 
0.000000 -0.000000 0.000000 
0.000000 0.000000 0.000000 

0.000000 0.000000 0.000000 
0.000000 -0.000000 0.000000 
0.000000 0.000000 0.000000 

0.000000 -0.000000 0.000000 
0.000000 -0.000000 0.000000 
0.000000 0.000000 0.000000 

0.000000 -0.000000 0.000000 
0.000000 0.000000 0.000000 
0.000000 0.000000 0.000000 

0.000000 -0.000000 0.000000 
0.000000 0.000000 0.000000 
0.000000 0.000000 0.000000 

0.000000 0.000000 0.000000 
0.000000 -0.000000 0.000000 
0.000000 0.000000 0.000000 

-0.000000 -0.000000 0.000000 
0.000000 -0.000000 0.000000 
0.000000 0.000000 0.000000 

-0.000000 -0.000000 0.000000 
0.000000 -0.000000 0.000000 
0.000000 0.000000 0.000000 

-0.000000 0.000000 0.000000 
0.000000 -0.000000 0.000000 
0.000000 0.000000 0.000000 

0.000000 0.000000 0.000000 
0.000000 0.000000 0.000000 
0.000000 0.000000 0.000000 

0.000000 0.000000 0.000000 
0.000000 -0.000000 0.000000 
0.000000 0.000000 0.000000 

0.000000 0.000000 0.000000 
0.000000 -0.000000 0.000000 
0.000000 0.000000 0.000000 

-0.000000 0.000000 0.000000 
0.000000 -0.000000 0.000000 
0.000000 0.000000 0.000000 

-0.000000 0.000000 0.000000 
0.000000 0.000000 0.000000 
0.000000 0.000000 0.000000 

-0.000000 -0.000000 0.000000 
0.000000 -0.000000 0.000000 
0.000000 0.000000 0.000000 

-0.000000 -0.000000 0.000000 
0.000000 0.000000 0.000000 
0.000000 0.000000 0.000000 

-0.000000 0.000000 0.000000 
0.000000 0.000000 0.000000 
0.000000 0.000000 0.000000 

0.000000 0.000000 0.000000 
0.000000 0.000000 0.000000 
0.000000 0.000000 0.000000 

-0.000000 0.000000 0.000000 
0.000000 -0.000000 0.000000 
0.000000 0.000000 0.000000 

0.000000 0.000000 0.000000 
0.000000 -0.000000 0.000000 
0.000000 0.000000 0.000000 

0.000000 0.000000 0.000000 
0.000000 -0.000000 0.000000 
0.000000 0.000000 0.000000 

0.000000 0.000000 0.000000 
0.000000 0.000000 0.000000 
0.000000 0.000000 0.000000 

-0.000000 -0.000000 0.000000 
0.000000 -0.000000 0.000000 
0.000000 0.000000 0.000000 

0.000000 -0.000000 0.000000 
0.000000 -0.000000 0.000000 
0.000000 0.000000 0.000000 

0.000000 0.000000 0.000000 
0.000000 0.000000 0.000000 
0.000000 0.000000 0.000000 

0.000000 -0.000000 0.000000 
0.000000 0.000000 0.000000 
0.000000 0.000000 0.000000 

0.000000 -0.000000 0.000000 
0.000000 0.000000 0.000000 
0.000000 0.000000 0.000000 

0.000000 -0.000000 0.000000 
0.000000 -0.000000 0.000000 
0.000000 0.000000 0.000000 

0.000000 -0.000000 0.000000 
0.000000 0.000000 0.000000 
0.000000 0.000000 0.000000 

0.000000 0.000000 0.000000 
0.000000 -0.000000 0.000000 
0.000000 0.000000 0.000000 

-0.000000 -0.000000 0.000000 
0.000000 0.000000 0.000000 
0.000000 0.000000 0.000000 

-0.000000 0.000000 0.000000 
0.000000 -0.000000 0.000000 
0.000000 0.000000 0.000000 

-0.000000 -0.000000 0.000000 
0.000000 -0.000000 0.000000 
0.000000 0.000000 0.000000 

