# vtk DataFile Version 3.0 
vtk output 
ASCII 
DATASET UNSTRUCTURED_GRID 
POINTS 175 float 
-0.026061 -1.023688 0.000000 
-0.106992 -0.955633 0.000000 
-0.054870 -0.963866 0.000000 
-0.028809 -0.917982 0.000000 
-0.186430 -0.891557 0.000000 
-0.137056 -0.894084 0.000000 
-0.114311 -0.840436 0.000000 
-0.058186 -0.856102 0.000000 
-0.029377 -0.815925 0.000000 
-0.265318 -0.828402 0.000000 
-0.217198 -0.829201 0.000000 
-0.196633 -0.771905 0.000000 
-0.143120 -0.780614 0.000000 
-0.116563 -0.733345 0.000000 
-0.058945 -0.752991 0.000000 
-0.029568 -0.714871 0.000000 
-0.344206 -0.765246 0.000000 
-0.296791 -0.765239 0.000000 
-0.278030 -0.705296 0.000000 
-0.225992 -0.711162 0.000000 
-0.201664 -0.659045 0.000000 
-0.145749 -0.672519 0.000000 
-0.117890 -0.628177 0.000000 
-0.059328 -0.650882 0.000000 
-0.029759 -0.613817 0.000000 
-0.058559 -1.064439 0.000000 
-0.162226 -1.085282 0.000000 
-0.123292 -1.049664 0.000000 
-0.142917 -1.000681 0.000000 
-0.261851 -1.107438 0.000000 
-0.229092 -1.070411 0.000000 
-0.256854 -1.019180 0.000000 
-0.209613 -0.985067 0.000000 
-0.223062 -0.937493 0.000000 
-0.360414 -1.129738 0.000000 
-0.329787 -1.092616 0.000000 
-0.361761 -1.040813 0.000000 
-0.321587 -1.004405 0.000000 
-0.341985 -0.954171 0.000000 
-0.290702 -0.921372 0.000000 
-0.302189 -0.874636 0.000000 
-0.458977 -1.152039 0.000000 
-0.429420 -1.114964 0.000000 
-0.464588 -1.062922 0.000000 
-0.427556 -1.025895 0.000000 
-0.453135 -0.974380 0.000000 
-0.407738 -0.939064 0.000000 
-0.425037 -0.889636 0.000000 
-0.370772 -0.858007 0.000000 
-0.381315 -0.811780 0.000000 
-0.046960 -1.115254 0.000000 
-0.095301 -1.209300 0.000000 
-0.098873 -1.156653 0.000000 
-0.149405 -1.141456 0.000000 
-0.140093 -1.301004 0.000000 
-0.148617 -1.252306 0.000000 
-0.205981 -1.242069 0.000000 
-0.203197 -1.183865 0.000000 
-0.248777 -1.164719 0.000000 
-0.184111 -1.391968 0.000000 
-0.194039 -1.344877 0.000000 
-0.254475 -1.337577 0.000000 
-0.257893 -1.283467 0.000000 
-0.309886 -1.268095 0.000000 
-0.303554 -1.207550 0.000000 
-0.347255 -1.187392 0.000000 
-0.228129 -1.482932 0.000000 
-0.238687 -1.436707 0.000000 
-0.301302 -1.431755 0.000000 
-0.307162 -1.379716 0.000000 
-0.363386 -1.367595 0.000000 
-0.362692 -1.310084 0.000000 
-0.412122 -1.292791 0.000000 
-0.403017 -1.230644 0.000000 
-0.445733 -1.210065 0.000000 
-0.000000 -1.137869 0.000000 
0.043388 -1.234300 0.000000 
-0.000000 -1.204268 0.000000 
-0.043388 -1.234300 0.000000 
0.087158 -1.326497 0.000000 
0.043769 -1.302798 0.000000 
-0.000000 -1.341264 0.000000 
-0.043769 -1.302798 0.000000 
-0.087158 -1.326497 0.000000 
0.130831 -1.417626 0.000000 
0.087824 -1.396027 0.000000 
0.044436 -1.438727 0.000000 
-0.000000 -1.407662 0.000000 
-0.044436 -1.438727 0.000000 
-0.087824 -1.396027 0.000000 
-0.130831 -1.417626 0.000000 
0.174505 -1.508756 0.000000 
0.131782 -1.488190 0.000000 
0.088871 -1.534056 0.000000 
0.044532 -1.506192 0.000000 
-0.000000 -1.542593 0.000000 
-0.044532 -1.506192 0.000000 
-0.088871 -1.534056 0.000000 
-0.131782 -1.488190 0.000000 
-0.174505 -1.508756 0.000000 
0.046960 -1.115254 0.000000 
0.149405 -1.141456 0.000000 
0.098873 -1.156653 0.000000 
0.095301 -1.209300 0.000000 
0.248777 -1.164719 0.000000 
0.203197 -1.183865 0.000000 
0.205981 -1.242069 0.000000 
0.148617 -1.252306 0.000000 
0.140093 -1.301004 0.000000 
0.347255 -1.187392 0.000000 
0.303554 -1.207550 0.000000 
0.309886 -1.268095 0.000000 
0.257893 -1.283467 0.000000 
0.254475 -1.337577 0.000000 
0.194039 -1.344877 0.000000 
0.184111 -1.391968 0.000000 
0.445733 -1.210065 0.000000 
0.403017 -1.230644 0.000000 
0.412122 -1.292791 0.000000 
0.362692 -1.310084 0.000000 
0.363386 -1.367595 0.000000 
0.307162 -1.379716 0.000000 
0.301302 -1.431755 0.000000 
0.238687 -1.436707 0.000000 
0.228129 -1.482932 0.000000 
0.058559 -1.064439 0.000000 
0.142917 -1.000681 0.000000 
0.123292 -1.049664 0.000000 
0.162226 -1.085282 0.000000 
0.223062 -0.937493 0.000000 
0.209613 -0.985067 0.000000 
0.256854 -1.019180 0.000000 
0.229092 -1.070411 0.000000 
0.261851 -1.107438 0.000000 
0.302189 -0.874636 0.000000 
0.290702 -0.921372 0.000000 
0.341985 -0.954171 0.000000 
0.321587 -1.004405 0.000000 
0.361761 -1.040813 0.000000 
0.329787 -1.092616 0.000000 
0.360414 -1.129738 0.000000 
0.381315 -0.811780 0.000000 
0.370772 -0.858007 0.000000 
0.425037 -0.889636 0.000000 
0.407738 -0.939064 0.000000 
0.453135 -0.974380 0.000000 
0.427556 -1.025895 0.000000 
0.464588 -1.062922 0.000000 
0.429420 -1.114964 0.000000 
0.458977 -1.152039 0.000000 
0.026061 -1.023688 0.000000 
0.028809 -0.917982 0.000000 
0.054870 -0.963866 0.000000 
0.106992 -0.955633 0.000000 
0.029377 -0.815925 0.000000 
0.058186 -0.856102 0.000000 
0.114311 -0.840436 0.000000 
0.137056 -0.894084 0.000000 
0.186430 -0.891557 0.000000 
0.029568 -0.714871 0.000000 
0.058945 -0.752991 0.000000 
0.116563 -0.733345 0.000000 
0.143120 -0.780614 0.000000 
0.196633 -0.771905 0.000000 
0.217198 -0.829201 0.000000 
0.265318 -0.828402 0.000000 
0.029759 -0.613817 0.000000 
0.059328 -0.650882 0.000000 
0.117890 -0.628177 0.000000 
0.145749 -0.672519 0.000000 
0.201664 -0.659045 0.000000 
0.225992 -0.711162 0.000000 
0.278030 -0.705296 0.000000 
0.296791 -0.765239 0.000000 
0.344206 -0.765246 0.000000 
CELLS 175 350 
1 0 
1 1 
1 2 
1 3 
1 4 
1 5 
1 6 
1 7 
1 8 
1 9 
1 10 
1 11 
1 12 
1 13 
1 14 
1 15 
1 16 
1 17 
1 18 
1 19 
1 20 
1 21 
1 22 
1 23 
1 24 
1 25 
1 26 
1 27 
1 28 
1 29 
1 30 
1 31 
1 32 
1 33 
1 34 
1 35 
1 36 
1 37 
1 38 
1 39 
1 40 
1 41 
1 42 
1 43 
1 44 
1 45 
1 46 
1 47 
1 48 
1 49 
1 50 
1 51 
1 52 
1 53 
1 54 
1 55 
1 56 
1 57 
1 58 
1 59 
1 60 
1 61 
1 62 
1 63 
1 64 
1 65 
1 66 
1 67 
1 68 
1 69 
1 70 
1 71 
1 72 
1 73 
1 74 
1 75 
1 76 
1 77 
1 78 
1 79 
1 80 
1 81 
1 82 
1 83 
1 84 
1 85 
1 86 
1 87 
1 88 
1 89 
1 90 
1 91 
1 92 
1 93 
1 94 
1 95 
1 96 
1 97 
1 98 
1 99 
1 100 
1 101 
1 102 
1 103 
1 104 
1 105 
1 106 
1 107 
1 108 
1 109 
1 110 
1 111 
1 112 
1 113 
1 114 
1 115 
1 116 
1 117 
1 118 
1 119 
1 120 
1 121 
1 122 
1 123 
1 124 
1 125 
1 126 
1 127 
1 128 
1 129 
1 130 
1 131 
1 132 
1 133 
1 134 
1 135 
1 136 
1 137 
1 138 
1 139 
1 140 
1 141 
1 142 
1 143 
1 144 
1 145 
1 146 
1 147 
1 148 
1 149 
1 150 
1 151 
1 152 
1 153 
1 154 
1 155 
1 156 
1 157 
1 158 
1 159 
1 160 
1 161 
1 162 
1 163 
1 164 
1 165 
1 166 
1 167 
1 168 
1 169 
1 170 
1 171 
1 172 
1 173 
1 174 
CELL_TYPES 175 
1 
1 
1 
1 
1 
1 
1 
1 
1 
1 
1 
1 
1 
1 
1 
1 
1 
1 
1 
1 
1 
1 
1 
1 
1 
1 
1 
1 
1 
1 
1 
1 
1 
1 
1 
1 
1 
1 
1 
1 
1 
1 
1 
1 
1 
1 
1 
1 
1 
1 
1 
1 
1 
1 
1 
1 
1 
1 
1 
1 
1 
1 
1 
1 
1 
1 
1 
1 
1 
1 
1 
1 
1 
1 
1 
1 
1 
1 
1 
1 
1 
1 
1 
1 
1 
1 
1 
1 
1 
1 
1 
1 
1 
1 
1 
1 
1 
1 
1 
1 
1 
1 
1 
1 
1 
1 
1 
1 
1 
1 
1 
1 
1 
1 
1 
1 
1 
1 
1 
1 
1 
1 
1 
1 
1 
1 
1 
1 
1 
1 
1 
1 
1 
1 
1 
1 
1 
1 
1 
1 
1 
1 
1 
1 
1 
1 
1 
1 
1 
1 
1 
1 
1 
1 
1 
1 
1 
1 
1 
1 
1 
1 
1 
1 
1 
1 
1 
1 
1 
1 
1 
1 
1 
1 
1 
POINT_DATA 175 
VECTORS X_GC float 
-0.026061 -1.023688 0.000000 
-0.106992 -0.955633 0.000000 
-0.054870 -0.963866 0.000000 
-0.028809 -0.917982 0.000000 
-0.186430 -0.891557 0.000000 
-0.137056 -0.894084 0.000000 
-0.114311 -0.840436 0.000000 
-0.058186 -0.856102 0.000000 
-0.029377 -0.815925 0.000000 
-0.265318 -0.828402 0.000000 
-0.217198 -0.829201 0.000000 
-0.196633 -0.771905 0.000000 
-0.143120 -0.780614 0.000000 
-0.116563 -0.733345 0.000000 
-0.058945 -0.752991 0.000000 
-0.029568 -0.714871 0.000000 
-0.344206 -0.765246 0.000000 
-0.296791 -0.765239 0.000000 
-0.278030 -0.705296 0.000000 
-0.225992 -0.711162 0.000000 
-0.201664 -0.659045 0.000000 
-0.145749 -0.672519 0.000000 
-0.117890 -0.628177 0.000000 
-0.059328 -0.650882 0.000000 
-0.029759 -0.613817 0.000000 
-0.058559 -1.064439 0.000000 
-0.162226 -1.085282 0.000000 
-0.123292 -1.049664 0.000000 
-0.142917 -1.000681 0.000000 
-0.261851 -1.107438 0.000000 
-0.229092 -1.070411 0.000000 
-0.256854 -1.019180 0.000000 
-0.209613 -0.985067 0.000000 
-0.223062 -0.937493 0.000000 
-0.360414 -1.129738 0.000000 
-0.329787 -1.092616 0.000000 
-0.361761 -1.040813 0.000000 
-0.321587 -1.004405 0.000000 
-0.341985 -0.954171 0.000000 
-0.290702 -0.921372 0.000000 
-0.302189 -0.874636 0.000000 
-0.458977 -1.152039 0.000000 
-0.429420 -1.114964 0.000000 
-0.464588 -1.062922 0.000000 
-0.427556 -1.025895 0.000000 
-0.453135 -0.974380 0.000000 
-0.407738 -0.939064 0.000000 
-0.425037 -0.889636 0.000000 
-0.370772 -0.858007 0.000000 
-0.381315 -0.811780 0.000000 
-0.046960 -1.115254 0.000000 
-0.095301 -1.209300 0.000000 
-0.098873 -1.156653 0.000000 
-0.149405 -1.141456 0.000000 
-0.140093 -1.301004 0.000000 
-0.148617 -1.252306 0.000000 
-0.205981 -1.242069 0.000000 
-0.203197 -1.183865 0.000000 
-0.248777 -1.164719 0.000000 
-0.184111 -1.391968 0.000000 
-0.194039 -1.344877 0.000000 
-0.254475 -1.337577 0.000000 
-0.257893 -1.283467 0.000000 
-0.309886 -1.268095 0.000000 
-0.303554 -1.207550 0.000000 
-0.347255 -1.187392 0.000000 
-0.228129 -1.482932 0.000000 
-0.238687 -1.436707 0.000000 
-0.301302 -1.431755 0.000000 
-0.307162 -1.379716 0.000000 
-0.363386 -1.367595 0.000000 
-0.362692 -1.310084 0.000000 
-0.412122 -1.292791 0.000000 
-0.403017 -1.230644 0.000000 
-0.445733 -1.210065 0.000000 
-0.000000 -1.137869 0.000000 
0.043388 -1.234300 0.000000 
-0.000000 -1.204268 0.000000 
-0.043388 -1.234300 0.000000 
0.087158 -1.326497 0.000000 
0.043769 -1.302798 0.000000 
-0.000000 -1.341264 0.000000 
-0.043769 -1.302798 0.000000 
-0.087158 -1.326497 0.000000 
0.130831 -1.417626 0.000000 
0.087824 -1.396027 0.000000 
0.044436 -1.438727 0.000000 
-0.000000 -1.407662 0.000000 
-0.044436 -1.438727 0.000000 
-0.087824 -1.396027 0.000000 
-0.130831 -1.417626 0.000000 
0.174505 -1.508756 0.000000 
0.131782 -1.488190 0.000000 
0.088871 -1.534056 0.000000 
0.044532 -1.506192 0.000000 
-0.000000 -1.542593 0.000000 
-0.044532 -1.506192 0.000000 
-0.088871 -1.534056 0.000000 
-0.131782 -1.488190 0.000000 
-0.174505 -1.508756 0.000000 
0.046960 -1.115254 0.000000 
0.149405 -1.141456 0.000000 
0.098873 -1.156653 0.000000 
0.095301 -1.209300 0.000000 
0.248777 -1.164719 0.000000 
0.203197 -1.183865 0.000000 
0.205981 -1.242069 0.000000 
0.148617 -1.252306 0.000000 
0.140093 -1.301004 0.000000 
0.347255 -1.187392 0.000000 
0.303554 -1.207550 0.000000 
0.309886 -1.268095 0.000000 
0.257893 -1.283467 0.000000 
0.254475 -1.337577 0.000000 
0.194039 -1.344877 0.000000 
0.184111 -1.391968 0.000000 
0.445733 -1.210065 0.000000 
0.403017 -1.230644 0.000000 
0.412122 -1.292791 0.000000 
0.362692 -1.310084 0.000000 
0.363386 -1.367595 0.000000 
0.307162 -1.379716 0.000000 
0.301302 -1.431755 0.000000 
0.238687 -1.436707 0.000000 
0.228129 -1.482932 0.000000 
0.058559 -1.064439 0.000000 
0.142917 -1.000681 0.000000 
0.123292 -1.049664 0.000000 
0.162226 -1.085282 0.000000 
0.223062 -0.937493 0.000000 
0.209613 -0.985067 0.000000 
0.256854 -1.019180 0.000000 
0.229092 -1.070411 0.000000 
0.261851 -1.107438 0.000000 
0.302189 -0.874636 0.000000 
0.290702 -0.921372 0.000000 
0.341985 -0.954171 0.000000 
0.321587 -1.004405 0.000000 
0.361761 -1.040813 0.000000 
0.329787 -1.092616 0.000000 
0.360414 -1.129738 0.000000 
0.381315 -0.811780 0.000000 
0.370772 -0.858007 0.000000 
0.425037 -0.889636 0.000000 
0.407738 -0.939064 0.000000 
0.453135 -0.974380 0.000000 
0.427556 -1.025895 0.000000 
0.464588 -1.062922 0.000000 
0.429420 -1.114964 0.000000 
0.458977 -1.152039 0.000000 
0.026061 -1.023688 0.000000 
0.028809 -0.917982 0.000000 
0.054870 -0.963866 0.000000 
0.106992 -0.955633 0.000000 
0.029377 -0.815925 0.000000 
0.058186 -0.856102 0.000000 
0.114311 -0.840436 0.000000 
0.137056 -0.894084 0.000000 
0.186430 -0.891557 0.000000 
0.029568 -0.714871 0.000000 
0.058945 -0.752991 0.000000 
0.116563 -0.733345 0.000000 
0.143120 -0.780614 0.000000 
0.196633 -0.771905 0.000000 
0.217198 -0.829201 0.000000 
0.265318 -0.828402 0.000000 
0.029759 -0.613817 0.000000 
0.059328 -0.650882 0.000000 
0.117890 -0.628177 0.000000 
0.145749 -0.672519 0.000000 
0.201664 -0.659045 0.000000 
0.225992 -0.711162 0.000000 
0.278030 -0.705296 0.000000 
0.296791 -0.765239 0.000000 
0.344206 -0.765246 0.000000 
VECTORS X_EC float 
0.338794 0.319794 0.000000 
-0.609100 -0.598955 0.000000 
0.713312 -0.487814 0.000000 
0.374519 0.892757 0.000000 
0.423588 0.536026 0.000000 
-0.218274 0.570130 0.000000 
-0.513962 -0.154109 0.000000 
0.756418 0.057377 0.000000 
0.381900 -0.485015 0.000000 
-0.550868 -0.316577 0.000000 
0.823577 -0.305781 0.000000 
0.556234 0.920715 0.000000 
-0.139443 -0.961717 0.000000 
-0.484677 0.400159 0.000000 
0.766286 0.665374 0.000000 
0.384386 0.150754 0.000000 
0.474677 0.830820 0.000000 
-0.141715 0.830723 0.000000 
-0.385608 0.021495 0.000000 
0.937896 0.100691 0.000000 
0.621631 -0.602889 0.000000 
-0.105264 -0.420990 0.000000 
-0.467428 0.980384 0.000000 
0.771260 -0.713088 0.000000 
0.386873 0.786523 0.000000 
0.761262 0.869928 0.000000 
0.108942 -0.848695 0.000000 
-0.397202 0.670466 0.000000 
-0.142083 0.009191 0.000000 
-0.595936 -0.549584 0.000000 
0.978194 0.950550 0.000000 
-0.660903 0.258925 0.000000 
0.724964 -0.201595 0.000000 
0.899809 -0.843844 0.000000 
0.685384 -0.248532 0.000000 
0.287229 -0.749691 0.000000 
0.702895 0.550981 0.000000 
0.180633 0.059462 0.000000 
0.445811 -0.618697 0.000000 
-0.220880 0.938517 0.000000 
-0.071546 0.307591 0.000000 
-0.033296 0.052520 0.000000 
-0.417537 -0.447990 0.000000 
0.039645 0.849448 0.000000 
-0.441768 0.349577 0.000000 
-0.109248 -0.345874 0.000000 
-0.699407 -0.822629 0.000000 
-0.474522 0.510091 0.000000 
0.820030 0.083098 0.000000 
0.957100 -0.540974 0.000000 
0.610485 -0.444065 0.000000 
-0.761092 0.825554 0.000000 
-0.714655 0.114817 0.000000 
-0.057734 -0.090351 0.000000 
-0.178789 0.063558 0.000000 
-0.067979 -0.593868 0.000000 
0.677748 -0.732071 0.000000 
0.641556 0.482184 0.000000 
-0.765897 0.223705 0.000000 
0.393446 -0.708433 0.000000 
0.522510 0.655837 0.000000 
-0.691820 0.557293 0.000000 
-0.647393 -0.173189 0.000000 
0.028512 -0.380716 0.000000 
-0.053800 0.801924 0.000000 
0.514316 0.529793 0.000000 
0.965681 0.519576 0.000000 
-0.897068 -0.104452 0.000000 
-0.083078 -0.171305 0.000000 
-0.006893 -0.873830 0.000000 
0.724017 0.962537 0.000000 
0.714996 0.186134 0.000000 
-0.642413 -0.047324 0.000000 
-0.760780 -0.886304 0.000000 
-0.205471 0.835880 0.000000 
0.000000 -0.138764 0.000000 
-0.564049 -0.836951 0.000000 
0.000000 0.757613 0.000000 
0.564049 -0.836951 0.000000 
0.866949 0.407704 0.000000 
-0.569003 0.087773 0.000000 
0.000000 0.607062 0.000000 
0.569003 0.087773 0.000000 
-0.866949 0.407704 0.000000 
0.299194 -0.362045 0.000000 
0.858290 -0.653629 0.000000 
-0.577662 -0.077183 0.000000 
0.000000 -0.496562 0.000000 
0.577662 -0.077183 0.000000 
-0.858290 -0.653629 0.000000 
-0.299194 -0.362045 0.000000 
-0.268560 0.868205 0.000000 
0.286830 0.590563 0.000000 
0.844677 -0.790239 0.000000 
-0.578910 0.833599 0.000000 
0.000000 -0.674998 0.000000 
0.578910 0.833599 0.000000 
-0.844677 -0.790239 0.000000 
-0.286830 0.590563 0.000000 
0.268560 0.868205 0.000000 
-0.610485 -0.444065 0.000000 
0.057734 -0.090351 0.000000 
0.714655 0.114817 0.000000 
0.761092 0.825554 0.000000 
0.765897 0.223705 0.000000 
-0.641556 0.482184 0.000000 
-0.677748 -0.732071 0.000000 
0.067979 -0.593868 0.000000 
0.178789 0.063558 0.000000 
-0.514316 0.529793 0.000000 
0.053800 0.801924 0.000000 
-0.028512 -0.380716 0.000000 
0.647393 -0.173189 0.000000 
0.691820 0.557293 0.000000 
-0.522510 0.655837 0.000000 
-0.393446 -0.708433 0.000000 
0.205471 0.835880 0.000000 
0.760780 -0.886304 0.000000 
0.642413 -0.047324 0.000000 
-0.714996 0.186134 0.000000 
-0.724017 0.962537 0.000000 
0.006894 -0.873830 0.000000 
0.083078 -0.171305 0.000000 
0.897068 -0.104452 0.000000 
-0.965681 0.519576 0.000000 
-0.761262 0.869928 0.000000 
0.142083 0.009191 0.000000 
0.397202 0.670466 0.000000 
-0.108942 -0.848695 0.000000 
-0.899809 -0.843844 0.000000 
-0.724964 -0.201595 0.000000 
0.660903 0.258925 0.000000 
-0.978194 0.950550 0.000000 
0.595936 -0.549584 0.000000 
0.071546 0.307591 0.000000 
0.220880 0.938517 0.000000 
-0.445811 -0.618697 0.000000 
-0.180633 0.059462 0.000000 
-0.702895 0.550981 0.000000 
-0.287229 -0.749691 0.000000 
-0.685384 -0.248532 0.000000 
-0.957100 -0.540974 0.000000 
-0.820030 0.083098 0.000000 
0.474522 0.510091 0.000000 
0.699407 -0.822629 0.000000 
0.109248 -0.345874 0.000000 
0.441768 0.349577 0.000000 
-0.039645 0.849448 0.000000 
0.417537 -0.447990 0.000000 
0.033296 0.052520 0.000000 
-0.338794 0.319794 0.000000 
-0.374519 0.892757 0.000000 
-0.713312 -0.487814 0.000000 
0.609100 -0.598955 0.000000 
-0.381900 -0.485015 0.000000 
-0.756418 0.057377 0.000000 
0.513962 -0.154109 0.000000 
0.218274 0.570130 0.000000 
-0.423588 0.536026 0.000000 
-0.384386 0.150754 0.000000 
-0.766286 0.665374 0.000000 
0.484677 0.400159 0.000000 
0.139443 -0.961717 0.000000 
-0.556234 0.920715 0.000000 
-0.823577 -0.305781 0.000000 
0.550868 -0.316577 0.000000 
-0.386873 0.786523 0.000000 
-0.771260 -0.713088 0.000000 
0.467428 0.980384 0.000000 
0.105264 -0.420990 0.000000 
-0.621631 -0.602889 0.000000 
-0.937896 0.100691 0.000000 
0.385608 0.021495 0.000000 
0.141715 0.830723 0.000000 
-0.474677 0.830820 0.000000 
CELL_DATA 175 
SCALARS MASS float 
LOOKUP_TABLE default 
0.078183 
0.086427 
0.094672 
0.086427 
0.088131 
0.092111 
0.085854 
0.092111 
0.088131 
0.088705 
0.091000 
0.086983 
0.091556 
0.086983 
0.091000 
0.088705 
0.089278 
0.091574 
0.089278 
0.092722 
0.089278 
0.092722 
0.089278 
0.091574 
0.089278 
0.078183 
0.086427 
0.094672 
0.086427 
0.088131 
0.092111 
0.085854 
0.092111 
0.088131 
0.088705 
0.091000 
0.086983 
0.091556 
0.086983 
0.091000 
0.088705 
0.089278 
0.091574 
0.089278 
0.092722 
0.089278 
0.092722 
0.089278 
0.091574 
0.089278 
0.078183 
0.086427 
0.094672 
0.086427 
0.088131 
0.092111 
0.085854 
0.092111 
0.088131 
0.088705 
0.091000 
0.086983 
0.091556 
0.086983 
0.091000 
0.088705 
0.089278 
0.091574 
0.089278 
0.092722 
0.089278 
0.092722 
0.089278 
0.091574 
0.089278 
0.078183 
0.086427 
0.094672 
0.086427 
0.088131 
0.092111 
0.085854 
0.092111 
0.088131 
0.088705 
0.091000 
0.086983 
0.091556 
0.086983 
0.091000 
0.088705 
0.089278 
0.091574 
0.089278 
0.092722 
0.089278 
0.092722 
0.089278 
0.091574 
0.089278 
0.078183 
0.086427 
0.094672 
0.086427 
0.088131 
0.092111 
0.085854 
0.092111 
0.088131 
0.088705 
0.091000 
0.086983 
0.091556 
0.086983 
0.091000 
0.088705 
0.089278 
0.091574 
0.089278 
0.092722 
0.089278 
0.092722 
0.089278 
0.091574 
0.089278 
0.078183 
0.086427 
0.094672 
0.086427 
0.088131 
0.092111 
0.085854 
0.092111 
0.088131 
0.088705 
0.091000 
0.086983 
0.091556 
0.086983 
0.091000 
0.088705 
0.089278 
0.091574 
0.089278 
0.092722 
0.089278 
0.092722 
0.089278 
0.091574 
0.089278 
0.078183 
0.086427 
0.094672 
0.086427 
0.088131 
0.092111 
0.085854 
0.092111 
0.088131 
0.088705 
0.091000 
0.086983 
0.091556 
0.086983 
0.091000 
0.088705 
0.089278 
0.091574 
0.089278 
0.092722 
0.089278 
0.092722 
0.089278 
0.091574 
0.089278 
SCALARS MASS float 
LOOKUP_TABLE default 
0.078183 
0.086427 
0.094672 
0.086427 
0.088131 
0.092111 
0.085854 
0.092111 
0.088131 
0.088705 
0.091000 
0.086983 
0.091556 
0.086983 
0.091000 
0.088705 
0.089278 
0.091574 
0.089278 
0.092722 
0.089278 
0.092722 
0.089278 
0.091574 
0.089278 
0.078183 
0.086427 
0.094672 
0.086427 
0.088131 
0.092111 
0.085854 
0.092111 
0.088131 
0.088705 
0.091000 
0.086983 
0.091556 
0.086983 
0.091000 
0.088705 
0.089278 
0.091574 
0.089278 
0.092722 
0.089278 
0.092722 
0.089278 
0.091574 
0.089278 
0.078183 
0.086427 
0.094672 
0.086427 
0.088131 
0.092111 
0.085854 
0.092111 
0.088131 
0.088705 
0.091000 
0.086983 
0.091556 
0.086983 
0.091000 
0.088705 
0.089278 
0.091574 
0.089278 
0.092722 
0.089278 
0.092722 
0.089278 
0.091574 
0.089278 
0.078183 
0.086427 
0.094672 
0.086427 
0.088131 
0.092111 
0.085854 
0.092111 
0.088131 
0.088705 
0.091000 
0.086983 
0.091556 
0.086983 
0.091000 
0.088705 
0.089278 
0.091574 
0.089278 
0.092722 
0.089278 
0.092722 
0.089278 
0.091574 
0.089278 
0.078183 
0.086427 
0.094672 
0.086427 
0.088131 
0.092111 
0.085854 
0.092111 
0.088131 
0.088705 
0.091000 
0.086983 
0.091556 
0.086983 
0.091000 
0.088705 
0.089278 
0.091574 
0.089278 
0.092722 
0.089278 
0.092722 
0.089278 
0.091574 
0.089278 
0.078183 
0.086427 
0.094672 
0.086427 
0.088131 
0.092111 
0.085854 
0.092111 
0.088131 
0.088705 
0.091000 
0.086983 
0.091556 
0.086983 
0.091000 
0.088705 
0.089278 
0.091574 
0.089278 
0.092722 
0.089278 
0.092722 
0.089278 
0.091574 
0.089278 
0.078183 
0.086427 
0.094672 
0.086427 
0.088131 
0.092111 
0.085854 
0.092111 
0.088131 
0.088705 
0.091000 
0.086983 
0.091556 
0.086983 
0.091000 
0.088705 
0.089278 
0.091574 
0.089278 
0.092722 
0.089278 
0.092722 
0.089278 
0.091574 
0.089278 
SCALARS DENSITY float 
LOOKUP_TABLE default 
20.000000 
20.000000 
20.000000 
20.000000 
20.000000 
20.000000 
20.000000 
20.000000 
20.000000 
20.000000 
20.000000 
20.000000 
20.000000 
20.000000 
20.000000 
20.000000 
20.000000 
20.000000 
20.000000 
20.000000 
20.000000 
20.000000 
20.000000 
20.000000 
20.000000 
20.000000 
20.000000 
20.000000 
20.000000 
20.000000 
20.000000 
20.000000 
20.000000 
20.000000 
20.000000 
20.000000 
20.000000 
20.000000 
20.000000 
20.000000 
20.000000 
20.000000 
20.000000 
20.000000 
20.000000 
20.000000 
20.000000 
20.000000 
20.000000 
20.000000 
20.000000 
20.000000 
20.000000 
20.000000 
20.000000 
20.000000 
20.000000 
20.000000 
20.000000 
20.000000 
20.000000 
20.000000 
20.000000 
20.000000 
20.000000 
20.000000 
20.000000 
20.000000 
20.000000 
20.000000 
20.000000 
20.000000 
20.000000 
20.000000 
20.000000 
20.000000 
20.000000 
20.000000 
20.000000 
20.000000 
20.000000 
20.000000 
20.000000 
20.000000 
20.000000 
20.000000 
20.000000 
20.000000 
20.000000 
20.000000 
20.000000 
20.000000 
20.000000 
20.000000 
20.000000 
20.000000 
20.000000 
20.000000 
20.000000 
20.000000 
20.000000 
20.000000 
20.000000 
20.000000 
20.000000 
20.000000 
20.000000 
20.000000 
20.000000 
20.000000 
20.000000 
20.000000 
20.000000 
20.000000 
20.000000 
20.000000 
20.000000 
20.000000 
20.000000 
20.000000 
20.000000 
20.000000 
20.000000 
20.000000 
20.000000 
20.000000 
20.000000 
20.000000 
20.000000 
20.000000 
20.000000 
20.000000 
20.000000 
20.000000 
20.000000 
20.000000 
20.000000 
20.000000 
20.000000 
20.000000 
20.000000 
20.000000 
20.000000 
20.000000 
20.000000 
20.000000 
20.000000 
20.000000 
20.000000 
20.000000 
20.000000 
20.000000 
20.000000 
20.000000 
20.000000 
20.000000 
20.000000 
20.000000 
20.000000 
20.000000 
20.000000 
20.000000 
20.000000 
20.000000 
20.000000 
20.000000 
20.000000 
20.000000 
20.000000 
20.000000 
20.000000 
20.000000 
20.000000 
20.000000 
20.000000 
SCALARS ELEM_i float 
LOOKUP_TABLE default 
175 
202 
175 
176 
203 
203 
203 
176 
176 
230 
203 
204 
203 
204 
177 
177 
231 
231 
231 
204 
204 
204 
205 
177 
178 
175 
201 
202 
202 
228 
202 
229 
202 
202 
228 
228 
229 
229 
229 
230 
230 
255 
255 
256 
256 
256 
256 
257 
230 
230 
174 
201 
201 
201 
200 
200 
200 
201 
228 
199 
200 
227 
227 
227 
228 
228 
199 
226 
226 
226 
227 
227 
254 
254 
255 
174 
173 
174 
173 
146 
173 
173 
173 
200 
145 
145 
172 
172 
172 
199 
199 
145 
145 
144 
172 
171 
172 
198 
199 
199 
174 
147 
147 
147 
120 
147 
146 
146 
146 
120 
120 
119 
119 
119 
146 
145 
93 
92 
92 
119 
119 
118 
118 
118 
145 
175 
148 
148 
147 
148 
148 
121 
148 
120 
122 
122 
121 
121 
121 
120 
120 
122 
122 
95 
94 
94 
94 
94 
93 
93 
175 
176 
175 
148 
176 
176 
149 
149 
149 
177 
177 
150 
149 
150 
149 
122 
178 
177 
151 
150 
150 
150 
123 
123 
123 
VECTORS VELOCITY float 
-0.000000 -4.598143 0.000000 
-0.000000 -4.598143 0.000000 
-0.000000 -4.598143 0.000000 
-0.000000 -4.598143 0.000000 
-0.000000 -4.598143 0.000000 
0.000000 -4.598143 0.000000 
0.000000 -4.598143 0.000000 
0.000000 -4.598143 0.000000 
0.000000 -4.598143 0.000000 
-0.000000 -4.598143 0.000000 
-0.000000 -4.598143 0.000000 
-0.000000 -4.598143 0.000000 
0.000000 -4.598143 0.000000 
0.000000 -4.598143 0.000000 
0.000000 -4.598143 0.000000 
-0.000000 -4.598143 0.000000 
0.000000 -4.598143 0.000000 
-0.000000 -4.598143 0.000000 
0.000000 -4.598143 0.000000 
0.000000 -4.598143 0.000000 
0.000000 -4.598143 0.000000 
-0.000000 -4.598143 0.000000 
-0.000000 -4.598143 0.000000 
-0.000000 -4.598143 0.000000 
-0.000000 -4.598143 0.000000 
-0.000000 -4.598143 0.000000 
-0.000000 -4.598143 0.000000 
-0.000000 -4.598143 0.000000 
-0.000000 -4.598143 0.000000 
-0.000000 -4.598143 0.000000 
-0.000000 -4.598143 0.000000 
0.000000 -4.598143 0.000000 
-0.000000 -4.598143 0.000000 
-0.000000 -4.598143 0.000000 
0.000000 -4.598143 0.000000 
0.000000 -4.598143 0.000000 
-0.000000 -4.598143 0.000000 
0.000000 -4.598143 0.000000 
0.000000 -4.598143 0.000000 
0.000000 -4.598143 0.000000 
0.000000 -4.598143 0.000000 
-0.000000 -4.598143 0.000000 
-0.000000 -4.598143 0.000000 
-0.000000 -4.598143 0.000000 
0.000000 -4.598143 0.000000 
0.000000 -4.598143 0.000000 
0.000000 -4.598143 0.000000 
-0.000000 -4.598143 0.000000 
0.000000 -4.598143 0.000000 
-0.000000 -4.598143 0.000000 
-0.000000 -4.598143 0.000000 
0.000000 -4.598143 0.000000 
-0.000000 -4.598143 0.000000 
-0.000000 -4.598143 0.000000 
-0.000000 -4.598143 0.000000 
0.000000 -4.598143 0.000000 
-0.000000 -4.598143 0.000000 
-0.000000 -4.598143 0.000000 
-0.000000 -4.598143 0.000000 
-0.000000 -4.598143 0.000000 
-0.000000 -4.598143 0.000000 
-0.000000 -4.598143 0.000000 
-0.000000 -4.598143 0.000000 
-0.000000 -4.598143 0.000000 
-0.000000 -4.598143 0.000000 
0.000000 -4.598143 0.000000 
-0.000000 -4.598143 0.000000 
-0.000000 -4.598143 0.000000 
-0.000000 -4.598143 0.000000 
-0.000000 -4.598143 0.000000 
-0.000000 -4.598143 0.000000 
-0.000000 -4.598143 0.000000 
0.000000 -4.598143 0.000000 
-0.000000 -4.598143 0.000000 
-0.000000 -4.598143 0.000000 
-0.000000 -4.598143 0.000000 
-0.000000 -4.598143 0.000000 
-0.000000 -4.598143 0.000000 
0.000000 -4.598143 0.000000 
-0.000000 -4.598143 0.000000 
0.000000 -4.598143 0.000000 
0.000000 -4.598143 0.000000 
0.000000 -4.598143 0.000000 
0.000000 -4.598143 0.000000 
0.000000 -4.598143 0.000000 
-0.000000 -4.598143 0.000000 
-0.000000 -4.598143 0.000000 
-0.000000 -4.598143 0.000000 
0.000000 -4.598143 0.000000 
-0.000000 -4.598143 0.000000 
-0.000000 -4.598143 0.000000 
-0.000000 -4.598143 0.000000 
0.000000 -4.598143 0.000000 
0.000000 -4.598143 0.000000 
0.000000 -4.598143 0.000000 
-0.000000 -4.598143 0.000000 
0.000000 -4.598143 0.000000 
-0.000000 -4.598143 0.000000 
-0.000000 -4.598143 0.000000 
0.000000 -4.598143 0.000000 
0.000000 -4.598143 0.000000 
-0.000000 -4.598143 0.000000 
-0.000000 -4.598143 0.000000 
-0.000000 -4.598143 0.000000 
0.000000 -4.598143 0.000000 
-0.000000 -4.598143 0.000000 
-0.000000 -4.598143 0.000000 
-0.000000 -4.598143 0.000000 
-0.000000 -4.598143 0.000000 
0.000000 -4.598143 0.000000 
0.000000 -4.598143 0.000000 
0.000000 -4.598143 0.000000 
-0.000000 -4.598143 0.000000 
0.000000 -4.598143 0.000000 
0.000000 -4.598143 0.000000 
0.000000 -4.598143 0.000000 
0.000000 -4.598143 0.000000 
0.000000 -4.598143 0.000000 
-0.000000 -4.598143 0.000000 
0.000000 -4.598143 0.000000 
0.000000 -4.598143 0.000000 
0.000000 -4.598143 0.000000 
-0.000000 -4.598143 0.000000 
0.000000 -4.598143 0.000000 
-0.000000 -4.598143 0.000000 
0.000000 -4.598143 0.000000 
-0.000000 -4.598143 0.000000 
0.000000 -4.598143 0.000000 
-0.000000 -4.598143 0.000000 
0.000000 -4.598143 0.000000 
-0.000000 -4.598143 0.000000 
-0.000000 -4.598143 0.000000 
-0.000000 -4.598143 0.000000 
0.000000 -4.598143 0.000000 
0.000000 -4.598143 0.000000 
0.000000 -4.598143 0.000000 
0.000000 -4.598143 0.000000 
0.000000 -4.598143 0.000000 
0.000000 -4.598143 0.000000 
0.000000 -4.598143 0.000000 
0.000000 -4.598143 0.000000 
0.000000 -4.598143 0.000000 
0.000000 -4.598143 0.000000 
0.000000 -4.598143 0.000000 
0.000000 -4.598143 0.000000 
-0.000000 -4.598143 0.000000 
0.000000 -4.598143 0.000000 
0.000000 -4.598143 0.000000 
0.000000 -4.598143 0.000000 
-0.000000 -4.598143 0.000000 
0.000000 -4.598143 0.000000 
0.000000 -4.598143 0.000000 
0.000000 -4.598143 0.000000 
0.000000 -4.598143 0.000000 
0.000000 -4.598143 0.000000 
0.000000 -4.598143 0.000000 
0.000000 -4.598143 0.000000 
0.000000 -4.598143 0.000000 
0.000000 -4.598143 0.000000 
-0.000000 -4.598143 0.000000 
-0.000000 -4.598143 0.000000 
-0.000000 -4.598143 0.000000 
-0.000000 -4.598143 0.000000 
-0.000000 -4.598143 0.000000 
0.000000 -4.598143 0.000000 
0.000000 -4.598143 0.000000 
0.000000 -4.598143 0.000000 
0.000000 -4.598143 0.000000 
0.000000 -4.598143 0.000000 
-0.000000 -4.598143 0.000000 
0.000000 -4.598143 0.000000 
0.000000 -4.598143 0.000000 
-0.000000 -4.598143 0.000000 
-0.000000 -4.598143 0.000000 
-0.000000 -4.598143 0.000000 
TENSORS STRESS float 
0.000000 0.000000 0.000000 
0.000000 -0.000000 0.000000 
0.000000 0.000000 0.000000 

0.000000 -0.000000 0.000000 
0.000000 0.000000 0.000000 
0.000000 0.000000 0.000000 

0.000000 -0.000000 0.000000 
0.000000 -0.000000 0.000000 
0.000000 0.000000 0.000000 

0.000000 -0.000000 0.000000 
0.000000 0.000000 0.000000 
0.000000 0.000000 0.000000 

-0.000000 0.000000 0.000000 
0.000000 -0.000000 0.000000 
0.000000 0.000000 0.000000 

0.000000 0.000000 0.000000 
0.000000 0.000000 0.000000 
0.000000 0.000000 0.000000 

-0.000000 0.000000 0.000000 
0.000000 0.000000 0.000000 
0.000000 0.000000 0.000000 

-0.000000 -0.000000 0.000000 
0.000000 -0.000000 0.000000 
0.000000 0.000000 0.000000 

-0.000000 0.000000 0.000000 
0.000000 -0.000000 0.000000 
0.000000 0.000000 0.000000 

-0.000000 0.000000 0.000000 
0.000000 0.000000 0.000000 
0.000000 0.000000 0.000000 

-0.000000 0.000000 0.000000 
0.000000 -0.000000 0.000000 
0.000000 0.000000 0.000000 

-0.000000 0.000000 0.000000 
0.000000 0.000000 0.000000 
0.000000 0.000000 0.000000 

-0.000000 0.000000 0.000000 
0.000000 -0.000000 0.000000 
0.000000 0.000000 0.000000 

-0.000000 0.000000 0.000000 
0.000000 -0.000000 0.000000 
0.000000 0.000000 0.000000 

-0.000000 -0.000000 0.000000 
0.000000 -0.000000 0.000000 
0.000000 0.000000 0.000000 

-0.000000 0.000000 0.000000 
0.000000 -0.000000 0.000000 
0.000000 0.000000 0.000000 

0.000000 0.000000 0.000000 
0.000000 0.000000 0.000000 
0.000000 0.000000 0.000000 

0.000000 0.000000 0.000000 
0.000000 0.000000 0.000000 
0.000000 0.000000 0.000000 

-0.000000 -0.000000 0.000000 
0.000000 0.000000 0.000000 
0.000000 0.000000 0.000000 

-0.000000 -0.000000 0.000000 
0.000000 -0.000000 0.000000 
0.000000 0.000000 0.000000 

0.000000 0.000000 0.000000 
0.000000 0.000000 0.000000 
0.000000 0.000000 0.000000 

0.000000 -0.000000 0.000000 
0.000000 0.000000 0.000000 
0.000000 0.000000 0.000000 

0.000000 0.000000 0.000000 
0.000000 0.000000 0.000000 
0.000000 0.000000 0.000000 

-0.000000 0.000000 0.000000 
0.000000 0.000000 0.000000 
0.000000 0.000000 0.000000 

-0.000000 0.000000 0.000000 
0.000000 -0.000000 0.000000 
0.000000 0.000000 0.000000 

0.000000 0.000000 0.000000 
0.000000 0.000000 0.000000 
0.000000 0.000000 0.000000 

0.000000 0.000000 0.000000 
0.000000 0.000000 0.000000 
0.000000 0.000000 0.000000 

0.000000 0.000000 0.000000 
0.000000 0.000000 0.000000 
0.000000 0.000000 0.000000 

-0.000000 0.000000 0.000000 
0.000000 -0.000000 0.000000 
0.000000 0.000000 0.000000 

-0.000000 0.000000 0.000000 
0.000000 -0.000000 0.000000 
0.000000 0.000000 0.000000 

0.000000 0.000000 0.000000 
0.000000 0.000000 0.000000 
0.000000 0.000000 0.000000 

-0.000000 -0.000000 0.000000 
0.000000 -0.000000 0.000000 
0.000000 0.000000 0.000000 

0.000000 -0.000000 0.000000 
0.000000 0.000000 0.000000 
0.000000 0.000000 0.000000 

-0.000000 0.000000 0.000000 
0.000000 -0.000000 0.000000 
0.000000 0.000000 0.000000 

-0.000000 -0.000000 0.000000 
0.000000 -0.000000 0.000000 
0.000000 0.000000 0.000000 

-0.000000 0.000000 0.000000 
0.000000 0.000000 0.000000 
0.000000 0.000000 0.000000 

-0.000000 -0.000000 0.000000 
0.000000 -0.000000 0.000000 
0.000000 0.000000 0.000000 

-0.000000 0.000000 0.000000 
0.000000 -0.000000 0.000000 
0.000000 0.000000 0.000000 

0.000000 -0.000000 0.000000 
0.000000 0.000000 0.000000 
0.000000 0.000000 0.000000 

0.000000 0.000000 0.000000 
0.000000 -0.000000 0.000000 
0.000000 0.000000 0.000000 

-0.000000 0.000000 0.000000 
0.000000 0.000000 0.000000 
0.000000 0.000000 0.000000 

-0.000000 0.000000 0.000000 
0.000000 0.000000 0.000000 
0.000000 0.000000 0.000000 

0.000000 0.000000 0.000000 
0.000000 0.000000 0.000000 
0.000000 0.000000 0.000000 

0.000000 -0.000000 0.000000 
0.000000 0.000000 0.000000 
0.000000 0.000000 0.000000 

0.000000 0.000000 0.000000 
0.000000 0.000000 0.000000 
0.000000 0.000000 0.000000 

0.000000 -0.000000 0.000000 
0.000000 -0.000000 0.000000 
0.000000 0.000000 0.000000 

0.000000 -0.000000 0.000000 
0.000000 0.000000 0.000000 
0.000000 0.000000 0.000000 

0.000000 0.000000 0.000000 
0.000000 0.000000 0.000000 
0.000000 0.000000 0.000000 

-0.000000 0.000000 0.000000 
0.000000 -0.000000 0.000000 
0.000000 0.000000 0.000000 

-0.000000 -0.000000 0.000000 
0.000000 -0.000000 0.000000 
0.000000 0.000000 0.000000 

0.000000 -0.000000 0.000000 
0.000000 0.000000 0.000000 
0.000000 0.000000 0.000000 

0.000000 0.000000 0.000000 
0.000000 -0.000000 0.000000 
0.000000 0.000000 0.000000 

0.000000 -0.000000 0.000000 
0.000000 0.000000 0.000000 
0.000000 0.000000 0.000000 

0.000000 0.000000 0.000000 
0.000000 0.000000 0.000000 
0.000000 0.000000 0.000000 

-0.000000 0.000000 0.000000 
0.000000 -0.000000 0.000000 
0.000000 0.000000 0.000000 

-0.000000 0.000000 0.000000 
0.000000 -0.000000 0.000000 
0.000000 0.000000 0.000000 

0.000000 0.000000 0.000000 
0.000000 0.000000 0.000000 
0.000000 0.000000 0.000000 

0.000000 0.000000 0.000000 
0.000000 -0.000000 0.000000 
0.000000 0.000000 0.000000 

0.000000 -0.000000 0.000000 
0.000000 0.000000 0.000000 
0.000000 0.000000 0.000000 

-0.000000 -0.000000 0.000000 
0.000000 -0.000000 0.000000 
0.000000 0.000000 0.000000 

0.000000 0.000000 0.000000 
0.000000 0.000000 0.000000 
0.000000 0.000000 0.000000 

0.000000 0.000000 0.000000 
0.000000 0.000000 0.000000 
0.000000 0.000000 0.000000 

0.000000 0.000000 0.000000 
0.000000 0.000000 0.000000 
0.000000 0.000000 0.000000 

-0.000000 -0.000000 0.000000 
0.000000 0.000000 0.000000 
0.000000 0.000000 0.000000 

0.000000 -0.000000 0.000000 
0.000000 -0.000000 0.000000 
0.000000 0.000000 0.000000 

-0.000000 -0.000000 0.000000 
0.000000 -0.000000 0.000000 
0.000000 0.000000 0.000000 

-0.000000 -0.000000 0.000000 
0.000000 -0.000000 0.000000 
0.000000 0.000000 0.000000 

0.000000 -0.000000 0.000000 
0.000000 -0.000000 0.000000 
0.000000 0.000000 0.000000 

0.000000 0.000000 0.000000 
0.000000 -0.000000 0.000000 
0.000000 0.000000 0.000000 

0.000000 -0.000000 0.000000 
0.000000 0.000000 0.000000 
0.000000 0.000000 0.000000 

0.000000 0.000000 0.000000 
0.000000 -0.000000 0.000000 
0.000000 0.000000 0.000000 

-0.000000 -0.000000 0.000000 
0.000000 -0.000000 0.000000 
0.000000 0.000000 0.000000 

-0.000000 -0.000000 0.000000 
0.000000 -0.000000 0.000000 
0.000000 0.000000 0.000000 

-0.000000 0.000000 0.000000 
0.000000 -0.000000 0.000000 
0.000000 0.000000 0.000000 

-0.000000 0.000000 0.000000 
0.000000 0.000000 0.000000 
0.000000 0.000000 0.000000 

-0.000000 -0.000000 0.000000 
0.000000 -0.000000 0.000000 
0.000000 0.000000 0.000000 

0.000000 -0.000000 0.000000 
0.000000 0.000000 0.000000 
0.000000 0.000000 0.000000 

0.000000 -0.000000 0.000000 
0.000000 0.000000 0.000000 
0.000000 0.000000 0.000000 

0.000000 0.000000 0.000000 
0.000000 0.000000 0.000000 
0.000000 0.000000 0.000000 

-0.000000 -0.000000 0.000000 
0.000000 0.000000 0.000000 
0.000000 0.000000 0.000000 

0.000000 -0.000000 0.000000 
0.000000 0.000000 0.000000 
0.000000 0.000000 0.000000 

-0.000000 0.000000 0.000000 
0.000000 -0.000000 0.000000 
0.000000 0.000000 0.000000 

0.000000 0.000000 0.000000 
0.000000 -0.000000 0.000000 
0.000000 0.000000 0.000000 

-0.000000 0.000000 0.000000 
0.000000 0.000000 0.000000 
0.000000 0.000000 0.000000 

0.000000 0.000000 0.000000 
0.000000 0.000000 0.000000 
0.000000 0.000000 0.000000 

0.000000 0.000000 0.000000 
0.000000 0.000000 0.000000 
0.000000 0.000000 0.000000 

-0.000000 -0.000000 0.000000 
0.000000 0.000000 0.000000 
0.000000 0.000000 0.000000 

-0.000000 -0.000000 0.000000 
0.000000 -0.000000 0.000000 
0.000000 0.000000 0.000000 

-0.000000 0.000000 0.000000 
0.000000 0.000000 0.000000 
0.000000 0.000000 0.000000 

-0.000000 -0.000000 0.000000 
0.000000 -0.000000 0.000000 
0.000000 0.000000 0.000000 

0.000000 -0.000000 0.000000 
0.000000 0.000000 0.000000 
0.000000 0.000000 0.000000 

0.000000 -0.000000 0.000000 
0.000000 0.000000 0.000000 
0.000000 0.000000 0.000000 

-0.000000 -0.000000 0.000000 
0.000000 -0.000000 0.000000 
0.000000 0.000000 0.000000 

-0.000000 -0.000000 0.000000 
0.000000 0.000000 0.000000 
0.000000 0.000000 0.000000 

-0.000000 0.000000 0.000000 
0.000000 0.000000 0.000000 
0.000000 0.000000 0.000000 

0.000000 -0.000000 0.000000 
0.000000 0.000000 0.000000 
0.000000 0.000000 0.000000 

-0.000000 -0.000000 0.000000 
0.000000 -0.000000 0.000000 
0.000000 0.000000 0.000000 

0.000000 -0.000000 0.000000 
0.000000 -0.000000 0.000000 
0.000000 0.000000 0.000000 

-0.000000 -0.000000 0.000000 
0.000000 -0.000000 0.000000 
0.000000 0.000000 0.000000 

0.000000 0.000000 0.000000 
0.000000 0.000000 0.000000 
0.000000 0.000000 0.000000 

0.000000 -0.000000 0.000000 
0.000000 0.000000 0.000000 
0.000000 0.000000 0.000000 

-0.000000 0.000000 0.000000 
0.000000 -0.000000 0.000000 
0.000000 0.000000 0.000000 

-0.000000 0.000000 0.000000 
0.000000 -0.000000 0.000000 
0.000000 0.000000 0.000000 

0.000000 -0.000000 0.000000 
0.000000 0.000000 0.000000 
0.000000 0.000000 0.000000 

0.000000 -0.000000 0.000000 
0.000000 -0.000000 0.000000 
0.000000 0.000000 0.000000 

0.000000 0.000000 0.000000 
0.000000 0.000000 0.000000 
0.000000 0.000000 0.000000 

-0.000000 -0.000000 0.000000 
0.000000 0.000000 0.000000 
0.000000 0.000000 0.000000 

-0.000000 -0.000000 0.000000 
0.000000 0.000000 0.000000 
0.000000 0.000000 0.000000 

-0.000000 -0.000000 0.000000 
0.000000 -0.000000 0.000000 
0.000000 0.000000 0.000000 

-0.000000 -0.000000 0.000000 
0.000000 -0.000000 0.000000 
0.000000 0.000000 0.000000 

0.000000 -0.000000 0.000000 
0.000000 0.000000 0.000000 
0.000000 0.000000 0.000000 

-0.000000 -0.000000 0.000000 
0.000000 0.000000 0.000000 
0.000000 0.000000 0.000000 

0.000000 0.000000 0.000000 
0.000000 0.000000 0.000000 
0.000000 0.000000 0.000000 

-0.000000 -0.000000 0.000000 
0.000000 -0.000000 0.000000 
0.000000 0.000000 0.000000 

0.000000 -0.000000 0.000000 
0.000000 0.000000 0.000000 
0.000000 0.000000 0.000000 

0.000000 0.000000 0.000000 
0.000000 0.000000 0.000000 
0.000000 0.000000 0.000000 

-0.000000 -0.000000 0.000000 
0.000000 0.000000 0.000000 
0.000000 0.000000 0.000000 

-0.000000 -0.000000 0.000000 
0.000000 -0.000000 0.000000 
0.000000 0.000000 0.000000 

-0.000000 0.000000 0.000000 
0.000000 0.000000 0.000000 
0.000000 0.000000 0.000000 

-0.000000 -0.000000 0.000000 
0.000000 -0.000000 0.000000 
0.000000 0.000000 0.000000 

0.000000 -0.000000 0.000000 
0.000000 -0.000000 0.000000 
0.000000 0.000000 0.000000 

0.000000 -0.000000 0.000000 
0.000000 0.000000 0.000000 
0.000000 0.000000 0.000000 

0.000000 0.000000 0.000000 
0.000000 0.000000 0.000000 
0.000000 0.000000 0.000000 

0.000000 -0.000000 0.000000 
0.000000 0.000000 0.000000 
0.000000 0.000000 0.000000 

0.000000 0.000000 0.000000 
0.000000 0.000000 0.000000 
0.000000 0.000000 0.000000 

0.000000 -0.000000 0.000000 
0.000000 -0.000000 0.000000 
0.000000 0.000000 0.000000 

-0.000000 -0.000000 0.000000 
0.000000 -0.000000 0.000000 
0.000000 0.000000 0.000000 

0.000000 -0.000000 0.000000 
0.000000 0.000000 0.000000 
0.000000 0.000000 0.000000 

-0.000000 -0.000000 0.000000 
0.000000 -0.000000 0.000000 
0.000000 0.000000 0.000000 

0.000000 -0.000000 0.000000 
0.000000 -0.000000 0.000000 
0.000000 0.000000 0.000000 

0.000000 0.000000 0.000000 
0.000000 0.000000 0.000000 
0.000000 0.000000 0.000000 

-0.000000 0.000000 0.000000 
0.000000 -0.000000 0.000000 
0.000000 0.000000 0.000000 

0.000000 -0.000000 0.000000 
0.000000 -0.000000 0.000000 
0.000000 0.000000 0.000000 

-0.000000 0.000000 0.000000 
0.000000 -0.000000 0.000000 
0.000000 0.000000 0.000000 

0.000000 -0.000000 0.000000 
0.000000 0.000000 0.000000 
0.000000 0.000000 0.000000 

0.000000 -0.000000 0.000000 
0.000000 -0.000000 0.000000 
0.000000 0.000000 0.000000 

0.000000 0.000000 0.000000 
0.000000 0.000000 0.000000 
0.000000 0.000000 0.000000 

0.000000 0.000000 0.000000 
0.000000 0.000000 0.000000 
0.000000 0.000000 0.000000 

0.000000 -0.000000 0.000000 
0.000000 0.000000 0.000000 
0.000000 0.000000 0.000000 

-0.000000 -0.000000 0.000000 
0.000000 -0.000000 0.000000 
0.000000 0.000000 0.000000 

0.000000 -0.000000 0.000000 
0.000000 0.000000 0.000000 
0.000000 0.000000 0.000000 

0.000000 0.000000 0.000000 
0.000000 -0.000000 0.000000 
0.000000 0.000000 0.000000 

0.000000 -0.000000 0.000000 
0.000000 0.000000 0.000000 
0.000000 0.000000 0.000000 

0.000000 0.000000 0.000000 
0.000000 0.000000 0.000000 
0.000000 0.000000 0.000000 

0.000000 -0.000000 0.000000 
0.000000 0.000000 0.000000 
0.000000 0.000000 0.000000 

0.000000 -0.000000 0.000000 
0.000000 0.000000 0.000000 
0.000000 0.000000 0.000000 

-0.000000 -0.000000 0.000000 
0.000000 0.000000 0.000000 
0.000000 0.000000 0.000000 

-0.000000 0.000000 0.000000 
0.000000 -0.000000 0.000000 
0.000000 0.000000 0.000000 

0.000000 0.000000 0.000000 
0.000000 0.000000 0.000000 
0.000000 0.000000 0.000000 

-0.000000 -0.000000 0.000000 
0.000000 -0.000000 0.000000 
0.000000 0.000000 0.000000 

0.000000 0.000000 0.000000 
0.000000 -0.000000 0.000000 
0.000000 0.000000 0.000000 

0.000000 0.000000 0.000000 
0.000000 0.000000 0.000000 
0.000000 0.000000 0.000000 

0.000000 -0.000000 0.000000 
0.000000 0.000000 0.000000 
0.000000 0.000000 0.000000 

-0.000000 -0.000000 0.000000 
0.000000 -0.000000 0.000000 
0.000000 0.000000 0.000000 

-0.000000 -0.000000 0.000000 
0.000000 -0.000000 0.000000 
0.000000 0.000000 0.000000 

0.000000 -0.000000 0.000000 
0.000000 -0.000000 0.000000 
0.000000 0.000000 0.000000 

-0.000000 0.000000 0.000000 
0.000000 -0.000000 0.000000 
0.000000 0.000000 0.000000 

-0.000000 -0.000000 0.000000 
0.000000 -0.000000 0.000000 
0.000000 0.000000 0.000000 

0.000000 -0.000000 0.000000 
0.000000 0.000000 0.000000 
0.000000 0.000000 0.000000 

-0.000000 0.000000 0.000000 
0.000000 0.000000 0.000000 
0.000000 0.000000 0.000000 

0.000000 -0.000000 0.000000 
0.000000 0.000000 0.000000 
0.000000 0.000000 0.000000 

-0.000000 -0.000000 0.000000 
0.000000 0.000000 0.000000 
0.000000 0.000000 0.000000 

-0.000000 -0.000000 0.000000 
0.000000 -0.000000 0.000000 
0.000000 0.000000 0.000000 

0.000000 0.000000 0.000000 
0.000000 0.000000 0.000000 
0.000000 0.000000 0.000000 

-0.000000 -0.000000 0.000000 
0.000000 0.000000 0.000000 
0.000000 0.000000 0.000000 

0.000000 -0.000000 0.000000 
0.000000 -0.000000 0.000000 
0.000000 0.000000 0.000000 

-0.000000 -0.000000 0.000000 
0.000000 -0.000000 0.000000 
0.000000 0.000000 0.000000 

-0.000000 -0.000000 0.000000 
0.000000 -0.000000 0.000000 
0.000000 0.000000 0.000000 

-0.000000 0.000000 0.000000 
0.000000 -0.000000 0.000000 
0.000000 0.000000 0.000000 

-0.000000 0.000000 0.000000 
0.000000 -0.000000 0.000000 
0.000000 0.000000 0.000000 

0.000000 -0.000000 0.000000 
0.000000 0.000000 0.000000 
0.000000 0.000000 0.000000 

-0.000000 -0.000000 0.000000 
0.000000 -0.000000 0.000000 
0.000000 0.000000 0.000000 

-0.000000 0.000000 0.000000 
0.000000 0.000000 0.000000 
0.000000 0.000000 0.000000 

0.000000 -0.000000 0.000000 
0.000000 0.000000 0.000000 
0.000000 0.000000 0.000000 

0.000000 -0.000000 0.000000 
0.000000 0.000000 0.000000 
0.000000 0.000000 0.000000 

TENSORS STRAIN float 
0.000000 0.000000 0.000000 
0.000000 -0.000000 0.000000 
0.000000 0.000000 0.000000 

-0.000000 -0.000000 0.000000 
0.000000 0.000000 0.000000 
0.000000 0.000000 0.000000 

0.000000 -0.000000 0.000000 
0.000000 -0.000000 0.000000 
0.000000 0.000000 0.000000 

0.000000 -0.000000 0.000000 
0.000000 -0.000000 0.000000 
0.000000 0.000000 0.000000 

-0.000000 0.000000 0.000000 
0.000000 -0.000000 0.000000 
0.000000 0.000000 0.000000 

-0.000000 0.000000 0.000000 
0.000000 0.000000 0.000000 
0.000000 0.000000 0.000000 

-0.000000 0.000000 0.000000 
0.000000 0.000000 0.000000 
0.000000 0.000000 0.000000 

0.000000 -0.000000 0.000000 
0.000000 -0.000000 0.000000 
0.000000 0.000000 0.000000 

0.000000 0.000000 0.000000 
0.000000 -0.000000 0.000000 
0.000000 0.000000 0.000000 

-0.000000 0.000000 0.000000 
0.000000 0.000000 0.000000 
0.000000 0.000000 0.000000 

-0.000000 0.000000 0.000000 
0.000000 -0.000000 0.000000 
0.000000 0.000000 0.000000 

-0.000000 0.000000 0.000000 
0.000000 0.000000 0.000000 
0.000000 0.000000 0.000000 

-0.000000 0.000000 0.000000 
0.000000 0.000000 0.000000 
0.000000 0.000000 0.000000 

0.000000 0.000000 0.000000 
0.000000 -0.000000 0.000000 
0.000000 0.000000 0.000000 

-0.000000 -0.000000 0.000000 
0.000000 -0.000000 0.000000 
0.000000 0.000000 0.000000 

-0.000000 0.000000 0.000000 
0.000000 0.000000 0.000000 
0.000000 0.000000 0.000000 

0.000000 0.000000 0.000000 
0.000000 0.000000 0.000000 
0.000000 0.000000 0.000000 

0.000000 0.000000 0.000000 
0.000000 0.000000 0.000000 
0.000000 0.000000 0.000000 

-0.000000 -0.000000 0.000000 
0.000000 0.000000 0.000000 
0.000000 0.000000 0.000000 

0.000000 -0.000000 0.000000 
0.000000 -0.000000 0.000000 
0.000000 0.000000 0.000000 

0.000000 0.000000 0.000000 
0.000000 0.000000 0.000000 
0.000000 0.000000 0.000000 

0.000000 -0.000000 0.000000 
0.000000 0.000000 0.000000 
0.000000 0.000000 0.000000 

0.000000 0.000000 0.000000 
0.000000 0.000000 0.000000 
0.000000 0.000000 0.000000 

-0.000000 0.000000 0.000000 
0.000000 0.000000 0.000000 
0.000000 0.000000 0.000000 

-0.000000 0.000000 0.000000 
0.000000 -0.000000 0.000000 
0.000000 0.000000 0.000000 

0.000000 0.000000 0.000000 
0.000000 0.000000 0.000000 
0.000000 0.000000 0.000000 

0.000000 0.000000 0.000000 
0.000000 0.000000 0.000000 
0.000000 0.000000 0.000000 

0.000000 0.000000 0.000000 
0.000000 0.000000 0.000000 
0.000000 0.000000 0.000000 

0.000000 0.000000 0.000000 
0.000000 -0.000000 0.000000 
0.000000 0.000000 0.000000 

-0.000000 0.000000 0.000000 
0.000000 -0.000000 0.000000 
0.000000 0.000000 0.000000 

0.000000 0.000000 0.000000 
0.000000 0.000000 0.000000 
0.000000 0.000000 0.000000 

-0.000000 -0.000000 0.000000 
0.000000 -0.000000 0.000000 
0.000000 0.000000 0.000000 

0.000000 -0.000000 0.000000 
0.000000 0.000000 0.000000 
0.000000 0.000000 0.000000 

-0.000000 0.000000 0.000000 
0.000000 -0.000000 0.000000 
0.000000 0.000000 0.000000 

-0.000000 -0.000000 0.000000 
0.000000 -0.000000 0.000000 
0.000000 0.000000 0.000000 

-0.000000 0.000000 0.000000 
0.000000 0.000000 0.000000 
0.000000 0.000000 0.000000 

-0.000000 -0.000000 0.000000 
0.000000 -0.000000 0.000000 
0.000000 0.000000 0.000000 

0.000000 0.000000 0.000000 
0.000000 -0.000000 0.000000 
0.000000 0.000000 0.000000 

0.000000 -0.000000 0.000000 
0.000000 0.000000 0.000000 
0.000000 0.000000 0.000000 

0.000000 0.000000 0.000000 
0.000000 -0.000000 0.000000 
0.000000 0.000000 0.000000 

-0.000000 0.000000 0.000000 
0.000000 0.000000 0.000000 
0.000000 0.000000 0.000000 

-0.000000 0.000000 0.000000 
0.000000 0.000000 0.000000 
0.000000 0.000000 0.000000 

0.000000 0.000000 0.000000 
0.000000 0.000000 0.000000 
0.000000 0.000000 0.000000 

0.000000 -0.000000 0.000000 
0.000000 0.000000 0.000000 
0.000000 0.000000 0.000000 

0.000000 0.000000 0.000000 
0.000000 0.000000 0.000000 
0.000000 0.000000 0.000000 

0.000000 -0.000000 0.000000 
0.000000 -0.000000 0.000000 
0.000000 0.000000 0.000000 

0.000000 -0.000000 0.000000 
0.000000 -0.000000 0.000000 
0.000000 0.000000 0.000000 

0.000000 0.000000 0.000000 
0.000000 0.000000 0.000000 
0.000000 0.000000 0.000000 

-0.000000 0.000000 0.000000 
0.000000 -0.000000 0.000000 
0.000000 0.000000 0.000000 

-0.000000 -0.000000 0.000000 
0.000000 -0.000000 0.000000 
0.000000 0.000000 0.000000 

0.000000 -0.000000 0.000000 
0.000000 0.000000 0.000000 
0.000000 0.000000 0.000000 

0.000000 0.000000 0.000000 
0.000000 -0.000000 0.000000 
0.000000 0.000000 0.000000 

0.000000 -0.000000 0.000000 
0.000000 0.000000 0.000000 
0.000000 0.000000 0.000000 

0.000000 0.000000 0.000000 
0.000000 0.000000 0.000000 
0.000000 0.000000 0.000000 

-0.000000 0.000000 0.000000 
0.000000 -0.000000 0.000000 
0.000000 0.000000 0.000000 

0.000000 0.000000 0.000000 
0.000000 -0.000000 0.000000 
0.000000 0.000000 0.000000 

0.000000 0.000000 0.000000 
0.000000 0.000000 0.000000 
0.000000 0.000000 0.000000 

0.000000 0.000000 0.000000 
0.000000 -0.000000 0.000000 
0.000000 0.000000 0.000000 

-0.000000 -0.000000 0.000000 
0.000000 0.000000 0.000000 
0.000000 0.000000 0.000000 

-0.000000 -0.000000 0.000000 
0.000000 -0.000000 0.000000 
0.000000 0.000000 0.000000 

-0.000000 0.000000 0.000000 
0.000000 0.000000 0.000000 
0.000000 0.000000 0.000000 

-0.000000 0.000000 0.000000 
0.000000 0.000000 0.000000 
0.000000 0.000000 0.000000 

-0.000000 0.000000 0.000000 
0.000000 0.000000 0.000000 
0.000000 0.000000 0.000000 

-0.000000 -0.000000 0.000000 
0.000000 0.000000 0.000000 
0.000000 0.000000 0.000000 

0.000000 -0.000000 0.000000 
0.000000 -0.000000 0.000000 
0.000000 0.000000 0.000000 

-0.000000 -0.000000 0.000000 
0.000000 -0.000000 0.000000 
0.000000 0.000000 0.000000 

-0.000000 -0.000000 0.000000 
0.000000 -0.000000 0.000000 
0.000000 0.000000 0.000000 

0.000000 -0.000000 0.000000 
0.000000 -0.000000 0.000000 
0.000000 0.000000 0.000000 

0.000000 0.000000 0.000000 
0.000000 -0.000000 0.000000 
0.000000 0.000000 0.000000 

0.000000 -0.000000 0.000000 
0.000000 0.000000 0.000000 
0.000000 0.000000 0.000000 

0.000000 0.000000 0.000000 
0.000000 -0.000000 0.000000 
0.000000 0.000000 0.000000 

-0.000000 -0.000000 0.000000 
0.000000 -0.000000 0.000000 
0.000000 0.000000 0.000000 

0.000000 -0.000000 0.000000 
0.000000 -0.000000 0.000000 
0.000000 0.000000 0.000000 

0.000000 0.000000 0.000000 
0.000000 -0.000000 0.000000 
0.000000 0.000000 0.000000 

-0.000000 0.000000 0.000000 
0.000000 0.000000 0.000000 
0.000000 0.000000 0.000000 

0.000000 -0.000000 0.000000 
0.000000 -0.000000 0.000000 
0.000000 0.000000 0.000000 

0.000000 -0.000000 0.000000 
0.000000 0.000000 0.000000 
0.000000 0.000000 0.000000 

0.000000 -0.000000 0.000000 
0.000000 0.000000 0.000000 
0.000000 0.000000 0.000000 

0.000000 0.000000 0.000000 
0.000000 0.000000 0.000000 
0.000000 0.000000 0.000000 

-0.000000 -0.000000 0.000000 
0.000000 0.000000 0.000000 
0.000000 0.000000 0.000000 

0.000000 -0.000000 0.000000 
0.000000 0.000000 0.000000 
0.000000 0.000000 0.000000 

0.000000 0.000000 0.000000 
0.000000 -0.000000 0.000000 
0.000000 0.000000 0.000000 

0.000000 0.000000 0.000000 
0.000000 -0.000000 0.000000 
0.000000 0.000000 0.000000 

-0.000000 0.000000 0.000000 
0.000000 0.000000 0.000000 
0.000000 0.000000 0.000000 

0.000000 0.000000 0.000000 
0.000000 -0.000000 0.000000 
0.000000 0.000000 0.000000 

0.000000 0.000000 0.000000 
0.000000 0.000000 0.000000 
0.000000 0.000000 0.000000 

-0.000000 -0.000000 0.000000 
0.000000 0.000000 0.000000 
0.000000 0.000000 0.000000 

-0.000000 -0.000000 0.000000 
0.000000 -0.000000 0.000000 
0.000000 0.000000 0.000000 

-0.000000 0.000000 0.000000 
0.000000 0.000000 0.000000 
0.000000 0.000000 0.000000 

-0.000000 -0.000000 0.000000 
0.000000 0.000000 0.000000 
0.000000 0.000000 0.000000 

-0.000000 -0.000000 0.000000 
0.000000 0.000000 0.000000 
0.000000 0.000000 0.000000 

-0.000000 -0.000000 0.000000 
0.000000 0.000000 0.000000 
0.000000 0.000000 0.000000 

-0.000000 -0.000000 0.000000 
0.000000 -0.000000 0.000000 
0.000000 0.000000 0.000000 

-0.000000 -0.000000 0.000000 
0.000000 0.000000 0.000000 
0.000000 0.000000 0.000000 

-0.000000 0.000000 0.000000 
0.000000 0.000000 0.000000 
0.000000 0.000000 0.000000 

-0.000000 -0.000000 0.000000 
0.000000 0.000000 0.000000 
0.000000 0.000000 0.000000 

-0.000000 -0.000000 0.000000 
0.000000 -0.000000 0.000000 
0.000000 0.000000 0.000000 

0.000000 -0.000000 0.000000 
0.000000 -0.000000 0.000000 
0.000000 0.000000 0.000000 

-0.000000 -0.000000 0.000000 
0.000000 -0.000000 0.000000 
0.000000 0.000000 0.000000 

0.000000 0.000000 0.000000 
0.000000 0.000000 0.000000 
0.000000 0.000000 0.000000 

0.000000 -0.000000 0.000000 
0.000000 0.000000 0.000000 
0.000000 0.000000 0.000000 

0.000000 0.000000 0.000000 
0.000000 -0.000000 0.000000 
0.000000 0.000000 0.000000 

-0.000000 0.000000 0.000000 
0.000000 -0.000000 0.000000 
0.000000 0.000000 0.000000 

-0.000000 -0.000000 0.000000 
0.000000 0.000000 0.000000 
0.000000 0.000000 0.000000 

0.000000 -0.000000 0.000000 
0.000000 -0.000000 0.000000 
0.000000 0.000000 0.000000 

-0.000000 0.000000 0.000000 
0.000000 0.000000 0.000000 
0.000000 0.000000 0.000000 

-0.000000 -0.000000 0.000000 
0.000000 0.000000 0.000000 
0.000000 0.000000 0.000000 

-0.000000 -0.000000 0.000000 
0.000000 0.000000 0.000000 
0.000000 0.000000 0.000000 

-0.000000 -0.000000 0.000000 
0.000000 -0.000000 0.000000 
0.000000 0.000000 0.000000 

0.000000 -0.000000 0.000000 
0.000000 -0.000000 0.000000 
0.000000 0.000000 0.000000 

0.000000 -0.000000 0.000000 
0.000000 0.000000 0.000000 
0.000000 0.000000 0.000000 

-0.000000 -0.000000 0.000000 
0.000000 0.000000 0.000000 
0.000000 0.000000 0.000000 

-0.000000 0.000000 0.000000 
0.000000 0.000000 0.000000 
0.000000 0.000000 0.000000 

0.000000 -0.000000 0.000000 
0.000000 -0.000000 0.000000 
0.000000 0.000000 0.000000 

0.000000 -0.000000 0.000000 
0.000000 0.000000 0.000000 
0.000000 0.000000 0.000000 

0.000000 0.000000 0.000000 
0.000000 0.000000 0.000000 
0.000000 0.000000 0.000000 

-0.000000 -0.000000 0.000000 
0.000000 0.000000 0.000000 
0.000000 0.000000 0.000000 

0.000000 -0.000000 0.000000 
0.000000 -0.000000 0.000000 
0.000000 0.000000 0.000000 

-0.000000 0.000000 0.000000 
0.000000 0.000000 0.000000 
0.000000 0.000000 0.000000 

-0.000000 -0.000000 0.000000 
0.000000 -0.000000 0.000000 
0.000000 0.000000 0.000000 

0.000000 -0.000000 0.000000 
0.000000 -0.000000 0.000000 
0.000000 0.000000 0.000000 

0.000000 -0.000000 0.000000 
0.000000 0.000000 0.000000 
0.000000 0.000000 0.000000 

0.000000 0.000000 0.000000 
0.000000 0.000000 0.000000 
0.000000 0.000000 0.000000 

0.000000 -0.000000 0.000000 
0.000000 0.000000 0.000000 
0.000000 0.000000 0.000000 

0.000000 0.000000 0.000000 
0.000000 0.000000 0.000000 
0.000000 0.000000 0.000000 

0.000000 -0.000000 0.000000 
0.000000 -0.000000 0.000000 
0.000000 0.000000 0.000000 

0.000000 -0.000000 0.000000 
0.000000 -0.000000 0.000000 
0.000000 0.000000 0.000000 

0.000000 -0.000000 0.000000 
0.000000 0.000000 0.000000 
0.000000 0.000000 0.000000 

0.000000 -0.000000 0.000000 
0.000000 -0.000000 0.000000 
0.000000 0.000000 0.000000 

0.000000 -0.000000 0.000000 
0.000000 -0.000000 0.000000 
0.000000 0.000000 0.000000 

0.000000 0.000000 0.000000 
0.000000 0.000000 0.000000 
0.000000 0.000000 0.000000 

-0.000000 0.000000 0.000000 
0.000000 -0.000000 0.000000 
0.000000 0.000000 0.000000 

0.000000 -0.000000 0.000000 
0.000000 -0.000000 0.000000 
0.000000 0.000000 0.000000 

0.000000 0.000000 0.000000 
0.000000 -0.000000 0.000000 
0.000000 0.000000 0.000000 

0.000000 -0.000000 0.000000 
0.000000 0.000000 0.000000 
0.000000 0.000000 0.000000 

0.000000 -0.000000 0.000000 
0.000000 -0.000000 0.000000 
0.000000 0.000000 0.000000 

0.000000 0.000000 0.000000 
0.000000 -0.000000 0.000000 
0.000000 0.000000 0.000000 

-0.000000 0.000000 0.000000 
0.000000 0.000000 0.000000 
0.000000 0.000000 0.000000 

-0.000000 -0.000000 0.000000 
0.000000 0.000000 0.000000 
0.000000 0.000000 0.000000 

-0.000000 -0.000000 0.000000 
0.000000 -0.000000 0.000000 
0.000000 0.000000 0.000000 

0.000000 -0.000000 0.000000 
0.000000 0.000000 0.000000 
0.000000 0.000000 0.000000 

0.000000 0.000000 0.000000 
0.000000 -0.000000 0.000000 
0.000000 0.000000 0.000000 

0.000000 -0.000000 0.000000 
0.000000 0.000000 0.000000 
0.000000 0.000000 0.000000 

0.000000 0.000000 0.000000 
0.000000 0.000000 0.000000 
0.000000 0.000000 0.000000 

0.000000 -0.000000 0.000000 
0.000000 0.000000 0.000000 
0.000000 0.000000 0.000000 

0.000000 -0.000000 0.000000 
0.000000 0.000000 0.000000 
0.000000 0.000000 0.000000 

-0.000000 -0.000000 0.000000 
0.000000 0.000000 0.000000 
0.000000 0.000000 0.000000 

-0.000000 0.000000 0.000000 
0.000000 0.000000 0.000000 
0.000000 0.000000 0.000000 

-0.000000 0.000000 0.000000 
0.000000 0.000000 0.000000 
0.000000 0.000000 0.000000 

-0.000000 -0.000000 0.000000 
0.000000 -0.000000 0.000000 
0.000000 0.000000 0.000000 

0.000000 0.000000 0.000000 
0.000000 -0.000000 0.000000 
0.000000 0.000000 0.000000 

0.000000 0.000000 0.000000 
0.000000 0.000000 0.000000 
0.000000 0.000000 0.000000 

0.000000 -0.000000 0.000000 
0.000000 -0.000000 0.000000 
0.000000 0.000000 0.000000 

0.000000 -0.000000 0.000000 
0.000000 -0.000000 0.000000 
0.000000 0.000000 0.000000 

0.000000 -0.000000 0.000000 
0.000000 -0.000000 0.000000 
0.000000 0.000000 0.000000 

0.000000 -0.000000 0.000000 
0.000000 -0.000000 0.000000 
0.000000 0.000000 0.000000 

-0.000000 0.000000 0.000000 
0.000000 0.000000 0.000000 
0.000000 0.000000 0.000000 

-0.000000 -0.000000 0.000000 
0.000000 -0.000000 0.000000 
0.000000 0.000000 0.000000 

-0.000000 -0.000000 0.000000 
0.000000 0.000000 0.000000 
0.000000 0.000000 0.000000 

-0.000000 0.000000 0.000000 
0.000000 0.000000 0.000000 
0.000000 0.000000 0.000000 

-0.000000 -0.000000 0.000000 
0.000000 0.000000 0.000000 
0.000000 0.000000 0.000000 

-0.000000 -0.000000 0.000000 
0.000000 0.000000 0.000000 
0.000000 0.000000 0.000000 

0.000000 -0.000000 0.000000 
0.000000 -0.000000 0.000000 
0.000000 0.000000 0.000000 

0.000000 0.000000 0.000000 
0.000000 0.000000 0.000000 
0.000000 0.000000 0.000000 

-0.000000 -0.000000 0.000000 
0.000000 0.000000 0.000000 
0.000000 0.000000 0.000000 

0.000000 -0.000000 0.000000 
0.000000 -0.000000 0.000000 
0.000000 0.000000 0.000000 

-0.000000 -0.000000 0.000000 
0.000000 -0.000000 0.000000 
0.000000 0.000000 0.000000 

-0.000000 -0.000000 0.000000 
0.000000 -0.000000 0.000000 
0.000000 0.000000 0.000000 

-0.000000 0.000000 0.000000 
0.000000 -0.000000 0.000000 
0.000000 0.000000 0.000000 

-0.000000 0.000000 0.000000 
0.000000 -0.000000 0.000000 
0.000000 0.000000 0.000000 

-0.000000 -0.000000 0.000000 
0.000000 0.000000 0.000000 
0.000000 0.000000 0.000000 

-0.000000 -0.000000 0.000000 
0.000000 -0.000000 0.000000 
0.000000 0.000000 0.000000 

-0.000000 0.000000 0.000000 
0.000000 0.000000 0.000000 
0.000000 0.000000 0.000000 

0.000000 -0.000000 0.000000 
0.000000 0.000000 0.000000 
0.000000 0.000000 0.000000 

0.000000 -0.000000 0.000000 
0.000000 0.000000 0.000000 
0.000000 0.000000 0.000000 

