# vtk DataFile Version 3.0 
vtk output 
ASCII 
DATASET UNSTRUCTURED_GRID 
POINTS 175 float 
-0.026061 -0.132856 0.000000 
-0.106992 -0.064800 0.000000 
-0.054870 -0.073033 0.000000 
-0.028809 -0.027149 0.000000 
-0.186430 -0.000725 0.000000 
-0.137056 -0.003251 0.000000 
-0.114311 0.050396 0.000000 
-0.058186 0.034731 0.000000 
-0.029377 0.074908 0.000000 
-0.265318 0.062431 0.000000 
-0.217198 0.061631 0.000000 
-0.196633 0.118928 0.000000 
-0.143120 0.110219 0.000000 
-0.116563 0.157488 0.000000 
-0.058945 0.137842 0.000000 
-0.029568 0.175962 0.000000 
-0.344206 0.125587 0.000000 
-0.296791 0.125594 0.000000 
-0.278030 0.185537 0.000000 
-0.225992 0.179670 0.000000 
-0.201664 0.231788 0.000000 
-0.145749 0.218314 0.000000 
-0.117890 0.262656 0.000000 
-0.059328 0.239950 0.000000 
-0.029759 0.277016 0.000000 
-0.058559 -0.173606 0.000000 
-0.162226 -0.194449 0.000000 
-0.123292 -0.158831 0.000000 
-0.142917 -0.109848 0.000000 
-0.261851 -0.216605 0.000000 
-0.229092 -0.179578 0.000000 
-0.256854 -0.128347 0.000000 
-0.209613 -0.094234 0.000000 
-0.223062 -0.046660 0.000000 
-0.360414 -0.238906 0.000000 
-0.329787 -0.201783 0.000000 
-0.361761 -0.149981 0.000000 
-0.321587 -0.113572 0.000000 
-0.341985 -0.063338 0.000000 
-0.290702 -0.030539 0.000000 
-0.302189 0.016196 0.000000 
-0.458977 -0.261206 0.000000 
-0.429420 -0.224131 0.000000 
-0.464588 -0.172089 0.000000 
-0.427556 -0.135062 0.000000 
-0.453135 -0.083547 0.000000 
-0.407738 -0.048232 0.000000 
-0.425037 0.001196 0.000000 
-0.370772 0.032826 0.000000 
-0.381315 0.079053 0.000000 
-0.046960 -0.224422 0.000000 
-0.095301 -0.318468 0.000000 
-0.098873 -0.265820 0.000000 
-0.149405 -0.250623 0.000000 
-0.140093 -0.410172 0.000000 
-0.148617 -0.361473 0.000000 
-0.205981 -0.351236 0.000000 
-0.203197 -0.293033 0.000000 
-0.248777 -0.273886 0.000000 
-0.184111 -0.501135 0.000000 
-0.194039 -0.454044 0.000000 
-0.254475 -0.446745 0.000000 
-0.257893 -0.392635 0.000000 
-0.309886 -0.377262 0.000000 
-0.303554 -0.316717 0.000000 
-0.347255 -0.296559 0.000000 
-0.228129 -0.592099 0.000000 
-0.238687 -0.545874 0.000000 
-0.301302 -0.540922 0.000000 
-0.307162 -0.488884 0.000000 
-0.363386 -0.476763 0.000000 
-0.362692 -0.419251 0.000000 
-0.412122 -0.401958 0.000000 
-0.403017 -0.339811 0.000000 
-0.445733 -0.319232 0.000000 
-0.000000 -0.247037 0.000000 
0.043388 -0.343467 0.000000 
-0.000000 -0.313435 0.000000 
-0.043388 -0.343467 0.000000 
0.087158 -0.435664 0.000000 
0.043769 -0.411965 0.000000 
-0.000000 -0.450431 0.000000 
-0.043769 -0.411965 0.000000 
-0.087158 -0.435664 0.000000 
0.130831 -0.526794 0.000000 
0.087824 -0.505195 0.000000 
0.044436 -0.547894 0.000000 
-0.000000 -0.516829 0.000000 
-0.044436 -0.547894 0.000000 
-0.087824 -0.505195 0.000000 
-0.130831 -0.526794 0.000000 
0.174505 -0.617923 0.000000 
0.131782 -0.597357 0.000000 
0.088871 -0.643224 0.000000 
0.044532 -0.615360 0.000000 
-0.000000 -0.651760 0.000000 
-0.044532 -0.615360 0.000000 
-0.088871 -0.643224 0.000000 
-0.131782 -0.597357 0.000000 
-0.174505 -0.617923 0.000000 
0.046960 -0.224422 0.000000 
0.149405 -0.250623 0.000000 
0.098873 -0.265820 0.000000 
0.095301 -0.318468 0.000000 
0.248777 -0.273886 0.000000 
0.203197 -0.293033 0.000000 
0.205981 -0.351236 0.000000 
0.148617 -0.361473 0.000000 
0.140093 -0.410172 0.000000 
0.347255 -0.296559 0.000000 
0.303554 -0.316717 0.000000 
0.309886 -0.377262 0.000000 
0.257893 -0.392635 0.000000 
0.254475 -0.446745 0.000000 
0.194039 -0.454044 0.000000 
0.184111 -0.501135 0.000000 
0.445733 -0.319232 0.000000 
0.403017 -0.339811 0.000000 
0.412122 -0.401958 0.000000 
0.362692 -0.419251 0.000000 
0.363386 -0.476763 0.000000 
0.307162 -0.488884 0.000000 
0.301302 -0.540922 0.000000 
0.238687 -0.545874 0.000000 
0.228129 -0.592099 0.000000 
0.058559 -0.173606 0.000000 
0.142917 -0.109848 0.000000 
0.123292 -0.158831 0.000000 
0.162226 -0.194449 0.000000 
0.223062 -0.046660 0.000000 
0.209613 -0.094234 0.000000 
0.256854 -0.128347 0.000000 
0.229092 -0.179578 0.000000 
0.261851 -0.216605 0.000000 
0.302189 0.016196 0.000000 
0.290702 -0.030539 0.000000 
0.341985 -0.063338 0.000000 
0.321587 -0.113572 0.000000 
0.361761 -0.149981 0.000000 
0.329787 -0.201783 0.000000 
0.360414 -0.238906 0.000000 
0.381315 0.079053 0.000000 
0.370772 0.032826 0.000000 
0.425037 0.001196 0.000000 
0.407738 -0.048232 0.000000 
0.453135 -0.083547 0.000000 
0.427556 -0.135062 0.000000 
0.464588 -0.172089 0.000000 
0.429420 -0.224131 0.000000 
0.458977 -0.261206 0.000000 
0.026061 -0.132856 0.000000 
0.028809 -0.027149 0.000000 
0.054870 -0.073033 0.000000 
0.106992 -0.064800 0.000000 
0.029377 0.074908 0.000000 
0.058186 0.034731 0.000000 
0.114311 0.050396 0.000000 
0.137056 -0.003251 0.000000 
0.186430 -0.000725 0.000000 
0.029568 0.175962 0.000000 
0.058945 0.137842 0.000000 
0.116563 0.157488 0.000000 
0.143120 0.110219 0.000000 
0.196633 0.118928 0.000000 
0.217198 0.061631 0.000000 
0.265318 0.062431 0.000000 
0.029759 0.277016 0.000000 
0.059328 0.239950 0.000000 
0.117890 0.262656 0.000000 
0.145749 0.218314 0.000000 
0.201664 0.231788 0.000000 
0.225992 0.179670 0.000000 
0.278030 0.185537 0.000000 
0.296791 0.125594 0.000000 
0.344206 0.125587 0.000000 
CELLS 175 350 
1 0 
1 1 
1 2 
1 3 
1 4 
1 5 
1 6 
1 7 
1 8 
1 9 
1 10 
1 11 
1 12 
1 13 
1 14 
1 15 
1 16 
1 17 
1 18 
1 19 
1 20 
1 21 
1 22 
1 23 
1 24 
1 25 
1 26 
1 27 
1 28 
1 29 
1 30 
1 31 
1 32 
1 33 
1 34 
1 35 
1 36 
1 37 
1 38 
1 39 
1 40 
1 41 
1 42 
1 43 
1 44 
1 45 
1 46 
1 47 
1 48 
1 49 
1 50 
1 51 
1 52 
1 53 
1 54 
1 55 
1 56 
1 57 
1 58 
1 59 
1 60 
1 61 
1 62 
1 63 
1 64 
1 65 
1 66 
1 67 
1 68 
1 69 
1 70 
1 71 
1 72 
1 73 
1 74 
1 75 
1 76 
1 77 
1 78 
1 79 
1 80 
1 81 
1 82 
1 83 
1 84 
1 85 
1 86 
1 87 
1 88 
1 89 
1 90 
1 91 
1 92 
1 93 
1 94 
1 95 
1 96 
1 97 
1 98 
1 99 
1 100 
1 101 
1 102 
1 103 
1 104 
1 105 
1 106 
1 107 
1 108 
1 109 
1 110 
1 111 
1 112 
1 113 
1 114 
1 115 
1 116 
1 117 
1 118 
1 119 
1 120 
1 121 
1 122 
1 123 
1 124 
1 125 
1 126 
1 127 
1 128 
1 129 
1 130 
1 131 
1 132 
1 133 
1 134 
1 135 
1 136 
1 137 
1 138 
1 139 
1 140 
1 141 
1 142 
1 143 
1 144 
1 145 
1 146 
1 147 
1 148 
1 149 
1 150 
1 151 
1 152 
1 153 
1 154 
1 155 
1 156 
1 157 
1 158 
1 159 
1 160 
1 161 
1 162 
1 163 
1 164 
1 165 
1 166 
1 167 
1 168 
1 169 
1 170 
1 171 
1 172 
1 173 
1 174 
CELL_TYPES 175 
1 
1 
1 
1 
1 
1 
1 
1 
1 
1 
1 
1 
1 
1 
1 
1 
1 
1 
1 
1 
1 
1 
1 
1 
1 
1 
1 
1 
1 
1 
1 
1 
1 
1 
1 
1 
1 
1 
1 
1 
1 
1 
1 
1 
1 
1 
1 
1 
1 
1 
1 
1 
1 
1 
1 
1 
1 
1 
1 
1 
1 
1 
1 
1 
1 
1 
1 
1 
1 
1 
1 
1 
1 
1 
1 
1 
1 
1 
1 
1 
1 
1 
1 
1 
1 
1 
1 
1 
1 
1 
1 
1 
1 
1 
1 
1 
1 
1 
1 
1 
1 
1 
1 
1 
1 
1 
1 
1 
1 
1 
1 
1 
1 
1 
1 
1 
1 
1 
1 
1 
1 
1 
1 
1 
1 
1 
1 
1 
1 
1 
1 
1 
1 
1 
1 
1 
1 
1 
1 
1 
1 
1 
1 
1 
1 
1 
1 
1 
1 
1 
1 
1 
1 
1 
1 
1 
1 
1 
1 
1 
1 
1 
1 
1 
1 
1 
1 
1 
1 
1 
1 
1 
1 
1 
1 
POINT_DATA 175 
VECTORS X_GC float 
-0.026061 -0.132856 0.000000 
-0.106992 -0.064800 0.000000 
-0.054870 -0.073033 0.000000 
-0.028809 -0.027149 0.000000 
-0.186430 -0.000725 0.000000 
-0.137056 -0.003251 0.000000 
-0.114311 0.050396 0.000000 
-0.058186 0.034731 0.000000 
-0.029377 0.074908 0.000000 
-0.265318 0.062431 0.000000 
-0.217198 0.061631 0.000000 
-0.196633 0.118928 0.000000 
-0.143120 0.110219 0.000000 
-0.116563 0.157488 0.000000 
-0.058945 0.137842 0.000000 
-0.029568 0.175962 0.000000 
-0.344206 0.125587 0.000000 
-0.296791 0.125594 0.000000 
-0.278030 0.185537 0.000000 
-0.225992 0.179670 0.000000 
-0.201664 0.231788 0.000000 
-0.145749 0.218314 0.000000 
-0.117890 0.262656 0.000000 
-0.059328 0.239950 0.000000 
-0.029759 0.277016 0.000000 
-0.058559 -0.173606 0.000000 
-0.162226 -0.194449 0.000000 
-0.123292 -0.158831 0.000000 
-0.142917 -0.109848 0.000000 
-0.261851 -0.216605 0.000000 
-0.229092 -0.179578 0.000000 
-0.256854 -0.128347 0.000000 
-0.209613 -0.094234 0.000000 
-0.223062 -0.046660 0.000000 
-0.360414 -0.238906 0.000000 
-0.329787 -0.201783 0.000000 
-0.361761 -0.149981 0.000000 
-0.321587 -0.113572 0.000000 
-0.341985 -0.063338 0.000000 
-0.290702 -0.030539 0.000000 
-0.302189 0.016196 0.000000 
-0.458977 -0.261206 0.000000 
-0.429420 -0.224131 0.000000 
-0.464588 -0.172089 0.000000 
-0.427556 -0.135062 0.000000 
-0.453135 -0.083547 0.000000 
-0.407738 -0.048232 0.000000 
-0.425037 0.001196 0.000000 
-0.370772 0.032826 0.000000 
-0.381315 0.079053 0.000000 
-0.046960 -0.224422 0.000000 
-0.095301 -0.318468 0.000000 
-0.098873 -0.265820 0.000000 
-0.149405 -0.250623 0.000000 
-0.140093 -0.410172 0.000000 
-0.148617 -0.361473 0.000000 
-0.205981 -0.351236 0.000000 
-0.203197 -0.293033 0.000000 
-0.248777 -0.273886 0.000000 
-0.184111 -0.501135 0.000000 
-0.194039 -0.454044 0.000000 
-0.254475 -0.446745 0.000000 
-0.257893 -0.392635 0.000000 
-0.309886 -0.377262 0.000000 
-0.303554 -0.316717 0.000000 
-0.347255 -0.296559 0.000000 
-0.228129 -0.592099 0.000000 
-0.238687 -0.545874 0.000000 
-0.301302 -0.540922 0.000000 
-0.307162 -0.488884 0.000000 
-0.363386 -0.476763 0.000000 
-0.362692 -0.419251 0.000000 
-0.412122 -0.401958 0.000000 
-0.403017 -0.339811 0.000000 
-0.445733 -0.319232 0.000000 
-0.000000 -0.247037 0.000000 
0.043388 -0.343467 0.000000 
-0.000000 -0.313435 0.000000 
-0.043388 -0.343467 0.000000 
0.087158 -0.435664 0.000000 
0.043769 -0.411965 0.000000 
-0.000000 -0.450431 0.000000 
-0.043769 -0.411965 0.000000 
-0.087158 -0.435664 0.000000 
0.130831 -0.526794 0.000000 
0.087824 -0.505195 0.000000 
0.044436 -0.547894 0.000000 
-0.000000 -0.516829 0.000000 
-0.044436 -0.547894 0.000000 
-0.087824 -0.505195 0.000000 
-0.130831 -0.526794 0.000000 
0.174505 -0.617923 0.000000 
0.131782 -0.597357 0.000000 
0.088871 -0.643224 0.000000 
0.044532 -0.615360 0.000000 
-0.000000 -0.651760 0.000000 
-0.044532 -0.615360 0.000000 
-0.088871 -0.643224 0.000000 
-0.131782 -0.597357 0.000000 
-0.174505 -0.617923 0.000000 
0.046960 -0.224422 0.000000 
0.149405 -0.250623 0.000000 
0.098873 -0.265820 0.000000 
0.095301 -0.318468 0.000000 
0.248777 -0.273886 0.000000 
0.203197 -0.293033 0.000000 
0.205981 -0.351236 0.000000 
0.148617 -0.361473 0.000000 
0.140093 -0.410172 0.000000 
0.347255 -0.296559 0.000000 
0.303554 -0.316717 0.000000 
0.309886 -0.377262 0.000000 
0.257893 -0.392635 0.000000 
0.254475 -0.446745 0.000000 
0.194039 -0.454044 0.000000 
0.184111 -0.501135 0.000000 
0.445733 -0.319232 0.000000 
0.403017 -0.339811 0.000000 
0.412122 -0.401958 0.000000 
0.362692 -0.419251 0.000000 
0.363386 -0.476763 0.000000 
0.307162 -0.488884 0.000000 
0.301302 -0.540922 0.000000 
0.238687 -0.545874 0.000000 
0.228129 -0.592099 0.000000 
0.058559 -0.173606 0.000000 
0.142917 -0.109848 0.000000 
0.123292 -0.158831 0.000000 
0.162226 -0.194449 0.000000 
0.223062 -0.046660 0.000000 
0.209613 -0.094234 0.000000 
0.256854 -0.128347 0.000000 
0.229092 -0.179578 0.000000 
0.261851 -0.216605 0.000000 
0.302189 0.016196 0.000000 
0.290702 -0.030539 0.000000 
0.341985 -0.063338 0.000000 
0.321587 -0.113572 0.000000 
0.361761 -0.149981 0.000000 
0.329787 -0.201783 0.000000 
0.360414 -0.238906 0.000000 
0.381315 0.079053 0.000000 
0.370772 0.032826 0.000000 
0.425037 0.001196 0.000000 
0.407738 -0.048232 0.000000 
0.453135 -0.083547 0.000000 
0.427556 -0.135062 0.000000 
0.464588 -0.172089 0.000000 
0.429420 -0.224131 0.000000 
0.458977 -0.261206 0.000000 
0.026061 -0.132856 0.000000 
0.028809 -0.027149 0.000000 
0.054870 -0.073033 0.000000 
0.106992 -0.064800 0.000000 
0.029377 0.074908 0.000000 
0.058186 0.034731 0.000000 
0.114311 0.050396 0.000000 
0.137056 -0.003251 0.000000 
0.186430 -0.000725 0.000000 
0.029568 0.175962 0.000000 
0.058945 0.137842 0.000000 
0.116563 0.157488 0.000000 
0.143120 0.110219 0.000000 
0.196633 0.118928 0.000000 
0.217198 0.061631 0.000000 
0.265318 0.062431 0.000000 
0.029759 0.277016 0.000000 
0.059328 0.239950 0.000000 
0.117890 0.262656 0.000000 
0.145749 0.218314 0.000000 
0.201664 0.231788 0.000000 
0.225992 0.179670 0.000000 
0.278030 0.185537 0.000000 
0.296791 0.125594 0.000000 
0.344206 0.125587 0.000000 
VECTORS X_EC float 
0.338794 0.293552 0.000000 
-0.609100 -0.625197 0.000000 
0.713312 -0.514056 0.000000 
0.374519 0.866514 0.000000 
0.423588 0.509784 0.000000 
-0.218274 0.543888 0.000000 
-0.513962 -0.180351 0.000000 
0.756418 0.031135 0.000000 
0.381900 -0.511258 0.000000 
-0.550868 -0.342819 0.000000 
0.823577 -0.332024 0.000000 
0.556234 0.894472 0.000000 
-0.139443 -0.987959 0.000000 
-0.484677 0.373916 0.000000 
0.766286 0.639132 0.000000 
0.384386 0.124511 0.000000 
0.474677 0.804578 0.000000 
-0.141715 0.804481 0.000000 
-0.385608 -0.004747 0.000000 
0.937896 0.074449 0.000000 
0.621631 -0.629131 0.000000 
-0.105264 -0.447232 0.000000 
-0.467428 0.954141 0.000000 
0.771260 -0.739330 0.000000 
0.386873 0.760281 0.000000 
0.761262 0.843686 0.000000 
0.108942 -0.874937 0.000000 
-0.397202 0.644223 0.000000 
-0.142083 -0.017052 0.000000 
-0.595936 -0.575827 0.000000 
0.978194 0.924308 0.000000 
-0.660903 0.232683 0.000000 
0.724964 -0.227838 0.000000 
0.899809 -0.870086 0.000000 
0.685384 -0.274774 0.000000 
0.287229 -0.775933 0.000000 
0.702895 0.524739 0.000000 
0.180633 0.033220 0.000000 
0.445811 -0.644940 0.000000 
-0.220880 0.912274 0.000000 
-0.071546 0.281349 0.000000 
-0.033296 0.026278 0.000000 
-0.417537 -0.474232 0.000000 
0.039645 0.823206 0.000000 
-0.441768 0.323335 0.000000 
-0.109248 -0.372116 0.000000 
-0.699407 -0.848872 0.000000 
-0.474522 0.483849 0.000000 
0.820030 0.056856 0.000000 
0.957100 -0.567216 0.000000 
0.610485 -0.470307 0.000000 
-0.761092 0.799312 0.000000 
-0.714655 0.088574 0.000000 
-0.057734 -0.116593 0.000000 
-0.178789 0.037316 0.000000 
-0.067979 -0.620110 0.000000 
0.677748 -0.758313 0.000000 
0.641556 0.455941 0.000000 
-0.765897 0.197463 0.000000 
0.393446 -0.734675 0.000000 
0.522510 0.629595 0.000000 
-0.691820 0.531051 0.000000 
-0.647393 -0.199432 0.000000 
0.028512 -0.406958 0.000000 
-0.053800 0.775681 0.000000 
0.514316 0.503550 0.000000 
0.965681 0.493334 0.000000 
-0.897068 -0.130695 0.000000 
-0.083078 -0.197548 0.000000 
-0.006893 -0.900072 0.000000 
0.724017 0.936295 0.000000 
0.714996 0.159891 0.000000 
-0.642413 -0.073566 0.000000 
-0.760780 -0.912546 0.000000 
-0.205471 0.809638 0.000000 
0.000000 -0.165006 0.000000 
-0.564049 -0.863193 0.000000 
0.000000 0.731371 0.000000 
0.564049 -0.863193 0.000000 
0.866949 0.381462 0.000000 
-0.569003 0.061531 0.000000 
0.000000 0.580819 0.000000 
0.569003 0.061531 0.000000 
-0.866949 0.381462 0.000000 
0.299194 -0.388288 0.000000 
0.858290 -0.679871 0.000000 
-0.577662 -0.103426 0.000000 
0.000000 -0.522804 0.000000 
0.577662 -0.103426 0.000000 
-0.858290 -0.679871 0.000000 
-0.299194 -0.388288 0.000000 
-0.268560 0.841962 0.000000 
0.286830 0.564321 0.000000 
0.844677 -0.816481 0.000000 
-0.578910 0.807356 0.000000 
0.000000 -0.701240 0.000000 
0.578910 0.807356 0.000000 
-0.844677 -0.816481 0.000000 
-0.286830 0.564321 0.000000 
0.268560 0.841962 0.000000 
-0.610485 -0.470307 0.000000 
0.057734 -0.116593 0.000000 
0.714655 0.088574 0.000000 
0.761092 0.799312 0.000000 
0.765897 0.197463 0.000000 
-0.641556 0.455941 0.000000 
-0.677748 -0.758313 0.000000 
0.067979 -0.620110 0.000000 
0.178789 0.037316 0.000000 
-0.514316 0.503550 0.000000 
0.053800 0.775681 0.000000 
-0.028512 -0.406958 0.000000 
0.647393 -0.199432 0.000000 
0.691820 0.531051 0.000000 
-0.522510 0.629595 0.000000 
-0.393446 -0.734675 0.000000 
0.205471 0.809638 0.000000 
0.760780 -0.912546 0.000000 
0.642413 -0.073566 0.000000 
-0.714996 0.159891 0.000000 
-0.724017 0.936295 0.000000 
0.006894 -0.900072 0.000000 
0.083078 -0.197548 0.000000 
0.897068 -0.130695 0.000000 
-0.965681 0.493334 0.000000 
-0.761262 0.843686 0.000000 
0.142083 -0.017052 0.000000 
0.397202 0.644223 0.000000 
-0.108942 -0.874937 0.000000 
-0.899809 -0.870086 0.000000 
-0.724964 -0.227838 0.000000 
0.660903 0.232683 0.000000 
-0.978194 0.924308 0.000000 
0.595936 -0.575827 0.000000 
0.071546 0.281349 0.000000 
0.220880 0.912274 0.000000 
-0.445811 -0.644940 0.000000 
-0.180633 0.033220 0.000000 
-0.702895 0.524739 0.000000 
-0.287229 -0.775933 0.000000 
-0.685384 -0.274774 0.000000 
-0.957100 -0.567216 0.000000 
-0.820030 0.056856 0.000000 
0.474522 0.483849 0.000000 
0.699407 -0.848872 0.000000 
0.109248 -0.372116 0.000000 
0.441768 0.323335 0.000000 
-0.039645 0.823206 0.000000 
0.417537 -0.474232 0.000000 
0.033296 0.026278 0.000000 
-0.338794 0.293552 0.000000 
-0.374519 0.866514 0.000000 
-0.713312 -0.514056 0.000000 
0.609100 -0.625197 0.000000 
-0.381900 -0.511258 0.000000 
-0.756418 0.031135 0.000000 
0.513962 -0.180351 0.000000 
0.218274 0.543888 0.000000 
-0.423588 0.509784 0.000000 
-0.384386 0.124511 0.000000 
-0.766286 0.639132 0.000000 
0.484677 0.373916 0.000000 
0.139443 -0.987959 0.000000 
-0.556234 0.894472 0.000000 
-0.823577 -0.332024 0.000000 
0.550868 -0.342819 0.000000 
-0.386873 0.760281 0.000000 
-0.771260 -0.739330 0.000000 
0.467428 0.954141 0.000000 
0.105264 -0.447232 0.000000 
-0.621631 -0.629131 0.000000 
-0.937896 0.074449 0.000000 
0.385608 -0.004747 0.000000 
0.141715 0.804481 0.000000 
-0.474677 0.804578 0.000000 
CELL_DATA 175 
SCALARS MASS float 
LOOKUP_TABLE default 
0.078183 
0.086427 
0.094672 
0.086427 
0.088131 
0.092111 
0.085854 
0.092111 
0.088131 
0.088705 
0.091000 
0.086983 
0.091556 
0.086983 
0.091000 
0.088705 
0.089278 
0.091574 
0.089278 
0.092722 
0.089278 
0.092722 
0.089278 
0.091574 
0.089278 
0.078183 
0.086427 
0.094672 
0.086427 
0.088131 
0.092111 
0.085854 
0.092111 
0.088131 
0.088705 
0.091000 
0.086983 
0.091556 
0.086983 
0.091000 
0.088705 
0.089278 
0.091574 
0.089278 
0.092722 
0.089278 
0.092722 
0.089278 
0.091574 
0.089278 
0.078183 
0.086427 
0.094672 
0.086427 
0.088131 
0.092111 
0.085854 
0.092111 
0.088131 
0.088705 
0.091000 
0.086983 
0.091556 
0.086983 
0.091000 
0.088705 
0.089278 
0.091574 
0.089278 
0.092722 
0.089278 
0.092722 
0.089278 
0.091574 
0.089278 
0.078183 
0.086427 
0.094672 
0.086427 
0.088131 
0.092111 
0.085854 
0.092111 
0.088131 
0.088705 
0.091000 
0.086983 
0.091556 
0.086983 
0.091000 
0.088705 
0.089278 
0.091574 
0.089278 
0.092722 
0.089278 
0.092722 
0.089278 
0.091574 
0.089278 
0.078183 
0.086427 
0.094672 
0.086427 
0.088131 
0.092111 
0.085854 
0.092111 
0.088131 
0.088705 
0.091000 
0.086983 
0.091556 
0.086983 
0.091000 
0.088705 
0.089278 
0.091574 
0.089278 
0.092722 
0.089278 
0.092722 
0.089278 
0.091574 
0.089278 
0.078183 
0.086427 
0.094672 
0.086427 
0.088131 
0.092111 
0.085854 
0.092111 
0.088131 
0.088705 
0.091000 
0.086983 
0.091556 
0.086983 
0.091000 
0.088705 
0.089278 
0.091574 
0.089278 
0.092722 
0.089278 
0.092722 
0.089278 
0.091574 
0.089278 
0.078183 
0.086427 
0.094672 
0.086427 
0.088131 
0.092111 
0.085854 
0.092111 
0.088131 
0.088705 
0.091000 
0.086983 
0.091556 
0.086983 
0.091000 
0.088705 
0.089278 
0.091574 
0.089278 
0.092722 
0.089278 
0.092722 
0.089278 
0.091574 
0.089278 
SCALARS MASS float 
LOOKUP_TABLE default 
0.078183 
0.086427 
0.094672 
0.086427 
0.088131 
0.092111 
0.085854 
0.092111 
0.088131 
0.088705 
0.091000 
0.086983 
0.091556 
0.086983 
0.091000 
0.088705 
0.089278 
0.091574 
0.089278 
0.092722 
0.089278 
0.092722 
0.089278 
0.091574 
0.089278 
0.078183 
0.086427 
0.094672 
0.086427 
0.088131 
0.092111 
0.085854 
0.092111 
0.088131 
0.088705 
0.091000 
0.086983 
0.091556 
0.086983 
0.091000 
0.088705 
0.089278 
0.091574 
0.089278 
0.092722 
0.089278 
0.092722 
0.089278 
0.091574 
0.089278 
0.078183 
0.086427 
0.094672 
0.086427 
0.088131 
0.092111 
0.085854 
0.092111 
0.088131 
0.088705 
0.091000 
0.086983 
0.091556 
0.086983 
0.091000 
0.088705 
0.089278 
0.091574 
0.089278 
0.092722 
0.089278 
0.092722 
0.089278 
0.091574 
0.089278 
0.078183 
0.086427 
0.094672 
0.086427 
0.088131 
0.092111 
0.085854 
0.092111 
0.088131 
0.088705 
0.091000 
0.086983 
0.091556 
0.086983 
0.091000 
0.088705 
0.089278 
0.091574 
0.089278 
0.092722 
0.089278 
0.092722 
0.089278 
0.091574 
0.089278 
0.078183 
0.086427 
0.094672 
0.086427 
0.088131 
0.092111 
0.085854 
0.092111 
0.088131 
0.088705 
0.091000 
0.086983 
0.091556 
0.086983 
0.091000 
0.088705 
0.089278 
0.091574 
0.089278 
0.092722 
0.089278 
0.092722 
0.089278 
0.091574 
0.089278 
0.078183 
0.086427 
0.094672 
0.086427 
0.088131 
0.092111 
0.085854 
0.092111 
0.088131 
0.088705 
0.091000 
0.086983 
0.091556 
0.086983 
0.091000 
0.088705 
0.089278 
0.091574 
0.089278 
0.092722 
0.089278 
0.092722 
0.089278 
0.091574 
0.089278 
0.078183 
0.086427 
0.094672 
0.086427 
0.088131 
0.092111 
0.085854 
0.092111 
0.088131 
0.088705 
0.091000 
0.086983 
0.091556 
0.086983 
0.091000 
0.088705 
0.089278 
0.091574 
0.089278 
0.092722 
0.089278 
0.092722 
0.089278 
0.091574 
0.089278 
SCALARS DENSITY float 
LOOKUP_TABLE default 
20.000000 
20.000000 
20.000000 
20.000000 
20.000000 
20.000000 
20.000000 
20.000000 
20.000000 
20.000000 
20.000000 
20.000000 
20.000000 
20.000000 
20.000000 
20.000000 
20.000000 
20.000000 
20.000000 
20.000000 
20.000000 
20.000000 
20.000000 
20.000000 
20.000000 
20.000000 
20.000000 
20.000000 
20.000000 
20.000000 
20.000000 
20.000000 
20.000000 
20.000000 
20.000000 
20.000000 
20.000000 
20.000000 
20.000000 
20.000000 
20.000000 
20.000000 
20.000000 
20.000000 
20.000000 
20.000000 
20.000000 
20.000000 
20.000000 
20.000000 
20.000000 
20.000000 
20.000000 
20.000000 
20.000000 
20.000000 
20.000000 
20.000000 
20.000000 
20.000000 
20.000000 
20.000000 
20.000000 
20.000000 
20.000000 
20.000000 
20.000000 
20.000000 
20.000000 
20.000000 
20.000000 
20.000000 
20.000000 
20.000000 
20.000000 
20.000000 
20.000000 
20.000000 
20.000000 
20.000000 
20.000000 
20.000000 
20.000000 
20.000000 
20.000000 
20.000000 
20.000000 
20.000000 
20.000000 
20.000000 
20.000000 
20.000000 
20.000000 
20.000000 
20.000000 
20.000000 
20.000000 
20.000000 
20.000000 
20.000000 
20.000000 
20.000000 
20.000000 
20.000000 
20.000000 
20.000000 
20.000000 
20.000000 
20.000000 
20.000000 
20.000000 
20.000000 
20.000000 
20.000000 
20.000000 
20.000000 
20.000000 
20.000000 
20.000000 
20.000000 
20.000000 
20.000000 
20.000000 
20.000000 
20.000000 
20.000000 
20.000000 
20.000000 
20.000000 
20.000000 
20.000000 
20.000000 
20.000000 
20.000000 
20.000000 
20.000000 
20.000000 
20.000000 
20.000000 
20.000000 
20.000000 
20.000000 
20.000000 
20.000000 
20.000000 
20.000000 
20.000000 
20.000000 
20.000000 
20.000000 
20.000000 
20.000000 
20.000000 
20.000000 
20.000000 
20.000000 
20.000000 
20.000000 
20.000000 
20.000000 
20.000000 
20.000000 
20.000000 
20.000000 
20.000000 
20.000000 
20.000000 
20.000000 
20.000000 
20.000000 
20.000000 
20.000000 
20.000000 
20.000000 
20.000000 
SCALARS ELEM_i float 
LOOKUP_TABLE default 
181 
208 
181 
182 
209 
209 
209 
182 
182 
236 
209 
210 
209 
210 
183 
183 
237 
237 
237 
210 
210 
210 
211 
183 
184 
181 
207 
208 
208 
234 
208 
235 
208 
208 
234 
234 
235 
235 
235 
236 
236 
261 
261 
262 
262 
262 
262 
263 
236 
236 
180 
207 
207 
207 
206 
206 
206 
207 
234 
205 
206 
233 
233 
233 
234 
234 
205 
232 
232 
232 
233 
233 
260 
260 
261 
180 
179 
180 
179 
152 
179 
179 
179 
206 
151 
151 
178 
178 
178 
205 
205 
151 
151 
150 
178 
177 
178 
204 
205 
205 
180 
153 
153 
153 
126 
153 
152 
152 
152 
126 
126 
125 
125 
125 
152 
151 
99 
98 
98 
125 
125 
124 
124 
124 
151 
181 
154 
154 
153 
154 
154 
127 
154 
126 
128 
128 
127 
127 
127 
126 
126 
128 
128 
101 
100 
100 
100 
100 
99 
99 
181 
182 
181 
154 
182 
182 
155 
155 
155 
183 
183 
156 
155 
156 
155 
128 
184 
183 
157 
156 
156 
156 
129 
129 
129 
VECTORS VELOCITY float 
0.000000 -1.914912 0.000000 
-0.000000 -1.914912 0.000000 
-0.000000 -1.914912 0.000000 
-0.000000 -1.914912 0.000000 
-0.000000 -1.914912 0.000000 
-0.000000 -1.914912 0.000000 
-0.000000 -1.914912 0.000000 
-0.000000 -1.914912 0.000000 
-0.000000 -1.914912 0.000000 
-0.000000 -1.914912 0.000000 
-0.000000 -1.914912 0.000000 
-0.000000 -1.914912 0.000000 
-0.000000 -1.914912 0.000000 
-0.000000 -1.914912 0.000000 
-0.000000 -1.914912 0.000000 
-0.000000 -1.914912 0.000000 
0.000000 -1.914912 0.000000 
0.000000 -1.914912 0.000000 
0.000000 -1.914912 0.000000 
-0.000000 -1.914912 0.000000 
0.000000 -1.914912 0.000000 
-0.000000 -1.914912 0.000000 
0.000000 -1.914912 0.000000 
0.000000 -1.914912 0.000000 
-0.000000 -1.914912 0.000000 
0.000000 -1.914912 0.000000 
-0.000000 -1.914912 0.000000 
-0.000000 -1.914912 0.000000 
-0.000000 -1.914912 0.000000 
-0.000000 -1.914912 0.000000 
-0.000000 -1.914912 0.000000 
-0.000000 -1.914912 0.000000 
-0.000000 -1.914912 0.000000 
-0.000000 -1.914912 0.000000 
0.000000 -1.914912 0.000000 
0.000000 -1.914912 0.000000 
0.000000 -1.914912 0.000000 
0.000000 -1.914912 0.000000 
-0.000000 -1.914912 0.000000 
-0.000000 -1.914912 0.000000 
-0.000000 -1.914912 0.000000 
0.000000 -1.914912 0.000000 
0.000000 -1.914912 0.000000 
0.000000 -1.914912 0.000000 
0.000000 -1.914912 0.000000 
-0.000000 -1.914912 0.000000 
-0.000000 -1.914912 0.000000 
0.000000 -1.914912 0.000000 
0.000000 -1.914912 0.000000 
0.000000 -1.914912 0.000000 
0.000000 -1.914912 0.000000 
0.000000 -1.914912 0.000000 
0.000000 -1.914912 0.000000 
-0.000000 -1.914912 0.000000 
-0.000000 -1.914912 0.000000 
-0.000000 -1.914912 0.000000 
-0.000000 -1.914912 0.000000 
-0.000000 -1.914912 0.000000 
-0.000000 -1.914912 0.000000 
0.000000 -1.914912 0.000000 
0.000000 -1.914912 0.000000 
0.000000 -1.914912 0.000000 
-0.000000 -1.914912 0.000000 
-0.000000 -1.914912 0.000000 
-0.000000 -1.914912 0.000000 
-0.000000 -1.914912 0.000000 
-0.000000 -1.914912 0.000000 
0.000000 -1.914912 0.000000 
0.000000 -1.914912 0.000000 
0.000000 -1.914912 0.000000 
0.000000 -1.914912 0.000000 
-0.000000 -1.914912 0.000000 
0.000000 -1.914912 0.000000 
-0.000000 -1.914912 0.000000 
-0.000000 -1.914912 0.000000 
0.000000 -1.914912 0.000000 
-0.000000 -1.914912 0.000000 
0.000000 -1.914912 0.000000 
0.000000 -1.914912 0.000000 
-0.000000 -1.914912 0.000000 
-0.000000 -1.914912 0.000000 
-0.000000 -1.914912 0.000000 
-0.000000 -1.914912 0.000000 
-0.000000 -1.914912 0.000000 
0.000000 -1.914912 0.000000 
-0.000000 -1.914912 0.000000 
0.000000 -1.914912 0.000000 
-0.000000 -1.914912 0.000000 
-0.000000 -1.914912 0.000000 
-0.000000 -1.914912 0.000000 
-0.000000 -1.914912 0.000000 
0.000000 -1.914912 0.000000 
0.000000 -1.914912 0.000000 
0.000000 -1.914912 0.000000 
0.000000 -1.914912 0.000000 
0.000000 -1.914912 0.000000 
-0.000000 -1.914912 0.000000 
-0.000000 -1.914912 0.000000 
-0.000000 -1.914912 0.000000 
-0.000000 -1.914912 0.000000 
0.000000 -1.914912 0.000000 
0.000000 -1.914912 0.000000 
0.000000 -1.914912 0.000000 
-0.000000 -1.914912 0.000000 
0.000000 -1.914912 0.000000 
0.000000 -1.914912 0.000000 
0.000000 -1.914912 0.000000 
0.000000 -1.914912 0.000000 
0.000000 -1.914912 0.000000 
-0.000000 -1.914912 0.000000 
0.000000 -1.914912 0.000000 
0.000000 -1.914912 0.000000 
0.000000 -1.914912 0.000000 
0.000000 -1.914912 0.000000 
0.000000 -1.914912 0.000000 
-0.000000 -1.914912 0.000000 
-0.000000 -1.914912 0.000000 
-0.000000 -1.914912 0.000000 
0.000000 -1.914912 0.000000 
-0.000000 -1.914912 0.000000 
-0.000000 -1.914912 0.000000 
0.000000 -1.914912 0.000000 
-0.000000 -1.914912 0.000000 
0.000000 -1.914912 0.000000 
0.000000 -1.914912 0.000000 
0.000000 -1.914912 0.000000 
0.000000 -1.914912 0.000000 
0.000000 -1.914912 0.000000 
0.000000 -1.914912 0.000000 
0.000000 -1.914912 0.000000 
0.000000 -1.914912 0.000000 
0.000000 -1.914912 0.000000 
0.000000 -1.914912 0.000000 
0.000000 -1.914912 0.000000 
-0.000000 -1.914912 0.000000 
0.000000 -1.914912 0.000000 
-0.000000 -1.914912 0.000000 
0.000000 -1.914912 0.000000 
0.000000 -1.914912 0.000000 
0.000000 -1.914912 0.000000 
0.000000 -1.914912 0.000000 
0.000000 -1.914912 0.000000 
-0.000000 -1.914912 0.000000 
-0.000000 -1.914912 0.000000 
-0.000000 -1.914912 0.000000 
-0.000000 -1.914912 0.000000 
-0.000000 -1.914912 0.000000 
-0.000000 -1.914912 0.000000 
-0.000000 -1.914912 0.000000 
-0.000000 -1.914912 0.000000 
0.000000 -1.914912 0.000000 
-0.000000 -1.914912 0.000000 
-0.000000 -1.914912 0.000000 
-0.000000 -1.914912 0.000000 
-0.000000 -1.914912 0.000000 
-0.000000 -1.914912 0.000000 
-0.000000 -1.914912 0.000000 
-0.000000 -1.914912 0.000000 
-0.000000 -1.914912 0.000000 
-0.000000 -1.914912 0.000000 
-0.000000 -1.914912 0.000000 
0.000000 -1.914912 0.000000 
-0.000000 -1.914912 0.000000 
-0.000000 -1.914912 0.000000 
-0.000000 -1.914912 0.000000 
-0.000000 -1.914912 0.000000 
0.000000 -1.914912 0.000000 
0.000000 -1.914912 0.000000 
0.000000 -1.914912 0.000000 
0.000000 -1.914912 0.000000 
0.000000 -1.914912 0.000000 
0.000000 -1.914912 0.000000 
0.000000 -1.914912 0.000000 
0.000000 -1.914912 0.000000 
0.000000 -1.914912 0.000000 
TENSORS STRESS float 
-0.000000 0.000000 0.000000 
0.000000 0.000000 0.000000 
0.000000 0.000000 0.000000 

-0.000000 -0.000000 0.000000 
0.000000 0.000000 0.000000 
0.000000 0.000000 0.000000 

0.000000 0.000000 0.000000 
0.000000 0.000000 0.000000 
0.000000 0.000000 0.000000 

-0.000000 0.000000 0.000000 
0.000000 0.000000 0.000000 
0.000000 0.000000 0.000000 

-0.000000 -0.000000 0.000000 
0.000000 0.000000 0.000000 
0.000000 0.000000 0.000000 

0.000000 -0.000000 0.000000 
0.000000 0.000000 0.000000 
0.000000 0.000000 0.000000 

-0.000000 0.000000 0.000000 
0.000000 -0.000000 0.000000 
0.000000 0.000000 0.000000 

0.000000 0.000000 0.000000 
0.000000 0.000000 0.000000 
0.000000 0.000000 0.000000 

0.000000 -0.000000 0.000000 
0.000000 -0.000000 0.000000 
0.000000 0.000000 0.000000 

-0.000000 0.000000 0.000000 
0.000000 -0.000000 0.000000 
0.000000 0.000000 0.000000 

-0.000000 0.000000 0.000000 
0.000000 -0.000000 0.000000 
0.000000 0.000000 0.000000 

-0.000000 0.000000 0.000000 
0.000000 -0.000000 0.000000 
0.000000 0.000000 0.000000 

-0.000000 0.000000 0.000000 
0.000000 -0.000000 0.000000 
0.000000 0.000000 0.000000 

-0.000000 0.000000 0.000000 
0.000000 0.000000 0.000000 
0.000000 0.000000 0.000000 

0.000000 -0.000000 0.000000 
0.000000 -0.000000 0.000000 
0.000000 0.000000 0.000000 

0.000000 -0.000000 0.000000 
0.000000 -0.000000 0.000000 
0.000000 0.000000 0.000000 

-0.000000 -0.000000 0.000000 
0.000000 0.000000 0.000000 
0.000000 0.000000 0.000000 

-0.000000 0.000000 0.000000 
0.000000 0.000000 0.000000 
0.000000 0.000000 0.000000 

-0.000000 -0.000000 0.000000 
0.000000 -0.000000 0.000000 
0.000000 0.000000 0.000000 

0.000000 0.000000 0.000000 
0.000000 0.000000 0.000000 
0.000000 0.000000 0.000000 

-0.000000 0.000000 0.000000 
0.000000 -0.000000 0.000000 
0.000000 0.000000 0.000000 

-0.000000 -0.000000 0.000000 
0.000000 -0.000000 0.000000 
0.000000 0.000000 0.000000 

0.000000 0.000000 0.000000 
0.000000 0.000000 0.000000 
0.000000 0.000000 0.000000 

-0.000000 0.000000 0.000000 
0.000000 -0.000000 0.000000 
0.000000 0.000000 0.000000 

0.000000 0.000000 0.000000 
0.000000 -0.000000 0.000000 
0.000000 0.000000 0.000000 

-0.000000 0.000000 0.000000 
0.000000 -0.000000 0.000000 
0.000000 0.000000 0.000000 

0.000000 0.000000 0.000000 
0.000000 0.000000 0.000000 
0.000000 0.000000 0.000000 

0.000000 -0.000000 0.000000 
0.000000 0.000000 0.000000 
0.000000 0.000000 0.000000 

-0.000000 -0.000000 0.000000 
0.000000 -0.000000 0.000000 
0.000000 0.000000 0.000000 

-0.000000 0.000000 0.000000 
0.000000 -0.000000 0.000000 
0.000000 0.000000 0.000000 

0.000000 0.000000 0.000000 
0.000000 0.000000 0.000000 
0.000000 0.000000 0.000000 

-0.000000 0.000000 0.000000 
0.000000 -0.000000 0.000000 
0.000000 0.000000 0.000000 

-0.000000 0.000000 0.000000 
0.000000 -0.000000 0.000000 
0.000000 0.000000 0.000000 

-0.000000 0.000000 0.000000 
0.000000 -0.000000 0.000000 
0.000000 0.000000 0.000000 

-0.000000 0.000000 0.000000 
0.000000 0.000000 0.000000 
0.000000 0.000000 0.000000 

-0.000000 0.000000 0.000000 
0.000000 0.000000 0.000000 
0.000000 0.000000 0.000000 

-0.000000 -0.000000 0.000000 
0.000000 0.000000 0.000000 
0.000000 0.000000 0.000000 

-0.000000 0.000000 0.000000 
0.000000 -0.000000 0.000000 
0.000000 0.000000 0.000000 

-0.000000 0.000000 0.000000 
0.000000 -0.000000 0.000000 
0.000000 0.000000 0.000000 

0.000000 -0.000000 0.000000 
0.000000 -0.000000 0.000000 
0.000000 0.000000 0.000000 

-0.000000 -0.000000 0.000000 
0.000000 -0.000000 0.000000 
0.000000 0.000000 0.000000 

-0.000000 -0.000000 0.000000 
0.000000 -0.000000 0.000000 
0.000000 0.000000 0.000000 

-0.000000 -0.000000 0.000000 
0.000000 0.000000 0.000000 
0.000000 0.000000 0.000000 

-0.000000 0.000000 0.000000 
0.000000 -0.000000 0.000000 
0.000000 0.000000 0.000000 

-0.000000 -0.000000 0.000000 
0.000000 -0.000000 0.000000 
0.000000 0.000000 0.000000 

-0.000000 -0.000000 0.000000 
0.000000 -0.000000 0.000000 
0.000000 0.000000 0.000000 

-0.000000 0.000000 0.000000 
0.000000 -0.000000 0.000000 
0.000000 0.000000 0.000000 

-0.000000 -0.000000 0.000000 
0.000000 0.000000 0.000000 
0.000000 0.000000 0.000000 

-0.000000 0.000000 0.000000 
0.000000 -0.000000 0.000000 
0.000000 0.000000 0.000000 

-0.000000 -0.000000 0.000000 
0.000000 -0.000000 0.000000 
0.000000 0.000000 0.000000 

0.000000 0.000000 0.000000 
0.000000 0.000000 0.000000 
0.000000 0.000000 0.000000 

-0.000000 0.000000 0.000000 
0.000000 0.000000 0.000000 
0.000000 0.000000 0.000000 

0.000000 0.000000 0.000000 
0.000000 0.000000 0.000000 
0.000000 0.000000 0.000000 

0.000000 0.000000 0.000000 
0.000000 0.000000 0.000000 
0.000000 0.000000 0.000000 

-0.000000 0.000000 0.000000 
0.000000 -0.000000 0.000000 
0.000000 0.000000 0.000000 

-0.000000 0.000000 0.000000 
0.000000 -0.000000 0.000000 
0.000000 0.000000 0.000000 

-0.000000 0.000000 0.000000 
0.000000 0.000000 0.000000 
0.000000 0.000000 0.000000 

0.000000 -0.000000 0.000000 
0.000000 0.000000 0.000000 
0.000000 0.000000 0.000000 

0.000000 0.000000 0.000000 
0.000000 0.000000 0.000000 
0.000000 0.000000 0.000000 

0.000000 -0.000000 0.000000 
0.000000 0.000000 0.000000 
0.000000 0.000000 0.000000 

-0.000000 0.000000 0.000000 
0.000000 -0.000000 0.000000 
0.000000 0.000000 0.000000 

0.000000 0.000000 0.000000 
0.000000 0.000000 0.000000 
0.000000 0.000000 0.000000 

0.000000 0.000000 0.000000 
0.000000 -0.000000 0.000000 
0.000000 0.000000 0.000000 

-0.000000 0.000000 0.000000 
0.000000 -0.000000 0.000000 
0.000000 0.000000 0.000000 

0.000000 0.000000 0.000000 
0.000000 0.000000 0.000000 
0.000000 0.000000 0.000000 

0.000000 0.000000 0.000000 
0.000000 0.000000 0.000000 
0.000000 0.000000 0.000000 

0.000000 0.000000 0.000000 
0.000000 0.000000 0.000000 
0.000000 0.000000 0.000000 

-0.000000 0.000000 0.000000 
0.000000 -0.000000 0.000000 
0.000000 0.000000 0.000000 

-0.000000 0.000000 0.000000 
0.000000 0.000000 0.000000 
0.000000 0.000000 0.000000 

0.000000 0.000000 0.000000 
0.000000 0.000000 0.000000 
0.000000 0.000000 0.000000 

0.000000 -0.000000 0.000000 
0.000000 0.000000 0.000000 
0.000000 0.000000 0.000000 

-0.000000 0.000000 0.000000 
0.000000 -0.000000 0.000000 
0.000000 0.000000 0.000000 

0.000000 -0.000000 0.000000 
0.000000 -0.000000 0.000000 
0.000000 0.000000 0.000000 

-0.000000 -0.000000 0.000000 
0.000000 -0.000000 0.000000 
0.000000 0.000000 0.000000 

0.000000 -0.000000 0.000000 
0.000000 0.000000 0.000000 
0.000000 0.000000 0.000000 

0.000000 -0.000000 0.000000 
0.000000 0.000000 0.000000 
0.000000 0.000000 0.000000 

0.000000 -0.000000 0.000000 
0.000000 -0.000000 0.000000 
0.000000 0.000000 0.000000 

0.000000 0.000000 0.000000 
0.000000 0.000000 0.000000 
0.000000 0.000000 0.000000 

0.000000 0.000000 0.000000 
0.000000 0.000000 0.000000 
0.000000 0.000000 0.000000 

-0.000000 -0.000000 0.000000 
0.000000 -0.000000 0.000000 
0.000000 0.000000 0.000000 

0.000000 -0.000000 0.000000 
0.000000 0.000000 0.000000 
0.000000 0.000000 0.000000 

0.000000 -0.000000 0.000000 
0.000000 0.000000 0.000000 
0.000000 0.000000 0.000000 

0.000000 0.000000 0.000000 
0.000000 0.000000 0.000000 
0.000000 0.000000 0.000000 

0.000000 0.000000 0.000000 
0.000000 0.000000 0.000000 
0.000000 0.000000 0.000000 

0.000000 0.000000 0.000000 
0.000000 0.000000 0.000000 
0.000000 0.000000 0.000000 

0.000000 -0.000000 0.000000 
0.000000 0.000000 0.000000 
0.000000 0.000000 0.000000 

0.000000 -0.000000 0.000000 
0.000000 0.000000 0.000000 
0.000000 0.000000 0.000000 

0.000000 -0.000000 0.000000 
0.000000 -0.000000 0.000000 
0.000000 0.000000 0.000000 

0.000000 -0.000000 0.000000 
0.000000 -0.000000 0.000000 
0.000000 0.000000 0.000000 

0.000000 0.000000 0.000000 
0.000000 0.000000 0.000000 
0.000000 0.000000 0.000000 

-0.000000 0.000000 0.000000 
0.000000 -0.000000 0.000000 
0.000000 0.000000 0.000000 

-0.000000 0.000000 0.000000 
0.000000 -0.000000 0.000000 
0.000000 0.000000 0.000000 

0.000000 0.000000 0.000000 
0.000000 0.000000 0.000000 
0.000000 0.000000 0.000000 

0.000000 0.000000 0.000000 
0.000000 -0.000000 0.000000 
0.000000 0.000000 0.000000 

0.000000 -0.000000 0.000000 
0.000000 0.000000 0.000000 
0.000000 0.000000 0.000000 

0.000000 -0.000000 0.000000 
0.000000 0.000000 0.000000 
0.000000 0.000000 0.000000 

0.000000 -0.000000 0.000000 
0.000000 0.000000 0.000000 
0.000000 0.000000 0.000000 

-0.000000 -0.000000 0.000000 
0.000000 -0.000000 0.000000 
0.000000 0.000000 0.000000 

-0.000000 0.000000 0.000000 
0.000000 -0.000000 0.000000 
0.000000 0.000000 0.000000 

-0.000000 0.000000 0.000000 
0.000000 -0.000000 0.000000 
0.000000 0.000000 0.000000 

0.000000 0.000000 0.000000 
0.000000 0.000000 0.000000 
0.000000 0.000000 0.000000 

0.000000 -0.000000 0.000000 
0.000000 0.000000 0.000000 
0.000000 0.000000 0.000000 

0.000000 -0.000000 0.000000 
0.000000 0.000000 0.000000 
0.000000 0.000000 0.000000 

0.000000 0.000000 0.000000 
0.000000 0.000000 0.000000 
0.000000 0.000000 0.000000 

0.000000 0.000000 0.000000 
0.000000 -0.000000 0.000000 
0.000000 0.000000 0.000000 

0.000000 0.000000 0.000000 
0.000000 -0.000000 0.000000 
0.000000 0.000000 0.000000 

0.000000 0.000000 0.000000 
0.000000 0.000000 0.000000 
0.000000 0.000000 0.000000 

-0.000000 0.000000 0.000000 
0.000000 -0.000000 0.000000 
0.000000 0.000000 0.000000 

0.000000 0.000000 0.000000 
0.000000 0.000000 0.000000 
0.000000 0.000000 0.000000 

0.000000 0.000000 0.000000 
0.000000 0.000000 0.000000 
0.000000 0.000000 0.000000 

0.000000 -0.000000 0.000000 
0.000000 -0.000000 0.000000 
0.000000 0.000000 0.000000 

0.000000 0.000000 0.000000 
0.000000 -0.000000 0.000000 
0.000000 0.000000 0.000000 

0.000000 0.000000 0.000000 
0.000000 0.000000 0.000000 
0.000000 0.000000 0.000000 

0.000000 0.000000 0.000000 
0.000000 -0.000000 0.000000 
0.000000 0.000000 0.000000 

-0.000000 0.000000 0.000000 
0.000000 0.000000 0.000000 
0.000000 0.000000 0.000000 

-0.000000 -0.000000 0.000000 
0.000000 -0.000000 0.000000 
0.000000 0.000000 0.000000 

0.000000 -0.000000 0.000000 
0.000000 0.000000 0.000000 
0.000000 0.000000 0.000000 

0.000000 0.000000 0.000000 
0.000000 0.000000 0.000000 
0.000000 0.000000 0.000000 

-0.000000 0.000000 0.000000 
0.000000 0.000000 0.000000 
0.000000 0.000000 0.000000 

-0.000000 0.000000 0.000000 
0.000000 -0.000000 0.000000 
0.000000 0.000000 0.000000 

0.000000 0.000000 0.000000 
0.000000 -0.000000 0.000000 
0.000000 0.000000 0.000000 

0.000000 0.000000 0.000000 
0.000000 0.000000 0.000000 
0.000000 0.000000 0.000000 

-0.000000 0.000000 0.000000 
0.000000 0.000000 0.000000 
0.000000 0.000000 0.000000 

-0.000000 -0.000000 0.000000 
0.000000 -0.000000 0.000000 
0.000000 0.000000 0.000000 

0.000000 -0.000000 0.000000 
0.000000 0.000000 0.000000 
0.000000 0.000000 0.000000 

-0.000000 0.000000 0.000000 
0.000000 0.000000 0.000000 
0.000000 0.000000 0.000000 

0.000000 -0.000000 0.000000 
0.000000 0.000000 0.000000 
0.000000 0.000000 0.000000 

0.000000 -0.000000 0.000000 
0.000000 0.000000 0.000000 
0.000000 0.000000 0.000000 

0.000000 -0.000000 0.000000 
0.000000 0.000000 0.000000 
0.000000 0.000000 0.000000 

0.000000 -0.000000 0.000000 
0.000000 -0.000000 0.000000 
0.000000 0.000000 0.000000 

0.000000 -0.000000 0.000000 
0.000000 -0.000000 0.000000 
0.000000 0.000000 0.000000 

0.000000 0.000000 0.000000 
0.000000 -0.000000 0.000000 
0.000000 0.000000 0.000000 

0.000000 -0.000000 0.000000 
0.000000 0.000000 0.000000 
0.000000 0.000000 0.000000 

0.000000 0.000000 0.000000 
0.000000 0.000000 0.000000 
0.000000 0.000000 0.000000 

0.000000 -0.000000 0.000000 
0.000000 -0.000000 0.000000 
0.000000 0.000000 0.000000 

0.000000 -0.000000 0.000000 
0.000000 0.000000 0.000000 
0.000000 0.000000 0.000000 

-0.000000 -0.000000 0.000000 
0.000000 -0.000000 0.000000 
0.000000 0.000000 0.000000 

0.000000 0.000000 0.000000 
0.000000 -0.000000 0.000000 
0.000000 0.000000 0.000000 

0.000000 0.000000 0.000000 
0.000000 -0.000000 0.000000 
0.000000 0.000000 0.000000 

0.000000 0.000000 0.000000 
0.000000 -0.000000 0.000000 
0.000000 0.000000 0.000000 

0.000000 -0.000000 0.000000 
0.000000 0.000000 0.000000 
0.000000 0.000000 0.000000 

0.000000 0.000000 0.000000 
0.000000 0.000000 0.000000 
0.000000 0.000000 0.000000 

0.000000 -0.000000 0.000000 
0.000000 -0.000000 0.000000 
0.000000 0.000000 0.000000 

-0.000000 -0.000000 0.000000 
0.000000 -0.000000 0.000000 
0.000000 0.000000 0.000000 

0.000000 0.000000 0.000000 
0.000000 0.000000 0.000000 
0.000000 0.000000 0.000000 

0.000000 0.000000 0.000000 
0.000000 0.000000 0.000000 
0.000000 0.000000 0.000000 

0.000000 -0.000000 0.000000 
0.000000 0.000000 0.000000 
0.000000 0.000000 0.000000 

0.000000 -0.000000 0.000000 
0.000000 -0.000000 0.000000 
0.000000 0.000000 0.000000 

0.000000 0.000000 0.000000 
0.000000 0.000000 0.000000 
0.000000 0.000000 0.000000 

0.000000 0.000000 0.000000 
0.000000 0.000000 0.000000 
0.000000 0.000000 0.000000 

-0.000000 0.000000 0.000000 
0.000000 -0.000000 0.000000 
0.000000 0.000000 0.000000 

-0.000000 0.000000 0.000000 
0.000000 -0.000000 0.000000 
0.000000 0.000000 0.000000 

-0.000000 0.000000 0.000000 
0.000000 -0.000000 0.000000 
0.000000 0.000000 0.000000 

0.000000 -0.000000 0.000000 
0.000000 -0.000000 0.000000 
0.000000 0.000000 0.000000 

0.000000 -0.000000 0.000000 
0.000000 0.000000 0.000000 
0.000000 0.000000 0.000000 

-0.000000 0.000000 0.000000 
0.000000 -0.000000 0.000000 
0.000000 0.000000 0.000000 

0.000000 0.000000 0.000000 
0.000000 -0.000000 0.000000 
0.000000 0.000000 0.000000 

0.000000 -0.000000 0.000000 
0.000000 0.000000 0.000000 
0.000000 0.000000 0.000000 

0.000000 -0.000000 0.000000 
0.000000 0.000000 0.000000 
0.000000 0.000000 0.000000 

0.000000 0.000000 0.000000 
0.000000 -0.000000 0.000000 
0.000000 0.000000 0.000000 

0.000000 -0.000000 0.000000 
0.000000 0.000000 0.000000 
0.000000 0.000000 0.000000 

-0.000000 -0.000000 0.000000 
0.000000 -0.000000 0.000000 
0.000000 0.000000 0.000000 

-0.000000 0.000000 0.000000 
0.000000 -0.000000 0.000000 
0.000000 0.000000 0.000000 

-0.000000 0.000000 0.000000 
0.000000 -0.000000 0.000000 
0.000000 0.000000 0.000000 

-0.000000 -0.000000 0.000000 
0.000000 -0.000000 0.000000 
0.000000 0.000000 0.000000 

-0.000000 -0.000000 0.000000 
0.000000 -0.000000 0.000000 
0.000000 0.000000 0.000000 

-0.000000 0.000000 0.000000 
0.000000 -0.000000 0.000000 
0.000000 0.000000 0.000000 

0.000000 -0.000000 0.000000 
0.000000 0.000000 0.000000 
0.000000 0.000000 0.000000 

0.000000 0.000000 0.000000 
0.000000 -0.000000 0.000000 
0.000000 0.000000 0.000000 

-0.000000 -0.000000 0.000000 
0.000000 0.000000 0.000000 
0.000000 0.000000 0.000000 

-0.000000 -0.000000 0.000000 
0.000000 -0.000000 0.000000 
0.000000 0.000000 0.000000 

-0.000000 0.000000 0.000000 
0.000000 0.000000 0.000000 
0.000000 0.000000 0.000000 

-0.000000 -0.000000 0.000000 
0.000000 -0.000000 0.000000 
0.000000 0.000000 0.000000 

-0.000000 -0.000000 0.000000 
0.000000 -0.000000 0.000000 
0.000000 0.000000 0.000000 

-0.000000 -0.000000 0.000000 
0.000000 -0.000000 0.000000 
0.000000 0.000000 0.000000 

TENSORS STRAIN float 
-0.000000 0.000000 0.000000 
0.000000 0.000000 0.000000 
0.000000 0.000000 0.000000 

-0.000000 -0.000000 0.000000 
0.000000 0.000000 0.000000 
0.000000 0.000000 0.000000 

-0.000000 0.000000 0.000000 
0.000000 0.000000 0.000000 
0.000000 0.000000 0.000000 

-0.000000 0.000000 0.000000 
0.000000 0.000000 0.000000 
0.000000 0.000000 0.000000 

-0.000000 -0.000000 0.000000 
0.000000 0.000000 0.000000 
0.000000 0.000000 0.000000 

-0.000000 -0.000000 0.000000 
0.000000 0.000000 0.000000 
0.000000 0.000000 0.000000 

-0.000000 0.000000 0.000000 
0.000000 -0.000000 0.000000 
0.000000 0.000000 0.000000 

-0.000000 0.000000 0.000000 
0.000000 0.000000 0.000000 
0.000000 0.000000 0.000000 

0.000000 -0.000000 0.000000 
0.000000 -0.000000 0.000000 
0.000000 0.000000 0.000000 

-0.000000 0.000000 0.000000 
0.000000 -0.000000 0.000000 
0.000000 0.000000 0.000000 

-0.000000 0.000000 0.000000 
0.000000 -0.000000 0.000000 
0.000000 0.000000 0.000000 

-0.000000 0.000000 0.000000 
0.000000 -0.000000 0.000000 
0.000000 0.000000 0.000000 

-0.000000 0.000000 0.000000 
0.000000 -0.000000 0.000000 
0.000000 0.000000 0.000000 

-0.000000 0.000000 0.000000 
0.000000 0.000000 0.000000 
0.000000 0.000000 0.000000 

0.000000 -0.000000 0.000000 
0.000000 -0.000000 0.000000 
0.000000 0.000000 0.000000 

0.000000 -0.000000 0.000000 
0.000000 -0.000000 0.000000 
0.000000 0.000000 0.000000 

-0.000000 -0.000000 0.000000 
0.000000 0.000000 0.000000 
0.000000 0.000000 0.000000 

-0.000000 0.000000 0.000000 
0.000000 0.000000 0.000000 
0.000000 0.000000 0.000000 

-0.000000 -0.000000 0.000000 
0.000000 0.000000 0.000000 
0.000000 0.000000 0.000000 

-0.000000 0.000000 0.000000 
0.000000 0.000000 0.000000 
0.000000 0.000000 0.000000 

0.000000 0.000000 0.000000 
0.000000 -0.000000 0.000000 
0.000000 0.000000 0.000000 

-0.000000 -0.000000 0.000000 
0.000000 -0.000000 0.000000 
0.000000 0.000000 0.000000 

-0.000000 0.000000 0.000000 
0.000000 0.000000 0.000000 
0.000000 0.000000 0.000000 

0.000000 0.000000 0.000000 
0.000000 -0.000000 0.000000 
0.000000 0.000000 0.000000 

0.000000 0.000000 0.000000 
0.000000 -0.000000 0.000000 
0.000000 0.000000 0.000000 

-0.000000 0.000000 0.000000 
0.000000 -0.000000 0.000000 
0.000000 0.000000 0.000000 

0.000000 0.000000 0.000000 
0.000000 0.000000 0.000000 
0.000000 0.000000 0.000000 

-0.000000 -0.000000 0.000000 
0.000000 0.000000 0.000000 
0.000000 0.000000 0.000000 

-0.000000 -0.000000 0.000000 
0.000000 -0.000000 0.000000 
0.000000 0.000000 0.000000 

-0.000000 0.000000 0.000000 
0.000000 -0.000000 0.000000 
0.000000 0.000000 0.000000 

0.000000 0.000000 0.000000 
0.000000 0.000000 0.000000 
0.000000 0.000000 0.000000 

-0.000000 0.000000 0.000000 
0.000000 -0.000000 0.000000 
0.000000 0.000000 0.000000 

-0.000000 0.000000 0.000000 
0.000000 0.000000 0.000000 
0.000000 0.000000 0.000000 

-0.000000 0.000000 0.000000 
0.000000 0.000000 0.000000 
0.000000 0.000000 0.000000 

-0.000000 0.000000 0.000000 
0.000000 0.000000 0.000000 
0.000000 0.000000 0.000000 

-0.000000 0.000000 0.000000 
0.000000 0.000000 0.000000 
0.000000 0.000000 0.000000 

-0.000000 -0.000000 0.000000 
0.000000 0.000000 0.000000 
0.000000 0.000000 0.000000 

0.000000 0.000000 0.000000 
0.000000 -0.000000 0.000000 
0.000000 0.000000 0.000000 

0.000000 0.000000 0.000000 
0.000000 -0.000000 0.000000 
0.000000 0.000000 0.000000 

0.000000 -0.000000 0.000000 
0.000000 -0.000000 0.000000 
0.000000 0.000000 0.000000 

-0.000000 -0.000000 0.000000 
0.000000 -0.000000 0.000000 
0.000000 0.000000 0.000000 

-0.000000 -0.000000 0.000000 
0.000000 -0.000000 0.000000 
0.000000 0.000000 0.000000 

-0.000000 -0.000000 0.000000 
0.000000 0.000000 0.000000 
0.000000 0.000000 0.000000 

-0.000000 0.000000 0.000000 
0.000000 -0.000000 0.000000 
0.000000 0.000000 0.000000 

-0.000000 -0.000000 0.000000 
0.000000 -0.000000 0.000000 
0.000000 0.000000 0.000000 

-0.000000 -0.000000 0.000000 
0.000000 -0.000000 0.000000 
0.000000 0.000000 0.000000 

-0.000000 0.000000 0.000000 
0.000000 -0.000000 0.000000 
0.000000 0.000000 0.000000 

-0.000000 -0.000000 0.000000 
0.000000 0.000000 0.000000 
0.000000 0.000000 0.000000 

-0.000000 0.000000 0.000000 
0.000000 -0.000000 0.000000 
0.000000 0.000000 0.000000 

-0.000000 -0.000000 0.000000 
0.000000 -0.000000 0.000000 
0.000000 0.000000 0.000000 

-0.000000 0.000000 0.000000 
0.000000 0.000000 0.000000 
0.000000 0.000000 0.000000 

-0.000000 0.000000 0.000000 
0.000000 0.000000 0.000000 
0.000000 0.000000 0.000000 

0.000000 0.000000 0.000000 
0.000000 -0.000000 0.000000 
0.000000 0.000000 0.000000 

0.000000 0.000000 0.000000 
0.000000 0.000000 0.000000 
0.000000 0.000000 0.000000 

-0.000000 0.000000 0.000000 
0.000000 -0.000000 0.000000 
0.000000 0.000000 0.000000 

-0.000000 0.000000 0.000000 
0.000000 -0.000000 0.000000 
0.000000 0.000000 0.000000 

-0.000000 0.000000 0.000000 
0.000000 0.000000 0.000000 
0.000000 0.000000 0.000000 

0.000000 -0.000000 0.000000 
0.000000 0.000000 0.000000 
0.000000 0.000000 0.000000 

-0.000000 0.000000 0.000000 
0.000000 0.000000 0.000000 
0.000000 0.000000 0.000000 

0.000000 -0.000000 0.000000 
0.000000 0.000000 0.000000 
0.000000 0.000000 0.000000 

-0.000000 0.000000 0.000000 
0.000000 -0.000000 0.000000 
0.000000 0.000000 0.000000 

0.000000 0.000000 0.000000 
0.000000 0.000000 0.000000 
0.000000 0.000000 0.000000 

0.000000 0.000000 0.000000 
0.000000 -0.000000 0.000000 
0.000000 0.000000 0.000000 

0.000000 0.000000 0.000000 
0.000000 -0.000000 0.000000 
0.000000 0.000000 0.000000 

0.000000 0.000000 0.000000 
0.000000 0.000000 0.000000 
0.000000 0.000000 0.000000 

-0.000000 0.000000 0.000000 
0.000000 0.000000 0.000000 
0.000000 0.000000 0.000000 

0.000000 0.000000 0.000000 
0.000000 0.000000 0.000000 
0.000000 0.000000 0.000000 

-0.000000 0.000000 0.000000 
0.000000 0.000000 0.000000 
0.000000 0.000000 0.000000 

-0.000000 0.000000 0.000000 
0.000000 0.000000 0.000000 
0.000000 0.000000 0.000000 

-0.000000 0.000000 0.000000 
0.000000 0.000000 0.000000 
0.000000 0.000000 0.000000 

-0.000000 -0.000000 0.000000 
0.000000 0.000000 0.000000 
0.000000 0.000000 0.000000 

0.000000 0.000000 0.000000 
0.000000 -0.000000 0.000000 
0.000000 0.000000 0.000000 

0.000000 -0.000000 0.000000 
0.000000 -0.000000 0.000000 
0.000000 0.000000 0.000000 

-0.000000 -0.000000 0.000000 
0.000000 -0.000000 0.000000 
0.000000 0.000000 0.000000 

-0.000000 -0.000000 0.000000 
0.000000 0.000000 0.000000 
0.000000 0.000000 0.000000 

-0.000000 -0.000000 0.000000 
0.000000 0.000000 0.000000 
0.000000 0.000000 0.000000 

0.000000 -0.000000 0.000000 
0.000000 -0.000000 0.000000 
0.000000 0.000000 0.000000 

0.000000 0.000000 0.000000 
0.000000 0.000000 0.000000 
0.000000 0.000000 0.000000 

0.000000 0.000000 0.000000 
0.000000 0.000000 0.000000 
0.000000 0.000000 0.000000 

-0.000000 -0.000000 0.000000 
0.000000 -0.000000 0.000000 
0.000000 0.000000 0.000000 

0.000000 -0.000000 0.000000 
0.000000 0.000000 0.000000 
0.000000 0.000000 0.000000 

0.000000 -0.000000 0.000000 
0.000000 -0.000000 0.000000 
0.000000 0.000000 0.000000 

0.000000 0.000000 0.000000 
0.000000 0.000000 0.000000 
0.000000 0.000000 0.000000 

-0.000000 0.000000 0.000000 
0.000000 0.000000 0.000000 
0.000000 0.000000 0.000000 

-0.000000 0.000000 0.000000 
0.000000 0.000000 0.000000 
0.000000 0.000000 0.000000 

-0.000000 -0.000000 0.000000 
0.000000 0.000000 0.000000 
0.000000 0.000000 0.000000 

0.000000 -0.000000 0.000000 
0.000000 0.000000 0.000000 
0.000000 0.000000 0.000000 

0.000000 -0.000000 0.000000 
0.000000 -0.000000 0.000000 
0.000000 0.000000 0.000000 

0.000000 -0.000000 0.000000 
0.000000 -0.000000 0.000000 
0.000000 0.000000 0.000000 

0.000000 0.000000 0.000000 
0.000000 0.000000 0.000000 
0.000000 0.000000 0.000000 

0.000000 0.000000 0.000000 
0.000000 -0.000000 0.000000 
0.000000 0.000000 0.000000 

0.000000 0.000000 0.000000 
0.000000 -0.000000 0.000000 
0.000000 0.000000 0.000000 

0.000000 0.000000 0.000000 
0.000000 0.000000 0.000000 
0.000000 0.000000 0.000000 

0.000000 0.000000 0.000000 
0.000000 -0.000000 0.000000 
0.000000 0.000000 0.000000 

0.000000 -0.000000 0.000000 
0.000000 0.000000 0.000000 
0.000000 0.000000 0.000000 

0.000000 -0.000000 0.000000 
0.000000 0.000000 0.000000 
0.000000 0.000000 0.000000 

0.000000 -0.000000 0.000000 
0.000000 0.000000 0.000000 
0.000000 0.000000 0.000000 

-0.000000 -0.000000 0.000000 
0.000000 -0.000000 0.000000 
0.000000 0.000000 0.000000 

0.000000 0.000000 0.000000 
0.000000 -0.000000 0.000000 
0.000000 0.000000 0.000000 

-0.000000 0.000000 0.000000 
0.000000 -0.000000 0.000000 
0.000000 0.000000 0.000000 

-0.000000 0.000000 0.000000 
0.000000 0.000000 0.000000 
0.000000 0.000000 0.000000 

0.000000 -0.000000 0.000000 
0.000000 -0.000000 0.000000 
0.000000 0.000000 0.000000 

0.000000 -0.000000 0.000000 
0.000000 -0.000000 0.000000 
0.000000 0.000000 0.000000 

0.000000 0.000000 0.000000 
0.000000 0.000000 0.000000 
0.000000 0.000000 0.000000 

0.000000 0.000000 0.000000 
0.000000 -0.000000 0.000000 
0.000000 0.000000 0.000000 

0.000000 0.000000 0.000000 
0.000000 -0.000000 0.000000 
0.000000 0.000000 0.000000 

0.000000 0.000000 0.000000 
0.000000 0.000000 0.000000 
0.000000 0.000000 0.000000 

0.000000 0.000000 0.000000 
0.000000 -0.000000 0.000000 
0.000000 0.000000 0.000000 

0.000000 0.000000 0.000000 
0.000000 0.000000 0.000000 
0.000000 0.000000 0.000000 

0.000000 0.000000 0.000000 
0.000000 0.000000 0.000000 
0.000000 0.000000 0.000000 

0.000000 -0.000000 0.000000 
0.000000 -0.000000 0.000000 
0.000000 0.000000 0.000000 

0.000000 0.000000 0.000000 
0.000000 -0.000000 0.000000 
0.000000 0.000000 0.000000 

0.000000 0.000000 0.000000 
0.000000 -0.000000 0.000000 
0.000000 0.000000 0.000000 

0.000000 0.000000 0.000000 
0.000000 -0.000000 0.000000 
0.000000 0.000000 0.000000 

-0.000000 0.000000 0.000000 
0.000000 0.000000 0.000000 
0.000000 0.000000 0.000000 

-0.000000 -0.000000 0.000000 
0.000000 -0.000000 0.000000 
0.000000 0.000000 0.000000 

0.000000 -0.000000 0.000000 
0.000000 0.000000 0.000000 
0.000000 0.000000 0.000000 

0.000000 0.000000 0.000000 
0.000000 0.000000 0.000000 
0.000000 0.000000 0.000000 

-0.000000 0.000000 0.000000 
0.000000 0.000000 0.000000 
0.000000 0.000000 0.000000 

0.000000 0.000000 0.000000 
0.000000 -0.000000 0.000000 
0.000000 0.000000 0.000000 

0.000000 0.000000 0.000000 
0.000000 -0.000000 0.000000 
0.000000 0.000000 0.000000 

0.000000 0.000000 0.000000 
0.000000 0.000000 0.000000 
0.000000 0.000000 0.000000 

-0.000000 0.000000 0.000000 
0.000000 0.000000 0.000000 
0.000000 0.000000 0.000000 

-0.000000 -0.000000 0.000000 
0.000000 -0.000000 0.000000 
0.000000 0.000000 0.000000 

0.000000 -0.000000 0.000000 
0.000000 0.000000 0.000000 
0.000000 0.000000 0.000000 

-0.000000 0.000000 0.000000 
0.000000 0.000000 0.000000 
0.000000 0.000000 0.000000 

0.000000 -0.000000 0.000000 
0.000000 0.000000 0.000000 
0.000000 0.000000 0.000000 

0.000000 -0.000000 0.000000 
0.000000 -0.000000 0.000000 
0.000000 0.000000 0.000000 

0.000000 -0.000000 0.000000 
0.000000 0.000000 0.000000 
0.000000 0.000000 0.000000 

0.000000 -0.000000 0.000000 
0.000000 -0.000000 0.000000 
0.000000 0.000000 0.000000 

0.000000 -0.000000 0.000000 
0.000000 -0.000000 0.000000 
0.000000 0.000000 0.000000 

0.000000 0.000000 0.000000 
0.000000 -0.000000 0.000000 
0.000000 0.000000 0.000000 

0.000000 -0.000000 0.000000 
0.000000 0.000000 0.000000 
0.000000 0.000000 0.000000 

0.000000 0.000000 0.000000 
0.000000 0.000000 0.000000 
0.000000 0.000000 0.000000 

0.000000 -0.000000 0.000000 
0.000000 -0.000000 0.000000 
0.000000 0.000000 0.000000 

0.000000 -0.000000 0.000000 
0.000000 0.000000 0.000000 
0.000000 0.000000 0.000000 

0.000000 -0.000000 0.000000 
0.000000 -0.000000 0.000000 
0.000000 0.000000 0.000000 

0.000000 0.000000 0.000000 
0.000000 -0.000000 0.000000 
0.000000 0.000000 0.000000 

0.000000 0.000000 0.000000 
0.000000 -0.000000 0.000000 
0.000000 0.000000 0.000000 

0.000000 0.000000 0.000000 
0.000000 -0.000000 0.000000 
0.000000 0.000000 0.000000 

0.000000 -0.000000 0.000000 
0.000000 0.000000 0.000000 
0.000000 0.000000 0.000000 

0.000000 0.000000 0.000000 
0.000000 0.000000 0.000000 
0.000000 0.000000 0.000000 

0.000000 -0.000000 0.000000 
0.000000 -0.000000 0.000000 
0.000000 0.000000 0.000000 

-0.000000 -0.000000 0.000000 
0.000000 -0.000000 0.000000 
0.000000 0.000000 0.000000 

0.000000 0.000000 0.000000 
0.000000 0.000000 0.000000 
0.000000 0.000000 0.000000 

0.000000 0.000000 0.000000 
0.000000 0.000000 0.000000 
0.000000 0.000000 0.000000 

0.000000 -0.000000 0.000000 
0.000000 -0.000000 0.000000 
0.000000 0.000000 0.000000 

0.000000 -0.000000 0.000000 
0.000000 -0.000000 0.000000 
0.000000 0.000000 0.000000 

0.000000 0.000000 0.000000 
0.000000 0.000000 0.000000 
0.000000 0.000000 0.000000 

0.000000 0.000000 0.000000 
0.000000 0.000000 0.000000 
0.000000 0.000000 0.000000 

-0.000000 0.000000 0.000000 
0.000000 -0.000000 0.000000 
0.000000 0.000000 0.000000 

-0.000000 0.000000 0.000000 
0.000000 -0.000000 0.000000 
0.000000 0.000000 0.000000 

-0.000000 0.000000 0.000000 
0.000000 -0.000000 0.000000 
0.000000 0.000000 0.000000 

0.000000 -0.000000 0.000000 
0.000000 -0.000000 0.000000 
0.000000 0.000000 0.000000 

0.000000 -0.000000 0.000000 
0.000000 0.000000 0.000000 
0.000000 0.000000 0.000000 

-0.000000 0.000000 0.000000 
0.000000 -0.000000 0.000000 
0.000000 0.000000 0.000000 

0.000000 0.000000 0.000000 
0.000000 -0.000000 0.000000 
0.000000 0.000000 0.000000 

0.000000 -0.000000 0.000000 
0.000000 -0.000000 0.000000 
0.000000 0.000000 0.000000 

0.000000 -0.000000 0.000000 
0.000000 -0.000000 0.000000 
0.000000 0.000000 0.000000 

0.000000 0.000000 0.000000 
0.000000 -0.000000 0.000000 
0.000000 0.000000 0.000000 

0.000000 -0.000000 0.000000 
0.000000 0.000000 0.000000 
0.000000 0.000000 0.000000 

-0.000000 -0.000000 0.000000 
0.000000 -0.000000 0.000000 
0.000000 0.000000 0.000000 

-0.000000 0.000000 0.000000 
0.000000 -0.000000 0.000000 
0.000000 0.000000 0.000000 

-0.000000 0.000000 0.000000 
0.000000 -0.000000 0.000000 
0.000000 0.000000 0.000000 

0.000000 -0.000000 0.000000 
0.000000 -0.000000 0.000000 
0.000000 0.000000 0.000000 

0.000000 -0.000000 0.000000 
0.000000 -0.000000 0.000000 
0.000000 0.000000 0.000000 

0.000000 0.000000 0.000000 
0.000000 -0.000000 0.000000 
0.000000 0.000000 0.000000 

0.000000 -0.000000 0.000000 
0.000000 0.000000 0.000000 
0.000000 0.000000 0.000000 

0.000000 0.000000 0.000000 
0.000000 -0.000000 0.000000 
0.000000 0.000000 0.000000 

-0.000000 -0.000000 0.000000 
0.000000 0.000000 0.000000 
0.000000 0.000000 0.000000 

0.000000 -0.000000 0.000000 
0.000000 -0.000000 0.000000 
0.000000 0.000000 0.000000 

-0.000000 0.000000 0.000000 
0.000000 0.000000 0.000000 
0.000000 0.000000 0.000000 

-0.000000 -0.000000 0.000000 
0.000000 -0.000000 0.000000 
0.000000 0.000000 0.000000 

0.000000 -0.000000 0.000000 
0.000000 -0.000000 0.000000 
0.000000 0.000000 0.000000 

0.000000 -0.000000 0.000000 
0.000000 -0.000000 0.000000 
0.000000 0.000000 0.000000 

