# vtk DataFile Version 3.0 
vtk output 
ASCII 
DATASET UNSTRUCTURED_GRID 
POINTS 175 float 
-0.026061 -0.027812 0.000000 
-0.106992 0.040244 0.000000 
-0.054870 0.032011 0.000000 
-0.028809 0.077895 0.000000 
-0.186430 0.104319 0.000000 
-0.137056 0.101793 0.000000 
-0.114311 0.155440 0.000000 
-0.058186 0.139775 0.000000 
-0.029377 0.179952 0.000000 
-0.265318 0.167475 0.000000 
-0.217198 0.166675 0.000000 
-0.196633 0.223972 0.000000 
-0.143120 0.215263 0.000000 
-0.116563 0.262532 0.000000 
-0.058945 0.242886 0.000000 
-0.029568 0.281006 0.000000 
-0.344206 0.230631 0.000000 
-0.296791 0.230638 0.000000 
-0.278030 0.290581 0.000000 
-0.225992 0.284714 0.000000 
-0.201664 0.336831 0.000000 
-0.145749 0.323357 0.000000 
-0.117890 0.367700 0.000000 
-0.059328 0.344994 0.000000 
-0.029759 0.382060 0.000000 
-0.058559 -0.068562 0.000000 
-0.162226 -0.089405 0.000000 
-0.123292 -0.053787 0.000000 
-0.142917 -0.004804 0.000000 
-0.261851 -0.111562 0.000000 
-0.229092 -0.074534 0.000000 
-0.256854 -0.023303 0.000000 
-0.209613 0.010810 0.000000 
-0.223062 0.058384 0.000000 
-0.360414 -0.133862 0.000000 
-0.329787 -0.096739 0.000000 
-0.361761 -0.044937 0.000000 
-0.321587 -0.008528 0.000000 
-0.341985 0.041706 0.000000 
-0.290702 0.074505 0.000000 
-0.302189 0.121240 0.000000 
-0.458977 -0.156162 0.000000 
-0.429420 -0.119087 0.000000 
-0.464588 -0.067045 0.000000 
-0.427556 -0.030018 0.000000 
-0.453135 0.021497 0.000000 
-0.407738 0.056812 0.000000 
-0.425037 0.106240 0.000000 
-0.370772 0.137869 0.000000 
-0.381315 0.184097 0.000000 
-0.046960 -0.119378 0.000000 
-0.095301 -0.213424 0.000000 
-0.098873 -0.160776 0.000000 
-0.149405 -0.145579 0.000000 
-0.140093 -0.305128 0.000000 
-0.148617 -0.256429 0.000000 
-0.205981 -0.246192 0.000000 
-0.203197 -0.187989 0.000000 
-0.248777 -0.168842 0.000000 
-0.184111 -0.396091 0.000000 
-0.194039 -0.349000 0.000000 
-0.254475 -0.341701 0.000000 
-0.257893 -0.287591 0.000000 
-0.309886 -0.272218 0.000000 
-0.303554 -0.211673 0.000000 
-0.347255 -0.191515 0.000000 
-0.228129 -0.487055 0.000000 
-0.238687 -0.440831 0.000000 
-0.301302 -0.435878 0.000000 
-0.307162 -0.383840 0.000000 
-0.363386 -0.371719 0.000000 
-0.362692 -0.314207 0.000000 
-0.412122 -0.296914 0.000000 
-0.403017 -0.234767 0.000000 
-0.445733 -0.214189 0.000000 
-0.000000 -0.141993 0.000000 
0.043388 -0.238423 0.000000 
-0.000000 -0.208391 0.000000 
-0.043388 -0.238423 0.000000 
0.087158 -0.330620 0.000000 
0.043769 -0.306921 0.000000 
-0.000000 -0.345387 0.000000 
-0.043769 -0.306921 0.000000 
-0.087158 -0.330620 0.000000 
0.130831 -0.421750 0.000000 
0.087824 -0.400151 0.000000 
0.044436 -0.442850 0.000000 
-0.000000 -0.411785 0.000000 
-0.044436 -0.442850 0.000000 
-0.087824 -0.400151 0.000000 
-0.130831 -0.421750 0.000000 
0.174505 -0.512879 0.000000 
0.131782 -0.492313 0.000000 
0.088871 -0.538180 0.000000 
0.044532 -0.510316 0.000000 
-0.000000 -0.546716 0.000000 
-0.044532 -0.510316 0.000000 
-0.088871 -0.538180 0.000000 
-0.131782 -0.492313 0.000000 
-0.174505 -0.512879 0.000000 
0.046960 -0.119378 0.000000 
0.149405 -0.145579 0.000000 
0.098873 -0.160776 0.000000 
0.095301 -0.213424 0.000000 
0.248777 -0.168842 0.000000 
0.203197 -0.187989 0.000000 
0.205981 -0.246192 0.000000 
0.148617 -0.256429 0.000000 
0.140093 -0.305128 0.000000 
0.347255 -0.191515 0.000000 
0.303554 -0.211673 0.000000 
0.309886 -0.272218 0.000000 
0.257893 -0.287591 0.000000 
0.254475 -0.341701 0.000000 
0.194039 -0.349000 0.000000 
0.184111 -0.396091 0.000000 
0.445733 -0.214189 0.000000 
0.403017 -0.234767 0.000000 
0.412122 -0.296914 0.000000 
0.362692 -0.314207 0.000000 
0.363386 -0.371719 0.000000 
0.307162 -0.383840 0.000000 
0.301302 -0.435878 0.000000 
0.238687 -0.440831 0.000000 
0.228129 -0.487055 0.000000 
0.058559 -0.068562 0.000000 
0.142917 -0.004804 0.000000 
0.123292 -0.053787 0.000000 
0.162226 -0.089405 0.000000 
0.223062 0.058384 0.000000 
0.209613 0.010810 0.000000 
0.256854 -0.023303 0.000000 
0.229092 -0.074534 0.000000 
0.261851 -0.111562 0.000000 
0.302189 0.121240 0.000000 
0.290702 0.074505 0.000000 
0.341985 0.041706 0.000000 
0.321587 -0.008528 0.000000 
0.361761 -0.044937 0.000000 
0.329787 -0.096739 0.000000 
0.360414 -0.133862 0.000000 
0.381315 0.184097 0.000000 
0.370772 0.137869 0.000000 
0.425037 0.106240 0.000000 
0.407738 0.056812 0.000000 
0.453135 0.021497 0.000000 
0.427556 -0.030018 0.000000 
0.464588 -0.067045 0.000000 
0.429420 -0.119087 0.000000 
0.458977 -0.156162 0.000000 
0.026061 -0.027812 0.000000 
0.028809 0.077895 0.000000 
0.054870 0.032011 0.000000 
0.106992 0.040244 0.000000 
0.029377 0.179952 0.000000 
0.058186 0.139775 0.000000 
0.114311 0.155440 0.000000 
0.137056 0.101793 0.000000 
0.186430 0.104319 0.000000 
0.029568 0.281006 0.000000 
0.058945 0.242886 0.000000 
0.116563 0.262532 0.000000 
0.143120 0.215263 0.000000 
0.196633 0.223972 0.000000 
0.217198 0.166675 0.000000 
0.265318 0.167475 0.000000 
0.029759 0.382060 0.000000 
0.059328 0.344994 0.000000 
0.117890 0.367700 0.000000 
0.145749 0.323357 0.000000 
0.201664 0.336831 0.000000 
0.225992 0.284714 0.000000 
0.278030 0.290581 0.000000 
0.296791 0.230638 0.000000 
0.344206 0.230631 0.000000 
CELLS 175 350 
1 0 
1 1 
1 2 
1 3 
1 4 
1 5 
1 6 
1 7 
1 8 
1 9 
1 10 
1 11 
1 12 
1 13 
1 14 
1 15 
1 16 
1 17 
1 18 
1 19 
1 20 
1 21 
1 22 
1 23 
1 24 
1 25 
1 26 
1 27 
1 28 
1 29 
1 30 
1 31 
1 32 
1 33 
1 34 
1 35 
1 36 
1 37 
1 38 
1 39 
1 40 
1 41 
1 42 
1 43 
1 44 
1 45 
1 46 
1 47 
1 48 
1 49 
1 50 
1 51 
1 52 
1 53 
1 54 
1 55 
1 56 
1 57 
1 58 
1 59 
1 60 
1 61 
1 62 
1 63 
1 64 
1 65 
1 66 
1 67 
1 68 
1 69 
1 70 
1 71 
1 72 
1 73 
1 74 
1 75 
1 76 
1 77 
1 78 
1 79 
1 80 
1 81 
1 82 
1 83 
1 84 
1 85 
1 86 
1 87 
1 88 
1 89 
1 90 
1 91 
1 92 
1 93 
1 94 
1 95 
1 96 
1 97 
1 98 
1 99 
1 100 
1 101 
1 102 
1 103 
1 104 
1 105 
1 106 
1 107 
1 108 
1 109 
1 110 
1 111 
1 112 
1 113 
1 114 
1 115 
1 116 
1 117 
1 118 
1 119 
1 120 
1 121 
1 122 
1 123 
1 124 
1 125 
1 126 
1 127 
1 128 
1 129 
1 130 
1 131 
1 132 
1 133 
1 134 
1 135 
1 136 
1 137 
1 138 
1 139 
1 140 
1 141 
1 142 
1 143 
1 144 
1 145 
1 146 
1 147 
1 148 
1 149 
1 150 
1 151 
1 152 
1 153 
1 154 
1 155 
1 156 
1 157 
1 158 
1 159 
1 160 
1 161 
1 162 
1 163 
1 164 
1 165 
1 166 
1 167 
1 168 
1 169 
1 170 
1 171 
1 172 
1 173 
1 174 
CELL_TYPES 175 
1 
1 
1 
1 
1 
1 
1 
1 
1 
1 
1 
1 
1 
1 
1 
1 
1 
1 
1 
1 
1 
1 
1 
1 
1 
1 
1 
1 
1 
1 
1 
1 
1 
1 
1 
1 
1 
1 
1 
1 
1 
1 
1 
1 
1 
1 
1 
1 
1 
1 
1 
1 
1 
1 
1 
1 
1 
1 
1 
1 
1 
1 
1 
1 
1 
1 
1 
1 
1 
1 
1 
1 
1 
1 
1 
1 
1 
1 
1 
1 
1 
1 
1 
1 
1 
1 
1 
1 
1 
1 
1 
1 
1 
1 
1 
1 
1 
1 
1 
1 
1 
1 
1 
1 
1 
1 
1 
1 
1 
1 
1 
1 
1 
1 
1 
1 
1 
1 
1 
1 
1 
1 
1 
1 
1 
1 
1 
1 
1 
1 
1 
1 
1 
1 
1 
1 
1 
1 
1 
1 
1 
1 
1 
1 
1 
1 
1 
1 
1 
1 
1 
1 
1 
1 
1 
1 
1 
1 
1 
1 
1 
1 
1 
1 
1 
1 
1 
1 
1 
1 
1 
1 
1 
1 
1 
POINT_DATA 175 
VECTORS X_GC float 
-0.026061 -0.027812 0.000000 
-0.106992 0.040244 0.000000 
-0.054870 0.032011 0.000000 
-0.028809 0.077895 0.000000 
-0.186430 0.104319 0.000000 
-0.137056 0.101793 0.000000 
-0.114311 0.155440 0.000000 
-0.058186 0.139775 0.000000 
-0.029377 0.179952 0.000000 
-0.265318 0.167475 0.000000 
-0.217198 0.166675 0.000000 
-0.196633 0.223972 0.000000 
-0.143120 0.215263 0.000000 
-0.116563 0.262532 0.000000 
-0.058945 0.242886 0.000000 
-0.029568 0.281006 0.000000 
-0.344206 0.230631 0.000000 
-0.296791 0.230638 0.000000 
-0.278030 0.290581 0.000000 
-0.225992 0.284714 0.000000 
-0.201664 0.336831 0.000000 
-0.145749 0.323357 0.000000 
-0.117890 0.367700 0.000000 
-0.059328 0.344994 0.000000 
-0.029759 0.382060 0.000000 
-0.058559 -0.068562 0.000000 
-0.162226 -0.089405 0.000000 
-0.123292 -0.053787 0.000000 
-0.142917 -0.004804 0.000000 
-0.261851 -0.111562 0.000000 
-0.229092 -0.074534 0.000000 
-0.256854 -0.023303 0.000000 
-0.209613 0.010810 0.000000 
-0.223062 0.058384 0.000000 
-0.360414 -0.133862 0.000000 
-0.329787 -0.096739 0.000000 
-0.361761 -0.044937 0.000000 
-0.321587 -0.008528 0.000000 
-0.341985 0.041706 0.000000 
-0.290702 0.074505 0.000000 
-0.302189 0.121240 0.000000 
-0.458977 -0.156162 0.000000 
-0.429420 -0.119087 0.000000 
-0.464588 -0.067045 0.000000 
-0.427556 -0.030018 0.000000 
-0.453135 0.021497 0.000000 
-0.407738 0.056812 0.000000 
-0.425037 0.106240 0.000000 
-0.370772 0.137869 0.000000 
-0.381315 0.184097 0.000000 
-0.046960 -0.119378 0.000000 
-0.095301 -0.213424 0.000000 
-0.098873 -0.160776 0.000000 
-0.149405 -0.145579 0.000000 
-0.140093 -0.305128 0.000000 
-0.148617 -0.256429 0.000000 
-0.205981 -0.246192 0.000000 
-0.203197 -0.187989 0.000000 
-0.248777 -0.168842 0.000000 
-0.184111 -0.396091 0.000000 
-0.194039 -0.349000 0.000000 
-0.254475 -0.341701 0.000000 
-0.257893 -0.287591 0.000000 
-0.309886 -0.272218 0.000000 
-0.303554 -0.211673 0.000000 
-0.347255 -0.191515 0.000000 
-0.228129 -0.487055 0.000000 
-0.238687 -0.440831 0.000000 
-0.301302 -0.435878 0.000000 
-0.307162 -0.383840 0.000000 
-0.363386 -0.371719 0.000000 
-0.362692 -0.314207 0.000000 
-0.412122 -0.296914 0.000000 
-0.403017 -0.234767 0.000000 
-0.445733 -0.214189 0.000000 
-0.000000 -0.141993 0.000000 
0.043388 -0.238423 0.000000 
-0.000000 -0.208391 0.000000 
-0.043388 -0.238423 0.000000 
0.087158 -0.330620 0.000000 
0.043769 -0.306921 0.000000 
-0.000000 -0.345387 0.000000 
-0.043769 -0.306921 0.000000 
-0.087158 -0.330620 0.000000 
0.130831 -0.421750 0.000000 
0.087824 -0.400151 0.000000 
0.044436 -0.442850 0.000000 
-0.000000 -0.411785 0.000000 
-0.044436 -0.442850 0.000000 
-0.087824 -0.400151 0.000000 
-0.130831 -0.421750 0.000000 
0.174505 -0.512879 0.000000 
0.131782 -0.492313 0.000000 
0.088871 -0.538180 0.000000 
0.044532 -0.510316 0.000000 
-0.000000 -0.546716 0.000000 
-0.044532 -0.510316 0.000000 
-0.088871 -0.538180 0.000000 
-0.131782 -0.492313 0.000000 
-0.174505 -0.512879 0.000000 
0.046960 -0.119378 0.000000 
0.149405 -0.145579 0.000000 
0.098873 -0.160776 0.000000 
0.095301 -0.213424 0.000000 
0.248777 -0.168842 0.000000 
0.203197 -0.187989 0.000000 
0.205981 -0.246192 0.000000 
0.148617 -0.256429 0.000000 
0.140093 -0.305128 0.000000 
0.347255 -0.191515 0.000000 
0.303554 -0.211673 0.000000 
0.309886 -0.272218 0.000000 
0.257893 -0.287591 0.000000 
0.254475 -0.341701 0.000000 
0.194039 -0.349000 0.000000 
0.184111 -0.396091 0.000000 
0.445733 -0.214189 0.000000 
0.403017 -0.234767 0.000000 
0.412122 -0.296914 0.000000 
0.362692 -0.314207 0.000000 
0.363386 -0.371719 0.000000 
0.307162 -0.383840 0.000000 
0.301302 -0.435878 0.000000 
0.238687 -0.440831 0.000000 
0.228129 -0.487055 0.000000 
0.058559 -0.068562 0.000000 
0.142917 -0.004804 0.000000 
0.123292 -0.053787 0.000000 
0.162226 -0.089405 0.000000 
0.223062 0.058384 0.000000 
0.209613 0.010810 0.000000 
0.256854 -0.023303 0.000000 
0.229092 -0.074534 0.000000 
0.261851 -0.111562 0.000000 
0.302189 0.121240 0.000000 
0.290702 0.074505 0.000000 
0.341985 0.041706 0.000000 
0.321587 -0.008528 0.000000 
0.361761 -0.044937 0.000000 
0.329787 -0.096739 0.000000 
0.360414 -0.133862 0.000000 
0.381315 0.184097 0.000000 
0.370772 0.137869 0.000000 
0.425037 0.106240 0.000000 
0.407738 0.056812 0.000000 
0.453135 0.021497 0.000000 
0.427556 -0.030018 0.000000 
0.464588 -0.067045 0.000000 
0.429420 -0.119087 0.000000 
0.458977 -0.156162 0.000000 
0.026061 -0.027812 0.000000 
0.028809 0.077895 0.000000 
0.054870 0.032011 0.000000 
0.106992 0.040244 0.000000 
0.029377 0.179952 0.000000 
0.058186 0.139775 0.000000 
0.114311 0.155440 0.000000 
0.137056 0.101793 0.000000 
0.186430 0.104319 0.000000 
0.029568 0.281006 0.000000 
0.058945 0.242886 0.000000 
0.116563 0.262532 0.000000 
0.143120 0.215263 0.000000 
0.196633 0.223972 0.000000 
0.217198 0.166675 0.000000 
0.265318 0.167475 0.000000 
0.029759 0.382060 0.000000 
0.059328 0.344994 0.000000 
0.117890 0.367700 0.000000 
0.145749 0.323357 0.000000 
0.201664 0.336831 0.000000 
0.225992 0.284714 0.000000 
0.278030 0.290581 0.000000 
0.296791 0.230638 0.000000 
0.344206 0.230631 0.000000 
VECTORS X_EC float 
0.338794 0.875459 0.000000 
-0.609100 -0.043290 0.000000 
0.713312 0.067851 0.000000 
0.374519 -0.551578 0.000000 
0.423588 -0.908309 0.000000 
-0.218274 -0.874205 0.000000 
-0.513962 0.401556 0.000000 
0.756418 0.613042 0.000000 
0.381900 0.070650 0.000000 
-0.550868 0.239088 0.000000 
0.823577 0.249884 0.000000 
0.556234 -0.523620 0.000000 
-0.139443 -0.406052 0.000000 
-0.484677 0.955824 0.000000 
0.766286 -0.778961 0.000000 
0.384386 0.706419 0.000000 
0.474677 -0.613515 0.000000 
-0.141715 -0.613612 0.000000 
-0.385608 0.577160 0.000000 
0.937896 0.656356 0.000000 
0.621631 -0.047224 0.000000 
-0.105264 0.134675 0.000000 
-0.467428 -0.463951 0.000000 
0.771260 -0.157423 0.000000 
0.386873 -0.657812 0.000000 
0.761262 -0.574407 0.000000 
0.108942 -0.293030 0.000000 
-0.397202 -0.773869 0.000000 
-0.142083 0.564855 0.000000 
-0.595936 0.006081 0.000000 
0.978194 -0.493785 0.000000 
-0.660903 0.814590 0.000000 
0.724964 0.354070 0.000000 
0.899809 -0.288179 0.000000 
0.685384 0.307133 0.000000 
0.287229 -0.194026 0.000000 
0.702895 -0.893354 0.000000 
0.180633 0.615127 0.000000 
0.445811 -0.063032 0.000000 
-0.220880 -0.505818 0.000000 
-0.071546 0.863256 0.000000 
-0.033296 0.608185 0.000000 
-0.417537 0.107675 0.000000 
0.039645 -0.594887 0.000000 
-0.441768 0.905242 0.000000 
-0.109248 0.209791 0.000000 
-0.699407 -0.266965 0.000000 
-0.474522 -0.934244 0.000000 
0.820030 0.638763 0.000000 
0.957100 0.014691 0.000000 
0.610485 0.111600 0.000000 
-0.761092 -0.618781 0.000000 
-0.714655 0.670482 0.000000 
-0.057734 0.465314 0.000000 
-0.178789 0.619223 0.000000 
-0.067979 -0.038203 0.000000 
0.677748 -0.176406 0.000000 
0.641556 -0.962151 0.000000 
-0.765897 0.779370 0.000000 
0.393446 -0.152768 0.000000 
0.522510 -0.788498 0.000000 
-0.691820 -0.887042 0.000000 
-0.647393 0.382476 0.000000 
0.028512 0.174949 0.000000 
-0.053800 -0.642411 0.000000 
0.514316 -0.914542 0.000000 
0.965681 -0.924759 0.000000 
-0.897068 0.451213 0.000000 
-0.083078 0.384360 0.000000 
-0.006893 -0.318165 0.000000 
0.724017 -0.481798 0.000000 
0.714996 0.741799 0.000000 
-0.642413 0.508341 0.000000 
-0.760780 -0.330639 0.000000 
-0.205471 -0.608455 0.000000 
0.000000 0.416901 0.000000 
-0.564049 -0.281286 0.000000 
0.000000 -0.686722 0.000000 
0.564049 -0.281286 0.000000 
0.866949 0.963369 0.000000 
-0.569003 0.643438 0.000000 
0.000000 -0.837274 0.000000 
0.569003 0.643438 0.000000 
-0.866949 0.963369 0.000000 
0.299194 0.193620 0.000000 
0.858290 -0.097964 0.000000 
-0.577662 0.478481 0.000000 
0.000000 0.059103 0.000000 
0.577662 0.478481 0.000000 
-0.858290 -0.097964 0.000000 
-0.299194 0.193620 0.000000 
-0.268560 -0.576130 0.000000 
0.286830 -0.853772 0.000000 
0.844677 -0.234574 0.000000 
-0.578910 -0.610736 0.000000 
0.000000 -0.119333 0.000000 
0.578910 -0.610736 0.000000 
-0.844677 -0.234574 0.000000 
-0.286830 -0.853772 0.000000 
0.268560 -0.576130 0.000000 
-0.610485 0.111600 0.000000 
0.057734 0.465314 0.000000 
0.714655 0.670482 0.000000 
0.761092 -0.618781 0.000000 
0.765897 0.779370 0.000000 
-0.641556 -0.962151 0.000000 
-0.677748 -0.176406 0.000000 
0.067979 -0.038203 0.000000 
0.178789 0.619223 0.000000 
-0.514316 -0.914542 0.000000 
0.053800 -0.642411 0.000000 
-0.028512 0.174949 0.000000 
0.647393 0.382476 0.000000 
0.691820 -0.887042 0.000000 
-0.522510 -0.788498 0.000000 
-0.393446 -0.152768 0.000000 
0.205471 -0.608455 0.000000 
0.760780 -0.330639 0.000000 
0.642413 0.508341 0.000000 
-0.714996 0.741799 0.000000 
-0.724017 -0.481798 0.000000 
0.006894 -0.318165 0.000000 
0.083078 0.384360 0.000000 
0.897068 0.451213 0.000000 
-0.965681 -0.924759 0.000000 
-0.761262 -0.574407 0.000000 
0.142083 0.564855 0.000000 
0.397202 -0.773869 0.000000 
-0.108942 -0.293030 0.000000 
-0.899809 -0.288179 0.000000 
-0.724964 0.354070 0.000000 
0.660903 0.814590 0.000000 
-0.978194 -0.493785 0.000000 
0.595936 0.006081 0.000000 
0.071546 0.863256 0.000000 
0.220880 -0.505818 0.000000 
-0.445811 -0.063032 0.000000 
-0.180633 0.615127 0.000000 
-0.702895 -0.893354 0.000000 
-0.287229 -0.194026 0.000000 
-0.685384 0.307133 0.000000 
-0.957100 0.014691 0.000000 
-0.820030 0.638763 0.000000 
0.474522 -0.934244 0.000000 
0.699407 -0.266964 0.000000 
0.109248 0.209791 0.000000 
0.441768 0.905242 0.000000 
-0.039645 -0.594887 0.000000 
0.417537 0.107675 0.000000 
0.033296 0.608185 0.000000 
-0.338794 0.875459 0.000000 
-0.374519 -0.551578 0.000000 
-0.713312 0.067851 0.000000 
0.609100 -0.043290 0.000000 
-0.381900 0.070650 0.000000 
-0.756418 0.613042 0.000000 
0.513962 0.401556 0.000000 
0.218274 -0.874205 0.000000 
-0.423588 -0.908309 0.000000 
-0.384386 0.706419 0.000000 
-0.766286 -0.778961 0.000000 
0.484677 0.955824 0.000000 
0.139443 -0.406052 0.000000 
-0.556234 -0.523620 0.000000 
-0.823577 0.249884 0.000000 
0.550868 0.239088 0.000000 
-0.386873 -0.657812 0.000000 
-0.771260 -0.157423 0.000000 
0.467428 -0.463951 0.000000 
0.105264 0.134675 0.000000 
-0.621631 -0.047224 0.000000 
-0.937896 0.656356 0.000000 
0.385608 0.577160 0.000000 
0.141715 -0.613612 0.000000 
-0.474677 -0.613515 0.000000 
CELL_DATA 175 
SCALARS MASS float 
LOOKUP_TABLE default 
0.078183 
0.086427 
0.094672 
0.086427 
0.088131 
0.092111 
0.085854 
0.092111 
0.088131 
0.088705 
0.091000 
0.086983 
0.091556 
0.086983 
0.091000 
0.088705 
0.089278 
0.091574 
0.089278 
0.092722 
0.089278 
0.092722 
0.089278 
0.091574 
0.089278 
0.078183 
0.086427 
0.094672 
0.086427 
0.088131 
0.092111 
0.085854 
0.092111 
0.088131 
0.088705 
0.091000 
0.086983 
0.091556 
0.086983 
0.091000 
0.088705 
0.089278 
0.091574 
0.089278 
0.092722 
0.089278 
0.092722 
0.089278 
0.091574 
0.089278 
0.078183 
0.086427 
0.094672 
0.086427 
0.088131 
0.092111 
0.085854 
0.092111 
0.088131 
0.088705 
0.091000 
0.086983 
0.091556 
0.086983 
0.091000 
0.088705 
0.089278 
0.091574 
0.089278 
0.092722 
0.089278 
0.092722 
0.089278 
0.091574 
0.089278 
0.078183 
0.086427 
0.094672 
0.086427 
0.088131 
0.092111 
0.085854 
0.092111 
0.088131 
0.088705 
0.091000 
0.086983 
0.091556 
0.086983 
0.091000 
0.088705 
0.089278 
0.091574 
0.089278 
0.092722 
0.089278 
0.092722 
0.089278 
0.091574 
0.089278 
0.078183 
0.086427 
0.094672 
0.086427 
0.088131 
0.092111 
0.085854 
0.092111 
0.088131 
0.088705 
0.091000 
0.086983 
0.091556 
0.086983 
0.091000 
0.088705 
0.089278 
0.091574 
0.089278 
0.092722 
0.089278 
0.092722 
0.089278 
0.091574 
0.089278 
0.078183 
0.086427 
0.094672 
0.086427 
0.088131 
0.092111 
0.085854 
0.092111 
0.088131 
0.088705 
0.091000 
0.086983 
0.091556 
0.086983 
0.091000 
0.088705 
0.089278 
0.091574 
0.089278 
0.092722 
0.089278 
0.092722 
0.089278 
0.091574 
0.089278 
0.078183 
0.086427 
0.094672 
0.086427 
0.088131 
0.092111 
0.085854 
0.092111 
0.088131 
0.088705 
0.091000 
0.086983 
0.091556 
0.086983 
0.091000 
0.088705 
0.089278 
0.091574 
0.089278 
0.092722 
0.089278 
0.092722 
0.089278 
0.091574 
0.089278 
SCALARS MASS float 
LOOKUP_TABLE default 
0.078183 
0.086427 
0.094672 
0.086427 
0.088131 
0.092111 
0.085854 
0.092111 
0.088131 
0.088705 
0.091000 
0.086983 
0.091556 
0.086983 
0.091000 
0.088705 
0.089278 
0.091574 
0.089278 
0.092722 
0.089278 
0.092722 
0.089278 
0.091574 
0.089278 
0.078183 
0.086427 
0.094672 
0.086427 
0.088131 
0.092111 
0.085854 
0.092111 
0.088131 
0.088705 
0.091000 
0.086983 
0.091556 
0.086983 
0.091000 
0.088705 
0.089278 
0.091574 
0.089278 
0.092722 
0.089278 
0.092722 
0.089278 
0.091574 
0.089278 
0.078183 
0.086427 
0.094672 
0.086427 
0.088131 
0.092111 
0.085854 
0.092111 
0.088131 
0.088705 
0.091000 
0.086983 
0.091556 
0.086983 
0.091000 
0.088705 
0.089278 
0.091574 
0.089278 
0.092722 
0.089278 
0.092722 
0.089278 
0.091574 
0.089278 
0.078183 
0.086427 
0.094672 
0.086427 
0.088131 
0.092111 
0.085854 
0.092111 
0.088131 
0.088705 
0.091000 
0.086983 
0.091556 
0.086983 
0.091000 
0.088705 
0.089278 
0.091574 
0.089278 
0.092722 
0.089278 
0.092722 
0.089278 
0.091574 
0.089278 
0.078183 
0.086427 
0.094672 
0.086427 
0.088131 
0.092111 
0.085854 
0.092111 
0.088131 
0.088705 
0.091000 
0.086983 
0.091556 
0.086983 
0.091000 
0.088705 
0.089278 
0.091574 
0.089278 
0.092722 
0.089278 
0.092722 
0.089278 
0.091574 
0.089278 
0.078183 
0.086427 
0.094672 
0.086427 
0.088131 
0.092111 
0.085854 
0.092111 
0.088131 
0.088705 
0.091000 
0.086983 
0.091556 
0.086983 
0.091000 
0.088705 
0.089278 
0.091574 
0.089278 
0.092722 
0.089278 
0.092722 
0.089278 
0.091574 
0.089278 
0.078183 
0.086427 
0.094672 
0.086427 
0.088131 
0.092111 
0.085854 
0.092111 
0.088131 
0.088705 
0.091000 
0.086983 
0.091556 
0.086983 
0.091000 
0.088705 
0.089278 
0.091574 
0.089278 
0.092722 
0.089278 
0.092722 
0.089278 
0.091574 
0.089278 
SCALARS DENSITY float 
LOOKUP_TABLE default 
20.000000 
20.000000 
20.000000 
20.000000 
20.000000 
20.000000 
20.000000 
20.000000 
20.000000 
20.000000 
20.000000 
20.000000 
20.000000 
20.000000 
20.000000 
20.000000 
20.000000 
20.000000 
20.000000 
20.000000 
20.000000 
20.000000 
20.000000 
20.000000 
20.000000 
20.000000 
20.000000 
20.000000 
20.000000 
20.000000 
20.000000 
20.000000 
20.000000 
20.000000 
20.000000 
20.000000 
20.000000 
20.000000 
20.000000 
20.000000 
20.000000 
20.000000 
20.000000 
20.000000 
20.000000 
20.000000 
20.000000 
20.000000 
20.000000 
20.000000 
20.000000 
20.000000 
20.000000 
20.000000 
20.000000 
20.000000 
20.000000 
20.000000 
20.000000 
20.000000 
20.000000 
20.000000 
20.000000 
20.000000 
20.000000 
20.000000 
20.000000 
20.000000 
20.000000 
20.000000 
20.000000 
20.000000 
20.000000 
20.000000 
20.000000 
20.000000 
20.000000 
20.000000 
20.000000 
20.000000 
20.000000 
20.000000 
20.000000 
20.000000 
20.000000 
20.000000 
20.000000 
20.000000 
20.000000 
20.000000 
20.000000 
20.000000 
20.000000 
20.000000 
20.000000 
20.000000 
20.000000 
20.000000 
20.000000 
20.000000 
20.000000 
20.000000 
20.000000 
20.000000 
20.000000 
20.000000 
20.000000 
20.000000 
20.000000 
20.000000 
20.000000 
20.000000 
20.000000 
20.000000 
20.000000 
20.000000 
20.000000 
20.000000 
20.000000 
20.000000 
20.000000 
20.000000 
20.000000 
20.000000 
20.000000 
20.000000 
20.000000 
20.000000 
20.000000 
20.000000 
20.000000 
20.000000 
20.000000 
20.000000 
20.000000 
20.000000 
20.000000 
20.000000 
20.000000 
20.000000 
20.000000 
20.000000 
20.000000 
20.000000 
20.000000 
20.000000 
20.000000 
20.000000 
20.000000 
20.000000 
20.000000 
20.000000 
20.000000 
20.000000 
20.000000 
20.000000 
20.000000 
20.000000 
20.000000 
20.000000 
20.000000 
20.000000 
20.000000 
20.000000 
20.000000 
20.000000 
20.000000 
20.000000 
20.000000 
20.000000 
20.000000 
20.000000 
20.000000 
20.000000 
20.000000 
SCALARS ELEM_i float 
LOOKUP_TABLE default 
182 
209 
182 
182 
209 
209 
210 
183 
183 
237 
210 
210 
210 
211 
183 
184 
237 
237 
238 
211 
211 
211 
211 
184 
184 
181 
208 
208 
209 
235 
208 
236 
209 
209 
235 
235 
235 
236 
236 
236 
237 
262 
262 
262 
263 
263 
263 
263 
237 
237 
181 
207 
208 
208 
207 
207 
207 
207 
235 
206 
206 
233 
234 
234 
234 
234 
205 
233 
233 
233 
233 
234 
261 
261 
261 
181 
180 
180 
180 
153 
180 
179 
180 
207 
152 
152 
179 
179 
179 
206 
206 
151 
151 
151 
178 
178 
178 
205 
205 
205 
181 
154 
154 
153 
127 
153 
153 
153 
153 
126 
126 
126 
126 
125 
152 
152 
99 
99 
99 
126 
125 
125 
125 
125 
151 
181 
155 
154 
154 
155 
155 
128 
154 
127 
129 
128 
128 
128 
127 
127 
127 
129 
129 
101 
101 
101 
101 
100 
100 
100 
182 
182 
182 
155 
183 
183 
156 
155 
155 
184 
183 
157 
156 
156 
156 
129 
184 
184 
157 
157 
157 
157 
130 
129 
129 
VECTORS VELOCITY float 
-0.000000 -1.267452 0.000000 
-0.000000 -1.267452 0.000000 
-0.000000 -1.267452 0.000000 
-0.000000 -1.267452 0.000000 
0.000000 -1.267452 0.000000 
-0.000000 -1.267452 0.000000 
-0.000000 -1.267452 0.000000 
-0.000000 -1.267452 0.000000 
-0.000000 -1.267452 0.000000 
-0.000000 -1.267452 0.000000 
-0.000000 -1.267452 0.000000 
-0.000000 -1.267452 0.000000 
-0.000000 -1.267452 0.000000 
-0.000000 -1.267452 0.000000 
-0.000000 -1.267452 0.000000 
-0.000000 -1.267452 0.000000 
-0.000000 -1.267452 0.000000 
-0.000000 -1.267452 0.000000 
-0.000000 -1.267452 0.000000 
-0.000000 -1.267452 0.000000 
-0.000000 -1.267452 0.000000 
-0.000000 -1.267452 0.000000 
-0.000000 -1.267452 0.000000 
0.000000 -1.267452 0.000000 
-0.000000 -1.267452 0.000000 
-0.000000 -1.267452 0.000000 
0.000000 -1.267452 0.000000 
-0.000000 -1.267452 0.000000 
-0.000000 -1.267452 0.000000 
0.000000 -1.267452 0.000000 
0.000000 -1.267452 0.000000 
0.000000 -1.267452 0.000000 
-0.000000 -1.267452 0.000000 
0.000000 -1.267452 0.000000 
0.000000 -1.267452 0.000000 
0.000000 -1.267452 0.000000 
0.000000 -1.267452 0.000000 
0.000000 -1.267452 0.000000 
0.000000 -1.267452 0.000000 
0.000000 -1.267452 0.000000 
0.000000 -1.267452 0.000000 
-0.000000 -1.267452 0.000000 
-0.000000 -1.267452 0.000000 
-0.000000 -1.267452 0.000000 
0.000000 -1.267452 0.000000 
0.000000 -1.267452 0.000000 
0.000000 -1.267452 0.000000 
-0.000000 -1.267452 0.000000 
-0.000000 -1.267452 0.000000 
-0.000000 -1.267452 0.000000 
0.000000 -1.267452 0.000000 
0.000000 -1.267452 0.000000 
0.000000 -1.267452 0.000000 
0.000000 -1.267452 0.000000 
0.000000 -1.267452 0.000000 
0.000000 -1.267452 0.000000 
0.000000 -1.267452 0.000000 
0.000000 -1.267452 0.000000 
0.000000 -1.267452 0.000000 
0.000000 -1.267452 0.000000 
0.000000 -1.267452 0.000000 
0.000000 -1.267452 0.000000 
0.000000 -1.267452 0.000000 
0.000000 -1.267452 0.000000 
0.000000 -1.267452 0.000000 
0.000000 -1.267452 0.000000 
0.000000 -1.267452 0.000000 
0.000000 -1.267452 0.000000 
-0.000000 -1.267452 0.000000 
-0.000000 -1.267452 0.000000 
-0.000000 -1.267452 0.000000 
0.000000 -1.267452 0.000000 
0.000000 -1.267452 0.000000 
0.000000 -1.267452 0.000000 
-0.000000 -1.267452 0.000000 
-0.000000 -1.267452 0.000000 
-0.000000 -1.267452 0.000000 
0.000000 -1.267452 0.000000 
0.000000 -1.267452 0.000000 
0.000000 -1.267452 0.000000 
0.000000 -1.267452 0.000000 
0.000000 -1.267452 0.000000 
0.000000 -1.267452 0.000000 
-0.000000 -1.267452 0.000000 
-0.000000 -1.267452 0.000000 
0.000000 -1.267452 0.000000 
-0.000000 -1.267452 0.000000 
0.000000 -1.267452 0.000000 
0.000000 -1.267452 0.000000 
0.000000 -1.267452 0.000000 
0.000000 -1.267452 0.000000 
-0.000000 -1.267452 0.000000 
-0.000000 -1.267452 0.000000 
0.000000 -1.267452 0.000000 
0.000000 -1.267452 0.000000 
-0.000000 -1.267452 0.000000 
-0.000000 -1.267452 0.000000 
-0.000000 -1.267452 0.000000 
0.000000 -1.267452 0.000000 
0.000000 -1.267452 0.000000 
-0.000000 -1.267452 0.000000 
0.000000 -1.267452 0.000000 
-0.000000 -1.267452 0.000000 
-0.000000 -1.267452 0.000000 
0.000000 -1.267452 0.000000 
0.000000 -1.267452 0.000000 
0.000000 -1.267452 0.000000 
0.000000 -1.267452 0.000000 
0.000000 -1.267452 0.000000 
-0.000000 -1.267452 0.000000 
0.000000 -1.267452 0.000000 
-0.000000 -1.267452 0.000000 
-0.000000 -1.267452 0.000000 
-0.000000 -1.267452 0.000000 
-0.000000 -1.267452 0.000000 
-0.000000 -1.267452 0.000000 
0.000000 -1.267452 0.000000 
0.000000 -1.267452 0.000000 
0.000000 -1.267452 0.000000 
-0.000000 -1.267452 0.000000 
0.000000 -1.267452 0.000000 
0.000000 -1.267452 0.000000 
0.000000 -1.267452 0.000000 
-0.000000 -1.267452 0.000000 
-0.000000 -1.267452 0.000000 
0.000000 -1.267452 0.000000 
0.000000 -1.267452 0.000000 
0.000000 -1.267452 0.000000 
0.000000 -1.267452 0.000000 
-0.000000 -1.267452 0.000000 
0.000000 -1.267452 0.000000 
0.000000 -1.267452 0.000000 
0.000000 -1.267452 0.000000 
0.000000 -1.267452 0.000000 
0.000000 -1.267452 0.000000 
0.000000 -1.267452 0.000000 
0.000000 -1.267452 0.000000 
0.000000 -1.267452 0.000000 
0.000000 -1.267452 0.000000 
0.000000 -1.267452 0.000000 
0.000000 -1.267452 0.000000 
-0.000000 -1.267452 0.000000 
0.000000 -1.267452 0.000000 
0.000000 -1.267452 0.000000 
0.000000 -1.267452 0.000000 
0.000000 -1.267452 0.000000 
-0.000000 -1.267452 0.000000 
-0.000000 -1.267452 0.000000 
-0.000000 -1.267452 0.000000 
-0.000000 -1.267452 0.000000 
0.000000 -1.267452 0.000000 
0.000000 -1.267452 0.000000 
0.000000 -1.267452 0.000000 
0.000000 -1.267452 0.000000 
-0.000000 -1.267452 0.000000 
0.000000 -1.267452 0.000000 
0.000000 -1.267452 0.000000 
0.000000 -1.267452 0.000000 
0.000000 -1.267452 0.000000 
-0.000000 -1.267452 0.000000 
-0.000000 -1.267452 0.000000 
-0.000000 -1.267452 0.000000 
-0.000000 -1.267452 0.000000 
-0.000000 -1.267452 0.000000 
-0.000000 -1.267452 0.000000 
-0.000000 -1.267452 0.000000 
-0.000000 -1.267452 0.000000 
-0.000000 -1.267452 0.000000 
0.000000 -1.267452 0.000000 
-0.000000 -1.267452 0.000000 
-0.000000 -1.267452 0.000000 
-0.000000 -1.267452 0.000000 
0.000000 -1.267452 0.000000 
-0.000000 -1.267452 0.000000 
-0.000000 -1.267452 0.000000 
TENSORS STRESS float 
0.000000 -0.000000 0.000000 
0.000000 0.000000 0.000000 
0.000000 0.000000 0.000000 

-0.000000 0.000000 0.000000 
0.000000 -0.000000 0.000000 
0.000000 0.000000 0.000000 

0.000000 -0.000000 0.000000 
0.000000 -0.000000 0.000000 
0.000000 0.000000 0.000000 

0.000000 -0.000000 0.000000 
0.000000 0.000000 0.000000 
0.000000 0.000000 0.000000 

-0.000000 0.000000 0.000000 
0.000000 0.000000 0.000000 
0.000000 0.000000 0.000000 

0.000000 0.000000 0.000000 
0.000000 0.000000 0.000000 
0.000000 0.000000 0.000000 

-0.000000 0.000000 0.000000 
0.000000 -0.000000 0.000000 
0.000000 0.000000 0.000000 

0.000000 0.000000 0.000000 
0.000000 -0.000000 0.000000 
0.000000 0.000000 0.000000 

0.000000 0.000000 0.000000 
0.000000 -0.000000 0.000000 
0.000000 0.000000 0.000000 

0.000000 0.000000 0.000000 
0.000000 0.000000 0.000000 
0.000000 0.000000 0.000000 

-0.000000 0.000000 0.000000 
0.000000 -0.000000 0.000000 
0.000000 0.000000 0.000000 

-0.000000 -0.000000 0.000000 
0.000000 -0.000000 0.000000 
0.000000 0.000000 0.000000 

-0.000000 0.000000 0.000000 
0.000000 -0.000000 0.000000 
0.000000 0.000000 0.000000 

0.000000 -0.000000 0.000000 
0.000000 0.000000 0.000000 
0.000000 0.000000 0.000000 

-0.000000 0.000000 0.000000 
0.000000 0.000000 0.000000 
0.000000 0.000000 0.000000 

-0.000000 0.000000 0.000000 
0.000000 -0.000000 0.000000 
0.000000 0.000000 0.000000 

0.000000 -0.000000 0.000000 
0.000000 -0.000000 0.000000 
0.000000 0.000000 0.000000 

0.000000 0.000000 0.000000 
0.000000 0.000000 0.000000 
0.000000 0.000000 0.000000 

-0.000000 -0.000000 0.000000 
0.000000 -0.000000 0.000000 
0.000000 0.000000 0.000000 

-0.000000 -0.000000 0.000000 
0.000000 -0.000000 0.000000 
0.000000 0.000000 0.000000 

0.000000 -0.000000 0.000000 
0.000000 0.000000 0.000000 
0.000000 0.000000 0.000000 

0.000000 0.000000 0.000000 
0.000000 -0.000000 0.000000 
0.000000 0.000000 0.000000 

-0.000000 -0.000000 0.000000 
0.000000 -0.000000 0.000000 
0.000000 0.000000 0.000000 

-0.000000 0.000000 0.000000 
0.000000 0.000000 0.000000 
0.000000 0.000000 0.000000 

-0.000000 0.000000 0.000000 
0.000000 0.000000 0.000000 
0.000000 0.000000 0.000000 

-0.000000 -0.000000 0.000000 
0.000000 -0.000000 0.000000 
0.000000 0.000000 0.000000 

-0.000000 -0.000000 0.000000 
0.000000 -0.000000 0.000000 
0.000000 0.000000 0.000000 

0.000000 0.000000 0.000000 
0.000000 0.000000 0.000000 
0.000000 0.000000 0.000000 

-0.000000 0.000000 0.000000 
0.000000 -0.000000 0.000000 
0.000000 0.000000 0.000000 

-0.000000 0.000000 0.000000 
0.000000 -0.000000 0.000000 
0.000000 0.000000 0.000000 

-0.000000 -0.000000 0.000000 
0.000000 -0.000000 0.000000 
0.000000 0.000000 0.000000 

-0.000000 0.000000 0.000000 
0.000000 -0.000000 0.000000 
0.000000 0.000000 0.000000 

-0.000000 0.000000 0.000000 
0.000000 -0.000000 0.000000 
0.000000 0.000000 0.000000 

-0.000000 0.000000 0.000000 
0.000000 -0.000000 0.000000 
0.000000 0.000000 0.000000 

-0.000000 0.000000 0.000000 
0.000000 -0.000000 0.000000 
0.000000 0.000000 0.000000 

-0.000000 0.000000 0.000000 
0.000000 -0.000000 0.000000 
0.000000 0.000000 0.000000 

-0.000000 -0.000000 0.000000 
0.000000 -0.000000 0.000000 
0.000000 0.000000 0.000000 

-0.000000 -0.000000 0.000000 
0.000000 -0.000000 0.000000 
0.000000 0.000000 0.000000 

-0.000000 0.000000 0.000000 
0.000000 -0.000000 0.000000 
0.000000 0.000000 0.000000 

0.000000 0.000000 0.000000 
0.000000 0.000000 0.000000 
0.000000 0.000000 0.000000 

0.000000 0.000000 0.000000 
0.000000 0.000000 0.000000 
0.000000 0.000000 0.000000 

-0.000000 0.000000 0.000000 
0.000000 -0.000000 0.000000 
0.000000 0.000000 0.000000 

-0.000000 0.000000 0.000000 
0.000000 -0.000000 0.000000 
0.000000 0.000000 0.000000 

0.000000 0.000000 0.000000 
0.000000 0.000000 0.000000 
0.000000 0.000000 0.000000 

-0.000000 -0.000000 0.000000 
0.000000 -0.000000 0.000000 
0.000000 0.000000 0.000000 

-0.000000 0.000000 0.000000 
0.000000 -0.000000 0.000000 
0.000000 0.000000 0.000000 

-0.000000 0.000000 0.000000 
0.000000 -0.000000 0.000000 
0.000000 0.000000 0.000000 

0.000000 0.000000 0.000000 
0.000000 -0.000000 0.000000 
0.000000 0.000000 0.000000 

0.000000 0.000000 0.000000 
0.000000 0.000000 0.000000 
0.000000 0.000000 0.000000 

0.000000 0.000000 0.000000 
0.000000 0.000000 0.000000 
0.000000 0.000000 0.000000 

-0.000000 -0.000000 0.000000 
0.000000 0.000000 0.000000 
0.000000 0.000000 0.000000 

-0.000000 -0.000000 0.000000 
0.000000 0.000000 0.000000 
0.000000 0.000000 0.000000 

-0.000000 -0.000000 0.000000 
0.000000 -0.000000 0.000000 
0.000000 0.000000 0.000000 

-0.000000 -0.000000 0.000000 
0.000000 -0.000000 0.000000 
0.000000 0.000000 0.000000 

0.000000 -0.000000 0.000000 
0.000000 0.000000 0.000000 
0.000000 0.000000 0.000000 

-0.000000 -0.000000 0.000000 
0.000000 -0.000000 0.000000 
0.000000 0.000000 0.000000 

-0.000000 -0.000000 0.000000 
0.000000 0.000000 0.000000 
0.000000 0.000000 0.000000 

-0.000000 -0.000000 0.000000 
0.000000 -0.000000 0.000000 
0.000000 0.000000 0.000000 

0.000000 -0.000000 0.000000 
0.000000 -0.000000 0.000000 
0.000000 0.000000 0.000000 

0.000000 0.000000 0.000000 
0.000000 -0.000000 0.000000 
0.000000 0.000000 0.000000 

-0.000000 0.000000 0.000000 
0.000000 -0.000000 0.000000 
0.000000 0.000000 0.000000 

0.000000 0.000000 0.000000 
0.000000 0.000000 0.000000 
0.000000 0.000000 0.000000 

0.000000 -0.000000 0.000000 
0.000000 0.000000 0.000000 
0.000000 0.000000 0.000000 

0.000000 -0.000000 0.000000 
0.000000 0.000000 0.000000 
0.000000 0.000000 0.000000 

0.000000 -0.000000 0.000000 
0.000000 0.000000 0.000000 
0.000000 0.000000 0.000000 

0.000000 0.000000 0.000000 
0.000000 0.000000 0.000000 
0.000000 0.000000 0.000000 

0.000000 0.000000 0.000000 
0.000000 0.000000 0.000000 
0.000000 0.000000 0.000000 

0.000000 0.000000 0.000000 
0.000000 -0.000000 0.000000 
0.000000 0.000000 0.000000 

0.000000 0.000000 0.000000 
0.000000 -0.000000 0.000000 
0.000000 0.000000 0.000000 

0.000000 0.000000 0.000000 
0.000000 -0.000000 0.000000 
0.000000 0.000000 0.000000 

0.000000 0.000000 0.000000 
0.000000 -0.000000 0.000000 
0.000000 0.000000 0.000000 

0.000000 0.000000 0.000000 
0.000000 0.000000 0.000000 
0.000000 0.000000 0.000000 

0.000000 0.000000 0.000000 
0.000000 -0.000000 0.000000 
0.000000 0.000000 0.000000 

0.000000 0.000000 0.000000 
0.000000 0.000000 0.000000 
0.000000 0.000000 0.000000 

-0.000000 0.000000 0.000000 
0.000000 -0.000000 0.000000 
0.000000 0.000000 0.000000 

-0.000000 -0.000000 0.000000 
0.000000 -0.000000 0.000000 
0.000000 0.000000 0.000000 

0.000000 -0.000000 0.000000 
0.000000 0.000000 0.000000 
0.000000 0.000000 0.000000 

-0.000000 -0.000000 0.000000 
0.000000 0.000000 0.000000 
0.000000 0.000000 0.000000 

-0.000000 -0.000000 0.000000 
0.000000 0.000000 0.000000 
0.000000 0.000000 0.000000 

-0.000000 -0.000000 0.000000 
0.000000 -0.000000 0.000000 
0.000000 0.000000 0.000000 

-0.000000 -0.000000 0.000000 
0.000000 0.000000 0.000000 
0.000000 0.000000 0.000000 

-0.000000 -0.000000 0.000000 
0.000000 -0.000000 0.000000 
0.000000 0.000000 0.000000 

-0.000000 -0.000000 0.000000 
0.000000 0.000000 0.000000 
0.000000 0.000000 0.000000 

0.000000 -0.000000 0.000000 
0.000000 0.000000 0.000000 
0.000000 0.000000 0.000000 

0.000000 -0.000000 0.000000 
0.000000 -0.000000 0.000000 
0.000000 0.000000 0.000000 

0.000000 -0.000000 0.000000 
0.000000 0.000000 0.000000 
0.000000 0.000000 0.000000 

-0.000000 -0.000000 0.000000 
0.000000 0.000000 0.000000 
0.000000 0.000000 0.000000 

-0.000000 -0.000000 0.000000 
0.000000 -0.000000 0.000000 
0.000000 0.000000 0.000000 

-0.000000 -0.000000 0.000000 
0.000000 -0.000000 0.000000 
0.000000 0.000000 0.000000 

0.000000 -0.000000 0.000000 
0.000000 -0.000000 0.000000 
0.000000 0.000000 0.000000 

-0.000000 0.000000 0.000000 
0.000000 -0.000000 0.000000 
0.000000 0.000000 0.000000 

-0.000000 0.000000 0.000000 
0.000000 -0.000000 0.000000 
0.000000 0.000000 0.000000 

-0.000000 0.000000 0.000000 
0.000000 -0.000000 0.000000 
0.000000 0.000000 0.000000 

0.000000 0.000000 0.000000 
0.000000 0.000000 0.000000 
0.000000 0.000000 0.000000 

0.000000 -0.000000 0.000000 
0.000000 0.000000 0.000000 
0.000000 0.000000 0.000000 

0.000000 -0.000000 0.000000 
0.000000 0.000000 0.000000 
0.000000 0.000000 0.000000 

0.000000 0.000000 0.000000 
0.000000 0.000000 0.000000 
0.000000 0.000000 0.000000 

0.000000 -0.000000 0.000000 
0.000000 0.000000 0.000000 
0.000000 0.000000 0.000000 

0.000000 0.000000 0.000000 
0.000000 -0.000000 0.000000 
0.000000 0.000000 0.000000 

-0.000000 -0.000000 0.000000 
0.000000 -0.000000 0.000000 
0.000000 0.000000 0.000000 

-0.000000 -0.000000 0.000000 
0.000000 -0.000000 0.000000 
0.000000 0.000000 0.000000 

-0.000000 0.000000 0.000000 
0.000000 -0.000000 0.000000 
0.000000 0.000000 0.000000 

-0.000000 0.000000 0.000000 
0.000000 -0.000000 0.000000 
0.000000 0.000000 0.000000 

-0.000000 -0.000000 0.000000 
0.000000 -0.000000 0.000000 
0.000000 0.000000 0.000000 

-0.000000 -0.000000 0.000000 
0.000000 0.000000 0.000000 
0.000000 0.000000 0.000000 

-0.000000 -0.000000 0.000000 
0.000000 -0.000000 0.000000 
0.000000 0.000000 0.000000 

-0.000000 -0.000000 0.000000 
0.000000 0.000000 0.000000 
0.000000 0.000000 0.000000 

-0.000000 -0.000000 0.000000 
0.000000 0.000000 0.000000 
0.000000 0.000000 0.000000 

-0.000000 -0.000000 0.000000 
0.000000 0.000000 0.000000 
0.000000 0.000000 0.000000 

-0.000000 -0.000000 0.000000 
0.000000 -0.000000 0.000000 
0.000000 0.000000 0.000000 

-0.000000 -0.000000 0.000000 
0.000000 -0.000000 0.000000 
0.000000 0.000000 0.000000 

0.000000 -0.000000 0.000000 
0.000000 -0.000000 0.000000 
0.000000 0.000000 0.000000 

0.000000 0.000000 0.000000 
0.000000 0.000000 0.000000 
0.000000 0.000000 0.000000 

0.000000 -0.000000 0.000000 
0.000000 -0.000000 0.000000 
0.000000 0.000000 0.000000 

-0.000000 -0.000000 0.000000 
0.000000 -0.000000 0.000000 
0.000000 0.000000 0.000000 

0.000000 -0.000000 0.000000 
0.000000 -0.000000 0.000000 
0.000000 0.000000 0.000000 

0.000000 -0.000000 0.000000 
0.000000 -0.000000 0.000000 
0.000000 0.000000 0.000000 

0.000000 -0.000000 0.000000 
0.000000 -0.000000 0.000000 
0.000000 0.000000 0.000000 

-0.000000 -0.000000 0.000000 
0.000000 -0.000000 0.000000 
0.000000 0.000000 0.000000 

0.000000 -0.000000 0.000000 
0.000000 -0.000000 0.000000 
0.000000 0.000000 0.000000 

0.000000 0.000000 0.000000 
0.000000 0.000000 0.000000 
0.000000 0.000000 0.000000 

0.000000 0.000000 0.000000 
0.000000 0.000000 0.000000 
0.000000 0.000000 0.000000 

-0.000000 0.000000 0.000000 
0.000000 0.000000 0.000000 
0.000000 0.000000 0.000000 

-0.000000 -0.000000 0.000000 
0.000000 -0.000000 0.000000 
0.000000 0.000000 0.000000 

0.000000 -0.000000 0.000000 
0.000000 0.000000 0.000000 
0.000000 0.000000 0.000000 

0.000000 -0.000000 0.000000 
0.000000 0.000000 0.000000 
0.000000 0.000000 0.000000 

0.000000 0.000000 0.000000 
0.000000 0.000000 0.000000 
0.000000 0.000000 0.000000 

-0.000000 0.000000 0.000000 
0.000000 -0.000000 0.000000 
0.000000 0.000000 0.000000 

-0.000000 0.000000 0.000000 
0.000000 0.000000 0.000000 
0.000000 0.000000 0.000000 

0.000000 0.000000 0.000000 
0.000000 0.000000 0.000000 
0.000000 0.000000 0.000000 

0.000000 0.000000 0.000000 
0.000000 0.000000 0.000000 
0.000000 0.000000 0.000000 

-0.000000 0.000000 0.000000 
0.000000 -0.000000 0.000000 
0.000000 0.000000 0.000000 

0.000000 0.000000 0.000000 
0.000000 0.000000 0.000000 
0.000000 0.000000 0.000000 

0.000000 -0.000000 0.000000 
0.000000 0.000000 0.000000 
0.000000 0.000000 0.000000 

-0.000000 -0.000000 0.000000 
0.000000 -0.000000 0.000000 
0.000000 0.000000 0.000000 

-0.000000 0.000000 0.000000 
0.000000 0.000000 0.000000 
0.000000 0.000000 0.000000 

-0.000000 0.000000 0.000000 
0.000000 -0.000000 0.000000 
0.000000 0.000000 0.000000 

-0.000000 0.000000 0.000000 
0.000000 0.000000 0.000000 
0.000000 0.000000 0.000000 

-0.000000 0.000000 0.000000 
0.000000 -0.000000 0.000000 
0.000000 0.000000 0.000000 

-0.000000 -0.000000 0.000000 
0.000000 0.000000 0.000000 
0.000000 0.000000 0.000000 

0.000000 -0.000000 0.000000 
0.000000 0.000000 0.000000 
0.000000 0.000000 0.000000 

-0.000000 0.000000 0.000000 
0.000000 -0.000000 0.000000 
0.000000 0.000000 0.000000 

-0.000000 0.000000 0.000000 
0.000000 -0.000000 0.000000 
0.000000 0.000000 0.000000 

-0.000000 -0.000000 0.000000 
0.000000 -0.000000 0.000000 
0.000000 0.000000 0.000000 

-0.000000 -0.000000 0.000000 
0.000000 -0.000000 0.000000 
0.000000 0.000000 0.000000 

-0.000000 -0.000000 0.000000 
0.000000 -0.000000 0.000000 
0.000000 0.000000 0.000000 

-0.000000 -0.000000 0.000000 
0.000000 -0.000000 0.000000 
0.000000 0.000000 0.000000 

-0.000000 -0.000000 0.000000 
0.000000 -0.000000 0.000000 
0.000000 0.000000 0.000000 

0.000000 -0.000000 0.000000 
0.000000 0.000000 0.000000 
0.000000 0.000000 0.000000 

0.000000 -0.000000 0.000000 
0.000000 -0.000000 0.000000 
0.000000 0.000000 0.000000 

0.000000 -0.000000 0.000000 
0.000000 0.000000 0.000000 
0.000000 0.000000 0.000000 

0.000000 0.000000 0.000000 
0.000000 0.000000 0.000000 
0.000000 0.000000 0.000000 

0.000000 0.000000 0.000000 
0.000000 0.000000 0.000000 
0.000000 0.000000 0.000000 

0.000000 0.000000 0.000000 
0.000000 0.000000 0.000000 
0.000000 0.000000 0.000000 

0.000000 0.000000 0.000000 
0.000000 0.000000 0.000000 
0.000000 0.000000 0.000000 

0.000000 0.000000 0.000000 
0.000000 0.000000 0.000000 
0.000000 0.000000 0.000000 

0.000000 -0.000000 0.000000 
0.000000 0.000000 0.000000 
0.000000 0.000000 0.000000 

-0.000000 0.000000 0.000000 
0.000000 -0.000000 0.000000 
0.000000 0.000000 0.000000 

0.000000 0.000000 0.000000 
0.000000 0.000000 0.000000 
0.000000 0.000000 0.000000 

-0.000000 0.000000 0.000000 
0.000000 -0.000000 0.000000 
0.000000 0.000000 0.000000 

-0.000000 0.000000 0.000000 
0.000000 0.000000 0.000000 
0.000000 0.000000 0.000000 

0.000000 -0.000000 0.000000 
0.000000 -0.000000 0.000000 
0.000000 0.000000 0.000000 

-0.000000 -0.000000 0.000000 
0.000000 -0.000000 0.000000 
0.000000 0.000000 0.000000 

0.000000 -0.000000 0.000000 
0.000000 0.000000 0.000000 
0.000000 0.000000 0.000000 

0.000000 -0.000000 0.000000 
0.000000 0.000000 0.000000 
0.000000 0.000000 0.000000 

-0.000000 -0.000000 0.000000 
0.000000 -0.000000 0.000000 
0.000000 0.000000 0.000000 

-0.000000 0.000000 0.000000 
0.000000 -0.000000 0.000000 
0.000000 0.000000 0.000000 

-0.000000 0.000000 0.000000 
0.000000 -0.000000 0.000000 
0.000000 0.000000 0.000000 

-0.000000 0.000000 0.000000 
0.000000 -0.000000 0.000000 
0.000000 0.000000 0.000000 

0.000000 -0.000000 0.000000 
0.000000 0.000000 0.000000 
0.000000 0.000000 0.000000 

0.000000 -0.000000 0.000000 
0.000000 0.000000 0.000000 
0.000000 0.000000 0.000000 

0.000000 -0.000000 0.000000 
0.000000 0.000000 0.000000 
0.000000 0.000000 0.000000 

0.000000 0.000000 0.000000 
0.000000 0.000000 0.000000 
0.000000 0.000000 0.000000 

0.000000 -0.000000 0.000000 
0.000000 0.000000 0.000000 
0.000000 0.000000 0.000000 

0.000000 0.000000 0.000000 
0.000000 0.000000 0.000000 
0.000000 0.000000 0.000000 

TENSORS STRAIN float 
0.000000 -0.000000 0.000000 
0.000000 0.000000 0.000000 
0.000000 0.000000 0.000000 

-0.000000 0.000000 0.000000 
0.000000 -0.000000 0.000000 
0.000000 0.000000 0.000000 

0.000000 -0.000000 0.000000 
0.000000 -0.000000 0.000000 
0.000000 0.000000 0.000000 

0.000000 -0.000000 0.000000 
0.000000 0.000000 0.000000 
0.000000 0.000000 0.000000 

-0.000000 0.000000 0.000000 
0.000000 0.000000 0.000000 
0.000000 0.000000 0.000000 

-0.000000 0.000000 0.000000 
0.000000 0.000000 0.000000 
0.000000 0.000000 0.000000 

-0.000000 0.000000 0.000000 
0.000000 -0.000000 0.000000 
0.000000 0.000000 0.000000 

0.000000 0.000000 0.000000 
0.000000 -0.000000 0.000000 
0.000000 0.000000 0.000000 

0.000000 0.000000 0.000000 
0.000000 -0.000000 0.000000 
0.000000 0.000000 0.000000 

0.000000 0.000000 0.000000 
0.000000 -0.000000 0.000000 
0.000000 0.000000 0.000000 

-0.000000 0.000000 0.000000 
0.000000 -0.000000 0.000000 
0.000000 0.000000 0.000000 

-0.000000 -0.000000 0.000000 
0.000000 -0.000000 0.000000 
0.000000 0.000000 0.000000 

-0.000000 0.000000 0.000000 
0.000000 -0.000000 0.000000 
0.000000 0.000000 0.000000 

-0.000000 -0.000000 0.000000 
0.000000 0.000000 0.000000 
0.000000 0.000000 0.000000 

-0.000000 0.000000 0.000000 
0.000000 0.000000 0.000000 
0.000000 0.000000 0.000000 

-0.000000 0.000000 0.000000 
0.000000 -0.000000 0.000000 
0.000000 0.000000 0.000000 

0.000000 -0.000000 0.000000 
0.000000 -0.000000 0.000000 
0.000000 0.000000 0.000000 

0.000000 0.000000 0.000000 
0.000000 0.000000 0.000000 
0.000000 0.000000 0.000000 

-0.000000 -0.000000 0.000000 
0.000000 0.000000 0.000000 
0.000000 0.000000 0.000000 

0.000000 -0.000000 0.000000 
0.000000 -0.000000 0.000000 
0.000000 0.000000 0.000000 

0.000000 -0.000000 0.000000 
0.000000 0.000000 0.000000 
0.000000 0.000000 0.000000 

0.000000 0.000000 0.000000 
0.000000 -0.000000 0.000000 
0.000000 0.000000 0.000000 

0.000000 -0.000000 0.000000 
0.000000 -0.000000 0.000000 
0.000000 0.000000 0.000000 

-0.000000 0.000000 0.000000 
0.000000 0.000000 0.000000 
0.000000 0.000000 0.000000 

-0.000000 0.000000 0.000000 
0.000000 0.000000 0.000000 
0.000000 0.000000 0.000000 

-0.000000 -0.000000 0.000000 
0.000000 -0.000000 0.000000 
0.000000 0.000000 0.000000 

-0.000000 -0.000000 0.000000 
0.000000 0.000000 0.000000 
0.000000 0.000000 0.000000 

-0.000000 0.000000 0.000000 
0.000000 0.000000 0.000000 
0.000000 0.000000 0.000000 

-0.000000 0.000000 0.000000 
0.000000 -0.000000 0.000000 
0.000000 0.000000 0.000000 

0.000000 0.000000 0.000000 
0.000000 -0.000000 0.000000 
0.000000 0.000000 0.000000 

-0.000000 -0.000000 0.000000 
0.000000 -0.000000 0.000000 
0.000000 0.000000 0.000000 

-0.000000 0.000000 0.000000 
0.000000 -0.000000 0.000000 
0.000000 0.000000 0.000000 

-0.000000 0.000000 0.000000 
0.000000 0.000000 0.000000 
0.000000 0.000000 0.000000 

-0.000000 0.000000 0.000000 
0.000000 -0.000000 0.000000 
0.000000 0.000000 0.000000 

0.000000 0.000000 0.000000 
0.000000 -0.000000 0.000000 
0.000000 0.000000 0.000000 

0.000000 0.000000 0.000000 
0.000000 -0.000000 0.000000 
0.000000 0.000000 0.000000 

-0.000000 -0.000000 0.000000 
0.000000 -0.000000 0.000000 
0.000000 0.000000 0.000000 

-0.000000 -0.000000 0.000000 
0.000000 -0.000000 0.000000 
0.000000 0.000000 0.000000 

0.000000 0.000000 0.000000 
0.000000 -0.000000 0.000000 
0.000000 0.000000 0.000000 

0.000000 0.000000 0.000000 
0.000000 0.000000 0.000000 
0.000000 0.000000 0.000000 

0.000000 0.000000 0.000000 
0.000000 0.000000 0.000000 
0.000000 0.000000 0.000000 

0.000000 0.000000 0.000000 
0.000000 -0.000000 0.000000 
0.000000 0.000000 0.000000 

0.000000 0.000000 0.000000 
0.000000 -0.000000 0.000000 
0.000000 0.000000 0.000000 

0.000000 0.000000 0.000000 
0.000000 0.000000 0.000000 
0.000000 0.000000 0.000000 

0.000000 -0.000000 0.000000 
0.000000 -0.000000 0.000000 
0.000000 0.000000 0.000000 

-0.000000 0.000000 0.000000 
0.000000 -0.000000 0.000000 
0.000000 0.000000 0.000000 

-0.000000 0.000000 0.000000 
0.000000 -0.000000 0.000000 
0.000000 0.000000 0.000000 

0.000000 0.000000 0.000000 
0.000000 -0.000000 0.000000 
0.000000 0.000000 0.000000 

0.000000 0.000000 0.000000 
0.000000 0.000000 0.000000 
0.000000 0.000000 0.000000 

0.000000 0.000000 0.000000 
0.000000 0.000000 0.000000 
0.000000 0.000000 0.000000 

-0.000000 -0.000000 0.000000 
0.000000 0.000000 0.000000 
0.000000 0.000000 0.000000 

-0.000000 -0.000000 0.000000 
0.000000 0.000000 0.000000 
0.000000 0.000000 0.000000 

-0.000000 -0.000000 0.000000 
0.000000 0.000000 0.000000 
0.000000 0.000000 0.000000 

-0.000000 -0.000000 0.000000 
0.000000 -0.000000 0.000000 
0.000000 0.000000 0.000000 

0.000000 -0.000000 0.000000 
0.000000 0.000000 0.000000 
0.000000 0.000000 0.000000 

-0.000000 -0.000000 0.000000 
0.000000 -0.000000 0.000000 
0.000000 0.000000 0.000000 

-0.000000 -0.000000 0.000000 
0.000000 0.000000 0.000000 
0.000000 0.000000 0.000000 

-0.000000 -0.000000 0.000000 
0.000000 0.000000 0.000000 
0.000000 0.000000 0.000000 

0.000000 -0.000000 0.000000 
0.000000 -0.000000 0.000000 
0.000000 0.000000 0.000000 

0.000000 0.000000 0.000000 
0.000000 -0.000000 0.000000 
0.000000 0.000000 0.000000 

0.000000 0.000000 0.000000 
0.000000 -0.000000 0.000000 
0.000000 0.000000 0.000000 

0.000000 0.000000 0.000000 
0.000000 -0.000000 0.000000 
0.000000 0.000000 0.000000 

0.000000 -0.000000 0.000000 
0.000000 0.000000 0.000000 
0.000000 0.000000 0.000000 

0.000000 -0.000000 0.000000 
0.000000 -0.000000 0.000000 
0.000000 0.000000 0.000000 

0.000000 -0.000000 0.000000 
0.000000 -0.000000 0.000000 
0.000000 0.000000 0.000000 

0.000000 0.000000 0.000000 
0.000000 0.000000 0.000000 
0.000000 0.000000 0.000000 

0.000000 0.000000 0.000000 
0.000000 0.000000 0.000000 
0.000000 0.000000 0.000000 

0.000000 0.000000 0.000000 
0.000000 -0.000000 0.000000 
0.000000 0.000000 0.000000 

0.000000 0.000000 0.000000 
0.000000 -0.000000 0.000000 
0.000000 0.000000 0.000000 

0.000000 0.000000 0.000000 
0.000000 -0.000000 0.000000 
0.000000 0.000000 0.000000 

0.000000 0.000000 0.000000 
0.000000 -0.000000 0.000000 
0.000000 0.000000 0.000000 

0.000000 0.000000 0.000000 
0.000000 -0.000000 0.000000 
0.000000 0.000000 0.000000 

0.000000 0.000000 0.000000 
0.000000 -0.000000 0.000000 
0.000000 0.000000 0.000000 

0.000000 0.000000 0.000000 
0.000000 -0.000000 0.000000 
0.000000 0.000000 0.000000 

-0.000000 0.000000 0.000000 
0.000000 -0.000000 0.000000 
0.000000 0.000000 0.000000 

-0.000000 -0.000000 0.000000 
0.000000 -0.000000 0.000000 
0.000000 0.000000 0.000000 

-0.000000 -0.000000 0.000000 
0.000000 0.000000 0.000000 
0.000000 0.000000 0.000000 

-0.000000 -0.000000 0.000000 
0.000000 0.000000 0.000000 
0.000000 0.000000 0.000000 

-0.000000 -0.000000 0.000000 
0.000000 0.000000 0.000000 
0.000000 0.000000 0.000000 

-0.000000 -0.000000 0.000000 
0.000000 0.000000 0.000000 
0.000000 0.000000 0.000000 

-0.000000 -0.000000 0.000000 
0.000000 0.000000 0.000000 
0.000000 0.000000 0.000000 

-0.000000 -0.000000 0.000000 
0.000000 -0.000000 0.000000 
0.000000 0.000000 0.000000 

-0.000000 -0.000000 0.000000 
0.000000 0.000000 0.000000 
0.000000 0.000000 0.000000 

0.000000 -0.000000 0.000000 
0.000000 0.000000 0.000000 
0.000000 0.000000 0.000000 

0.000000 -0.000000 0.000000 
0.000000 -0.000000 0.000000 
0.000000 0.000000 0.000000 

0.000000 -0.000000 0.000000 
0.000000 0.000000 0.000000 
0.000000 0.000000 0.000000 

-0.000000 -0.000000 0.000000 
0.000000 0.000000 0.000000 
0.000000 0.000000 0.000000 

-0.000000 -0.000000 0.000000 
0.000000 -0.000000 0.000000 
0.000000 0.000000 0.000000 

-0.000000 -0.000000 0.000000 
0.000000 -0.000000 0.000000 
0.000000 0.000000 0.000000 

0.000000 -0.000000 0.000000 
0.000000 -0.000000 0.000000 
0.000000 0.000000 0.000000 

0.000000 0.000000 0.000000 
0.000000 -0.000000 0.000000 
0.000000 0.000000 0.000000 

0.000000 0.000000 0.000000 
0.000000 -0.000000 0.000000 
0.000000 0.000000 0.000000 

0.000000 0.000000 0.000000 
0.000000 -0.000000 0.000000 
0.000000 0.000000 0.000000 

0.000000 0.000000 0.000000 
0.000000 -0.000000 0.000000 
0.000000 0.000000 0.000000 

0.000000 -0.000000 0.000000 
0.000000 -0.000000 0.000000 
0.000000 0.000000 0.000000 

0.000000 -0.000000 0.000000 
0.000000 0.000000 0.000000 
0.000000 0.000000 0.000000 

0.000000 0.000000 0.000000 
0.000000 0.000000 0.000000 
0.000000 0.000000 0.000000 

0.000000 -0.000000 0.000000 
0.000000 0.000000 0.000000 
0.000000 0.000000 0.000000 

0.000000 0.000000 0.000000 
0.000000 -0.000000 0.000000 
0.000000 0.000000 0.000000 

0.000000 -0.000000 0.000000 
0.000000 -0.000000 0.000000 
0.000000 0.000000 0.000000 

-0.000000 -0.000000 0.000000 
0.000000 -0.000000 0.000000 
0.000000 0.000000 0.000000 

-0.000000 0.000000 0.000000 
0.000000 -0.000000 0.000000 
0.000000 0.000000 0.000000 

-0.000000 0.000000 0.000000 
0.000000 -0.000000 0.000000 
0.000000 0.000000 0.000000 

-0.000000 -0.000000 0.000000 
0.000000 0.000000 0.000000 
0.000000 0.000000 0.000000 

-0.000000 -0.000000 0.000000 
0.000000 0.000000 0.000000 
0.000000 0.000000 0.000000 

-0.000000 -0.000000 0.000000 
0.000000 -0.000000 0.000000 
0.000000 0.000000 0.000000 

-0.000000 -0.000000 0.000000 
0.000000 0.000000 0.000000 
0.000000 0.000000 0.000000 

-0.000000 -0.000000 0.000000 
0.000000 0.000000 0.000000 
0.000000 0.000000 0.000000 

-0.000000 -0.000000 0.000000 
0.000000 0.000000 0.000000 
0.000000 0.000000 0.000000 

0.000000 -0.000000 0.000000 
0.000000 -0.000000 0.000000 
0.000000 0.000000 0.000000 

0.000000 -0.000000 0.000000 
0.000000 -0.000000 0.000000 
0.000000 0.000000 0.000000 

0.000000 -0.000000 0.000000 
0.000000 -0.000000 0.000000 
0.000000 0.000000 0.000000 

0.000000 0.000000 0.000000 
0.000000 -0.000000 0.000000 
0.000000 0.000000 0.000000 

0.000000 -0.000000 0.000000 
0.000000 -0.000000 0.000000 
0.000000 0.000000 0.000000 

-0.000000 -0.000000 0.000000 
0.000000 0.000000 0.000000 
0.000000 0.000000 0.000000 

0.000000 -0.000000 0.000000 
0.000000 -0.000000 0.000000 
0.000000 0.000000 0.000000 

0.000000 -0.000000 0.000000 
0.000000 -0.000000 0.000000 
0.000000 0.000000 0.000000 

0.000000 -0.000000 0.000000 
0.000000 -0.000000 0.000000 
0.000000 0.000000 0.000000 

-0.000000 -0.000000 0.000000 
0.000000 -0.000000 0.000000 
0.000000 0.000000 0.000000 

0.000000 -0.000000 0.000000 
0.000000 -0.000000 0.000000 
0.000000 0.000000 0.000000 

0.000000 0.000000 0.000000 
0.000000 0.000000 0.000000 
0.000000 0.000000 0.000000 

0.000000 0.000000 0.000000 
0.000000 -0.000000 0.000000 
0.000000 0.000000 0.000000 

-0.000000 0.000000 0.000000 
0.000000 0.000000 0.000000 
0.000000 0.000000 0.000000 

-0.000000 -0.000000 0.000000 
0.000000 0.000000 0.000000 
0.000000 0.000000 0.000000 

0.000000 -0.000000 0.000000 
0.000000 0.000000 0.000000 
0.000000 0.000000 0.000000 

-0.000000 -0.000000 0.000000 
0.000000 0.000000 0.000000 
0.000000 0.000000 0.000000 

-0.000000 0.000000 0.000000 
0.000000 0.000000 0.000000 
0.000000 0.000000 0.000000 

-0.000000 0.000000 0.000000 
0.000000 -0.000000 0.000000 
0.000000 0.000000 0.000000 

-0.000000 0.000000 0.000000 
0.000000 0.000000 0.000000 
0.000000 0.000000 0.000000 

0.000000 0.000000 0.000000 
0.000000 0.000000 0.000000 
0.000000 0.000000 0.000000 

-0.000000 0.000000 0.000000 
0.000000 0.000000 0.000000 
0.000000 0.000000 0.000000 

-0.000000 0.000000 0.000000 
0.000000 -0.000000 0.000000 
0.000000 0.000000 0.000000 

-0.000000 0.000000 0.000000 
0.000000 0.000000 0.000000 
0.000000 0.000000 0.000000 

-0.000000 -0.000000 0.000000 
0.000000 0.000000 0.000000 
0.000000 0.000000 0.000000 

-0.000000 -0.000000 0.000000 
0.000000 -0.000000 0.000000 
0.000000 0.000000 0.000000 

-0.000000 0.000000 0.000000 
0.000000 0.000000 0.000000 
0.000000 0.000000 0.000000 

-0.000000 0.000000 0.000000 
0.000000 0.000000 0.000000 
0.000000 0.000000 0.000000 

-0.000000 0.000000 0.000000 
0.000000 0.000000 0.000000 
0.000000 0.000000 0.000000 

-0.000000 0.000000 0.000000 
0.000000 -0.000000 0.000000 
0.000000 0.000000 0.000000 

-0.000000 -0.000000 0.000000 
0.000000 0.000000 0.000000 
0.000000 0.000000 0.000000 

-0.000000 -0.000000 0.000000 
0.000000 0.000000 0.000000 
0.000000 0.000000 0.000000 

0.000000 0.000000 0.000000 
0.000000 -0.000000 0.000000 
0.000000 0.000000 0.000000 

-0.000000 0.000000 0.000000 
0.000000 -0.000000 0.000000 
0.000000 0.000000 0.000000 

-0.000000 -0.000000 0.000000 
0.000000 -0.000000 0.000000 
0.000000 0.000000 0.000000 

-0.000000 -0.000000 0.000000 
0.000000 -0.000000 0.000000 
0.000000 0.000000 0.000000 

-0.000000 -0.000000 0.000000 
0.000000 -0.000000 0.000000 
0.000000 0.000000 0.000000 

-0.000000 -0.000000 0.000000 
0.000000 -0.000000 0.000000 
0.000000 0.000000 0.000000 

-0.000000 -0.000000 0.000000 
0.000000 -0.000000 0.000000 
0.000000 0.000000 0.000000 

0.000000 -0.000000 0.000000 
0.000000 0.000000 0.000000 
0.000000 0.000000 0.000000 

0.000000 -0.000000 0.000000 
0.000000 -0.000000 0.000000 
0.000000 0.000000 0.000000 

0.000000 -0.000000 0.000000 
0.000000 0.000000 0.000000 
0.000000 0.000000 0.000000 

0.000000 0.000000 0.000000 
0.000000 0.000000 0.000000 
0.000000 0.000000 0.000000 

0.000000 0.000000 0.000000 
0.000000 0.000000 0.000000 
0.000000 0.000000 0.000000 

0.000000 0.000000 0.000000 
0.000000 0.000000 0.000000 
0.000000 0.000000 0.000000 

0.000000 0.000000 0.000000 
0.000000 0.000000 0.000000 
0.000000 0.000000 0.000000 

0.000000 0.000000 0.000000 
0.000000 0.000000 0.000000 
0.000000 0.000000 0.000000 

0.000000 -0.000000 0.000000 
0.000000 0.000000 0.000000 
0.000000 0.000000 0.000000 

0.000000 0.000000 0.000000 
0.000000 -0.000000 0.000000 
0.000000 0.000000 0.000000 

0.000000 0.000000 0.000000 
0.000000 0.000000 0.000000 
0.000000 0.000000 0.000000 

-0.000000 0.000000 0.000000 
0.000000 -0.000000 0.000000 
0.000000 0.000000 0.000000 

-0.000000 0.000000 0.000000 
0.000000 0.000000 0.000000 
0.000000 0.000000 0.000000 

0.000000 -0.000000 0.000000 
0.000000 -0.000000 0.000000 
0.000000 0.000000 0.000000 

0.000000 -0.000000 0.000000 
0.000000 -0.000000 0.000000 
0.000000 0.000000 0.000000 

0.000000 -0.000000 0.000000 
0.000000 0.000000 0.000000 
0.000000 0.000000 0.000000 

0.000000 -0.000000 0.000000 
0.000000 0.000000 0.000000 
0.000000 0.000000 0.000000 

-0.000000 -0.000000 0.000000 
0.000000 0.000000 0.000000 
0.000000 0.000000 0.000000 

-0.000000 0.000000 0.000000 
0.000000 -0.000000 0.000000 
0.000000 0.000000 0.000000 

-0.000000 0.000000 0.000000 
0.000000 -0.000000 0.000000 
0.000000 0.000000 0.000000 

0.000000 0.000000 0.000000 
0.000000 -0.000000 0.000000 
0.000000 0.000000 0.000000 

0.000000 -0.000000 0.000000 
0.000000 0.000000 0.000000 
0.000000 0.000000 0.000000 

0.000000 -0.000000 0.000000 
0.000000 0.000000 0.000000 
0.000000 0.000000 0.000000 

0.000000 -0.000000 0.000000 
0.000000 0.000000 0.000000 
0.000000 0.000000 0.000000 

0.000000 0.000000 0.000000 
0.000000 0.000000 0.000000 
0.000000 0.000000 0.000000 

0.000000 -0.000000 0.000000 
0.000000 0.000000 0.000000 
0.000000 0.000000 0.000000 

0.000000 0.000000 0.000000 
0.000000 0.000000 0.000000 
0.000000 0.000000 0.000000 

