# vtk DataFile Version 3.0 
vtk output 
ASCII 
DATASET UNSTRUCTURED_GRID 
POINTS 175 float 
-0.026061 0.014773 0.000000 
-0.106992 0.082829 0.000000 
-0.054870 0.074596 0.000000 
-0.028809 0.120480 0.000000 
-0.186430 0.146904 0.000000 
-0.137056 0.144378 0.000000 
-0.114311 0.198025 0.000000 
-0.058186 0.182360 0.000000 
-0.029377 0.222537 0.000000 
-0.265318 0.210060 0.000000 
-0.217198 0.209260 0.000000 
-0.196633 0.266557 0.000000 
-0.143120 0.257848 0.000000 
-0.116563 0.305117 0.000000 
-0.058945 0.285471 0.000000 
-0.029568 0.323591 0.000000 
-0.344206 0.273216 0.000000 
-0.296791 0.273223 0.000000 
-0.278030 0.333166 0.000000 
-0.225992 0.327300 0.000000 
-0.201664 0.379417 0.000000 
-0.145749 0.365943 0.000000 
-0.117890 0.410285 0.000000 
-0.059328 0.387579 0.000000 
-0.029759 0.424645 0.000000 
-0.058559 -0.025977 0.000000 
-0.162226 -0.046820 0.000000 
-0.123292 -0.011202 0.000000 
-0.142917 0.037781 0.000000 
-0.261851 -0.068976 0.000000 
-0.229092 -0.031949 0.000000 
-0.256854 0.019282 0.000000 
-0.209613 0.053395 0.000000 
-0.223062 0.100969 0.000000 
-0.360414 -0.091277 0.000000 
-0.329787 -0.054154 0.000000 
-0.361761 -0.002352 0.000000 
-0.321587 0.034057 0.000000 
-0.341985 0.084291 0.000000 
-0.290702 0.117090 0.000000 
-0.302189 0.163825 0.000000 
-0.458977 -0.113577 0.000000 
-0.429420 -0.076502 0.000000 
-0.464588 -0.024460 0.000000 
-0.427556 0.012567 0.000000 
-0.453135 0.064082 0.000000 
-0.407738 0.099397 0.000000 
-0.425037 0.148825 0.000000 
-0.370772 0.180455 0.000000 
-0.381315 0.226682 0.000000 
-0.046960 -0.076793 0.000000 
-0.095301 -0.170839 0.000000 
-0.098873 -0.118191 0.000000 
-0.149405 -0.102994 0.000000 
-0.140093 -0.262543 0.000000 
-0.148617 -0.213844 0.000000 
-0.205981 -0.203607 0.000000 
-0.203197 -0.145404 0.000000 
-0.248777 -0.126257 0.000000 
-0.184111 -0.353506 0.000000 
-0.194039 -0.306415 0.000000 
-0.254475 -0.299115 0.000000 
-0.257893 -0.245006 0.000000 
-0.309886 -0.229633 0.000000 
-0.303554 -0.169088 0.000000 
-0.347255 -0.148930 0.000000 
-0.228129 -0.444470 0.000000 
-0.238687 -0.398245 0.000000 
-0.301302 -0.393293 0.000000 
-0.307162 -0.341255 0.000000 
-0.363386 -0.329134 0.000000 
-0.362692 -0.271622 0.000000 
-0.412122 -0.254329 0.000000 
-0.403017 -0.192182 0.000000 
-0.445733 -0.171603 0.000000 
-0.000000 -0.099408 0.000000 
0.043388 -0.195838 0.000000 
-0.000000 -0.165806 0.000000 
-0.043388 -0.195838 0.000000 
0.087158 -0.288035 0.000000 
0.043769 -0.264336 0.000000 
-0.000000 -0.302802 0.000000 
-0.043769 -0.264336 0.000000 
-0.087158 -0.288035 0.000000 
0.130831 -0.379164 0.000000 
0.087824 -0.357566 0.000000 
0.044436 -0.400265 0.000000 
-0.000000 -0.369200 0.000000 
-0.044436 -0.400265 0.000000 
-0.087824 -0.357566 0.000000 
-0.130831 -0.379164 0.000000 
0.174505 -0.470294 0.000000 
0.131782 -0.449728 0.000000 
0.088871 -0.495595 0.000000 
0.044532 -0.467731 0.000000 
-0.000000 -0.504131 0.000000 
-0.044532 -0.467731 0.000000 
-0.088871 -0.495595 0.000000 
-0.131782 -0.449728 0.000000 
-0.174505 -0.470294 0.000000 
0.046960 -0.076793 0.000000 
0.149405 -0.102994 0.000000 
0.098873 -0.118191 0.000000 
0.095301 -0.170839 0.000000 
0.248777 -0.126257 0.000000 
0.203197 -0.145404 0.000000 
0.205981 -0.203607 0.000000 
0.148617 -0.213844 0.000000 
0.140093 -0.262543 0.000000 
0.347255 -0.148930 0.000000 
0.303554 -0.169088 0.000000 
0.309886 -0.229633 0.000000 
0.257893 -0.245006 0.000000 
0.254475 -0.299115 0.000000 
0.194039 -0.306415 0.000000 
0.184111 -0.353506 0.000000 
0.445733 -0.171603 0.000000 
0.403017 -0.192182 0.000000 
0.412122 -0.254329 0.000000 
0.362692 -0.271622 0.000000 
0.363386 -0.329134 0.000000 
0.307162 -0.341255 0.000000 
0.301302 -0.393293 0.000000 
0.238687 -0.398245 0.000000 
0.228129 -0.444470 0.000000 
0.058559 -0.025977 0.000000 
0.142917 0.037781 0.000000 
0.123292 -0.011202 0.000000 
0.162226 -0.046820 0.000000 
0.223062 0.100969 0.000000 
0.209613 0.053395 0.000000 
0.256854 0.019282 0.000000 
0.229092 -0.031949 0.000000 
0.261851 -0.068976 0.000000 
0.302189 0.163825 0.000000 
0.290702 0.117090 0.000000 
0.341985 0.084291 0.000000 
0.321587 0.034057 0.000000 
0.361761 -0.002352 0.000000 
0.329787 -0.054154 0.000000 
0.360414 -0.091277 0.000000 
0.381315 0.226682 0.000000 
0.370772 0.180455 0.000000 
0.425037 0.148825 0.000000 
0.407738 0.099397 0.000000 
0.453135 0.064082 0.000000 
0.427556 0.012567 0.000000 
0.464588 -0.024460 0.000000 
0.429420 -0.076502 0.000000 
0.458977 -0.113577 0.000000 
0.026061 0.014773 0.000000 
0.028809 0.120480 0.000000 
0.054870 0.074596 0.000000 
0.106992 0.082829 0.000000 
0.029377 0.222537 0.000000 
0.058186 0.182360 0.000000 
0.114311 0.198025 0.000000 
0.137056 0.144378 0.000000 
0.186430 0.146904 0.000000 
0.029568 0.323591 0.000000 
0.058945 0.285471 0.000000 
0.116563 0.305117 0.000000 
0.143120 0.257848 0.000000 
0.196633 0.266557 0.000000 
0.217198 0.209260 0.000000 
0.265318 0.210060 0.000000 
0.029759 0.424645 0.000000 
0.059328 0.387579 0.000000 
0.117890 0.410285 0.000000 
0.145749 0.365943 0.000000 
0.201664 0.379417 0.000000 
0.225992 0.327300 0.000000 
0.278030 0.333166 0.000000 
0.296791 0.273223 0.000000 
0.344206 0.273216 0.000000 
CELLS 175 350 
1 0 
1 1 
1 2 
1 3 
1 4 
1 5 
1 6 
1 7 
1 8 
1 9 
1 10 
1 11 
1 12 
1 13 
1 14 
1 15 
1 16 
1 17 
1 18 
1 19 
1 20 
1 21 
1 22 
1 23 
1 24 
1 25 
1 26 
1 27 
1 28 
1 29 
1 30 
1 31 
1 32 
1 33 
1 34 
1 35 
1 36 
1 37 
1 38 
1 39 
1 40 
1 41 
1 42 
1 43 
1 44 
1 45 
1 46 
1 47 
1 48 
1 49 
1 50 
1 51 
1 52 
1 53 
1 54 
1 55 
1 56 
1 57 
1 58 
1 59 
1 60 
1 61 
1 62 
1 63 
1 64 
1 65 
1 66 
1 67 
1 68 
1 69 
1 70 
1 71 
1 72 
1 73 
1 74 
1 75 
1 76 
1 77 
1 78 
1 79 
1 80 
1 81 
1 82 
1 83 
1 84 
1 85 
1 86 
1 87 
1 88 
1 89 
1 90 
1 91 
1 92 
1 93 
1 94 
1 95 
1 96 
1 97 
1 98 
1 99 
1 100 
1 101 
1 102 
1 103 
1 104 
1 105 
1 106 
1 107 
1 108 
1 109 
1 110 
1 111 
1 112 
1 113 
1 114 
1 115 
1 116 
1 117 
1 118 
1 119 
1 120 
1 121 
1 122 
1 123 
1 124 
1 125 
1 126 
1 127 
1 128 
1 129 
1 130 
1 131 
1 132 
1 133 
1 134 
1 135 
1 136 
1 137 
1 138 
1 139 
1 140 
1 141 
1 142 
1 143 
1 144 
1 145 
1 146 
1 147 
1 148 
1 149 
1 150 
1 151 
1 152 
1 153 
1 154 
1 155 
1 156 
1 157 
1 158 
1 159 
1 160 
1 161 
1 162 
1 163 
1 164 
1 165 
1 166 
1 167 
1 168 
1 169 
1 170 
1 171 
1 172 
1 173 
1 174 
CELL_TYPES 175 
1 
1 
1 
1 
1 
1 
1 
1 
1 
1 
1 
1 
1 
1 
1 
1 
1 
1 
1 
1 
1 
1 
1 
1 
1 
1 
1 
1 
1 
1 
1 
1 
1 
1 
1 
1 
1 
1 
1 
1 
1 
1 
1 
1 
1 
1 
1 
1 
1 
1 
1 
1 
1 
1 
1 
1 
1 
1 
1 
1 
1 
1 
1 
1 
1 
1 
1 
1 
1 
1 
1 
1 
1 
1 
1 
1 
1 
1 
1 
1 
1 
1 
1 
1 
1 
1 
1 
1 
1 
1 
1 
1 
1 
1 
1 
1 
1 
1 
1 
1 
1 
1 
1 
1 
1 
1 
1 
1 
1 
1 
1 
1 
1 
1 
1 
1 
1 
1 
1 
1 
1 
1 
1 
1 
1 
1 
1 
1 
1 
1 
1 
1 
1 
1 
1 
1 
1 
1 
1 
1 
1 
1 
1 
1 
1 
1 
1 
1 
1 
1 
1 
1 
1 
1 
1 
1 
1 
1 
1 
1 
1 
1 
1 
1 
1 
1 
1 
1 
1 
1 
1 
1 
1 
1 
1 
POINT_DATA 175 
VECTORS X_GC float 
-0.026061 0.014773 0.000000 
-0.106992 0.082829 0.000000 
-0.054870 0.074596 0.000000 
-0.028809 0.120480 0.000000 
-0.186430 0.146904 0.000000 
-0.137056 0.144378 0.000000 
-0.114311 0.198025 0.000000 
-0.058186 0.182360 0.000000 
-0.029377 0.222537 0.000000 
-0.265318 0.210060 0.000000 
-0.217198 0.209260 0.000000 
-0.196633 0.266557 0.000000 
-0.143120 0.257848 0.000000 
-0.116563 0.305117 0.000000 
-0.058945 0.285471 0.000000 
-0.029568 0.323591 0.000000 
-0.344206 0.273216 0.000000 
-0.296791 0.273223 0.000000 
-0.278030 0.333166 0.000000 
-0.225992 0.327300 0.000000 
-0.201664 0.379417 0.000000 
-0.145749 0.365943 0.000000 
-0.117890 0.410285 0.000000 
-0.059328 0.387579 0.000000 
-0.029759 0.424645 0.000000 
-0.058559 -0.025977 0.000000 
-0.162226 -0.046820 0.000000 
-0.123292 -0.011202 0.000000 
-0.142917 0.037781 0.000000 
-0.261851 -0.068976 0.000000 
-0.229092 -0.031949 0.000000 
-0.256854 0.019282 0.000000 
-0.209613 0.053395 0.000000 
-0.223062 0.100969 0.000000 
-0.360414 -0.091277 0.000000 
-0.329787 -0.054154 0.000000 
-0.361761 -0.002352 0.000000 
-0.321587 0.034057 0.000000 
-0.341985 0.084291 0.000000 
-0.290702 0.117090 0.000000 
-0.302189 0.163825 0.000000 
-0.458977 -0.113577 0.000000 
-0.429420 -0.076502 0.000000 
-0.464588 -0.024460 0.000000 
-0.427556 0.012567 0.000000 
-0.453135 0.064082 0.000000 
-0.407738 0.099397 0.000000 
-0.425037 0.148825 0.000000 
-0.370772 0.180455 0.000000 
-0.381315 0.226682 0.000000 
-0.046960 -0.076793 0.000000 
-0.095301 -0.170839 0.000000 
-0.098873 -0.118191 0.000000 
-0.149405 -0.102994 0.000000 
-0.140093 -0.262543 0.000000 
-0.148617 -0.213844 0.000000 
-0.205981 -0.203607 0.000000 
-0.203197 -0.145404 0.000000 
-0.248777 -0.126257 0.000000 
-0.184111 -0.353506 0.000000 
-0.194039 -0.306415 0.000000 
-0.254475 -0.299115 0.000000 
-0.257893 -0.245006 0.000000 
-0.309886 -0.229633 0.000000 
-0.303554 -0.169088 0.000000 
-0.347255 -0.148930 0.000000 
-0.228129 -0.444470 0.000000 
-0.238687 -0.398245 0.000000 
-0.301302 -0.393293 0.000000 
-0.307162 -0.341255 0.000000 
-0.363386 -0.329134 0.000000 
-0.362692 -0.271622 0.000000 
-0.412122 -0.254329 0.000000 
-0.403017 -0.192182 0.000000 
-0.445733 -0.171603 0.000000 
-0.000000 -0.099408 0.000000 
0.043388 -0.195838 0.000000 
-0.000000 -0.165806 0.000000 
-0.043388 -0.195838 0.000000 
0.087158 -0.288035 0.000000 
0.043769 -0.264336 0.000000 
-0.000000 -0.302802 0.000000 
-0.043769 -0.264336 0.000000 
-0.087158 -0.288035 0.000000 
0.130831 -0.379164 0.000000 
0.087824 -0.357566 0.000000 
0.044436 -0.400265 0.000000 
-0.000000 -0.369200 0.000000 
-0.044436 -0.400265 0.000000 
-0.087824 -0.357566 0.000000 
-0.130831 -0.379164 0.000000 
0.174505 -0.470294 0.000000 
0.131782 -0.449728 0.000000 
0.088871 -0.495595 0.000000 
0.044532 -0.467731 0.000000 
-0.000000 -0.504131 0.000000 
-0.044532 -0.467731 0.000000 
-0.088871 -0.495595 0.000000 
-0.131782 -0.449728 0.000000 
-0.174505 -0.470294 0.000000 
0.046960 -0.076793 0.000000 
0.149405 -0.102994 0.000000 
0.098873 -0.118191 0.000000 
0.095301 -0.170839 0.000000 
0.248777 -0.126257 0.000000 
0.203197 -0.145404 0.000000 
0.205981 -0.203607 0.000000 
0.148617 -0.213844 0.000000 
0.140093 -0.262543 0.000000 
0.347255 -0.148930 0.000000 
0.303554 -0.169088 0.000000 
0.309886 -0.229633 0.000000 
0.257893 -0.245006 0.000000 
0.254475 -0.299115 0.000000 
0.194039 -0.306415 0.000000 
0.184111 -0.353506 0.000000 
0.445733 -0.171603 0.000000 
0.403017 -0.192182 0.000000 
0.412122 -0.254329 0.000000 
0.362692 -0.271622 0.000000 
0.363386 -0.329134 0.000000 
0.307162 -0.341255 0.000000 
0.301302 -0.393293 0.000000 
0.238687 -0.398245 0.000000 
0.228129 -0.444470 0.000000 
0.058559 -0.025977 0.000000 
0.142917 0.037781 0.000000 
0.123292 -0.011202 0.000000 
0.162226 -0.046820 0.000000 
0.223062 0.100969 0.000000 
0.209613 0.053395 0.000000 
0.256854 0.019282 0.000000 
0.229092 -0.031949 0.000000 
0.261851 -0.068976 0.000000 
0.302189 0.163825 0.000000 
0.290702 0.117090 0.000000 
0.341985 0.084291 0.000000 
0.321587 0.034057 0.000000 
0.361761 -0.002352 0.000000 
0.329787 -0.054154 0.000000 
0.360414 -0.091277 0.000000 
0.381315 0.226682 0.000000 
0.370772 0.180455 0.000000 
0.425037 0.148825 0.000000 
0.407738 0.099397 0.000000 
0.453135 0.064082 0.000000 
0.427556 0.012567 0.000000 
0.464588 -0.024460 0.000000 
0.429420 -0.076502 0.000000 
0.458977 -0.113577 0.000000 
0.026061 0.014773 0.000000 
0.028809 0.120480 0.000000 
0.054870 0.074596 0.000000 
0.106992 0.082829 0.000000 
0.029377 0.222537 0.000000 
0.058186 0.182360 0.000000 
0.114311 0.198025 0.000000 
0.137056 0.144378 0.000000 
0.186430 0.146904 0.000000 
0.029568 0.323591 0.000000 
0.058945 0.285471 0.000000 
0.116563 0.305117 0.000000 
0.143120 0.257848 0.000000 
0.196633 0.266557 0.000000 
0.217198 0.209260 0.000000 
0.265318 0.210060 0.000000 
0.029759 0.424645 0.000000 
0.059328 0.387579 0.000000 
0.117890 0.410285 0.000000 
0.145749 0.365943 0.000000 
0.201664 0.379417 0.000000 
0.225992 0.327300 0.000000 
0.278030 0.333166 0.000000 
0.296791 0.273223 0.000000 
0.344206 0.273216 0.000000 
VECTORS X_EC float 
0.338794 0.300560 0.000000 
-0.609100 -0.618189 0.000000 
0.713312 -0.507048 0.000000 
0.374519 0.873522 0.000000 
0.423588 0.516792 0.000000 
-0.218274 0.550895 0.000000 
-0.513962 -0.173343 0.000000 
0.756418 0.038143 0.000000 
0.381900 -0.504250 0.000000 
-0.550868 -0.335811 0.000000 
0.823577 -0.325016 0.000000 
0.556234 0.901480 0.000000 
-0.139443 -0.980951 0.000000 
-0.484677 0.380924 0.000000 
0.766286 0.646140 0.000000 
0.384386 0.131519 0.000000 
0.474677 0.811586 0.000000 
-0.141715 0.811489 0.000000 
-0.385608 0.002261 0.000000 
0.937896 0.081457 0.000000 
0.621631 -0.622124 0.000000 
-0.105264 -0.440224 0.000000 
-0.467428 0.961149 0.000000 
0.771260 -0.732322 0.000000 
0.386873 0.767288 0.000000 
0.761262 0.850694 0.000000 
0.108942 -0.867929 0.000000 
-0.397202 0.651231 0.000000 
-0.142083 -0.010044 0.000000 
-0.595936 -0.568819 0.000000 
0.978194 0.931315 0.000000 
-0.660903 0.239690 0.000000 
0.724964 -0.220830 0.000000 
0.899809 -0.863078 0.000000 
0.685384 -0.267766 0.000000 
0.287229 -0.768925 0.000000 
0.702895 0.531747 0.000000 
0.180633 0.040228 0.000000 
0.445811 -0.637932 0.000000 
-0.220880 0.919282 0.000000 
-0.071546 0.288357 0.000000 
-0.033296 0.033286 0.000000 
-0.417537 -0.467224 0.000000 
0.039645 0.830214 0.000000 
-0.441768 0.330342 0.000000 
-0.109248 -0.365108 0.000000 
-0.699407 -0.841864 0.000000 
-0.474522 0.490857 0.000000 
0.820030 0.063864 0.000000 
0.957100 -0.560208 0.000000 
0.610485 -0.463300 0.000000 
-0.761092 0.806320 0.000000 
-0.714655 0.095582 0.000000 
-0.057734 -0.109585 0.000000 
-0.178789 0.044324 0.000000 
-0.067979 -0.613102 0.000000 
0.677748 -0.751306 0.000000 
0.641556 0.462949 0.000000 
-0.765897 0.204471 0.000000 
0.393446 -0.727667 0.000000 
0.522510 0.636603 0.000000 
-0.691820 0.538059 0.000000 
-0.647393 -0.192424 0.000000 
0.028512 -0.399950 0.000000 
-0.053800 0.782689 0.000000 
0.514316 0.510558 0.000000 
0.965681 0.500342 0.000000 
-0.897068 -0.123687 0.000000 
-0.083078 -0.190540 0.000000 
-0.006893 -0.893064 0.000000 
0.724017 0.943303 0.000000 
0.714996 0.166899 0.000000 
-0.642413 -0.066558 0.000000 
-0.760780 -0.905539 0.000000 
-0.205471 0.816646 0.000000 
0.000000 -0.157998 0.000000 
-0.564049 -0.856185 0.000000 
0.000000 0.738379 0.000000 
0.564049 -0.856185 0.000000 
0.866949 0.388470 0.000000 
-0.569003 0.068539 0.000000 
0.000000 0.587827 0.000000 
0.569003 0.068539 0.000000 
-0.866949 0.388470 0.000000 
0.299194 -0.381280 0.000000 
0.858290 -0.672864 0.000000 
-0.577662 -0.096418 0.000000 
0.000000 -0.515796 0.000000 
0.577662 -0.096418 0.000000 
-0.858290 -0.672864 0.000000 
-0.299194 -0.381280 0.000000 
-0.268560 0.848970 0.000000 
0.286830 0.571329 0.000000 
0.844677 -0.809473 0.000000 
-0.578910 0.814364 0.000000 
0.000000 -0.694232 0.000000 
0.578910 0.814364 0.000000 
-0.844677 -0.809473 0.000000 
-0.286830 0.571329 0.000000 
0.268560 0.848970 0.000000 
-0.610485 -0.463300 0.000000 
0.057734 -0.109585 0.000000 
0.714655 0.095582 0.000000 
0.761092 0.806320 0.000000 
0.765897 0.204471 0.000000 
-0.641556 0.462949 0.000000 
-0.677748 -0.751306 0.000000 
0.067979 -0.613102 0.000000 
0.178789 0.044324 0.000000 
-0.514316 0.510558 0.000000 
0.053800 0.782689 0.000000 
-0.028512 -0.399950 0.000000 
0.647393 -0.192424 0.000000 
0.691820 0.538059 0.000000 
-0.522510 0.636603 0.000000 
-0.393446 -0.727667 0.000000 
0.205471 0.816646 0.000000 
0.760780 -0.905539 0.000000 
0.642413 -0.066558 0.000000 
-0.714996 0.166899 0.000000 
-0.724017 0.943303 0.000000 
0.006894 -0.893064 0.000000 
0.083078 -0.190540 0.000000 
0.897068 -0.123687 0.000000 
-0.965681 0.500342 0.000000 
-0.761262 0.850694 0.000000 
0.142083 -0.010044 0.000000 
0.397202 0.651231 0.000000 
-0.108942 -0.867929 0.000000 
-0.899809 -0.863078 0.000000 
-0.724964 -0.220830 0.000000 
0.660903 0.239690 0.000000 
-0.978194 0.931315 0.000000 
0.595936 -0.568819 0.000000 
0.071546 0.288357 0.000000 
0.220880 0.919282 0.000000 
-0.445811 -0.637932 0.000000 
-0.180633 0.040228 0.000000 
-0.702895 0.531747 0.000000 
-0.287229 -0.768925 0.000000 
-0.685384 -0.267766 0.000000 
-0.957100 -0.560208 0.000000 
-0.820030 0.063864 0.000000 
0.474522 0.490857 0.000000 
0.699407 -0.841864 0.000000 
0.109248 -0.365108 0.000000 
0.441768 0.330343 0.000000 
-0.039645 0.830214 0.000000 
0.417537 -0.467224 0.000000 
0.033296 0.033286 0.000000 
-0.338794 0.300560 0.000000 
-0.374519 0.873522 0.000000 
-0.713312 -0.507048 0.000000 
0.609100 -0.618189 0.000000 
-0.381900 -0.504250 0.000000 
-0.756418 0.038143 0.000000 
0.513962 -0.173343 0.000000 
0.218274 0.550895 0.000000 
-0.423588 0.516792 0.000000 
-0.384386 0.131519 0.000000 
-0.766286 0.646140 0.000000 
0.484677 0.380924 0.000000 
0.139443 -0.980951 0.000000 
-0.556234 0.901480 0.000000 
-0.823577 -0.325016 0.000000 
0.550868 -0.335811 0.000000 
-0.386873 0.767288 0.000000 
-0.771260 -0.732322 0.000000 
0.467428 0.961149 0.000000 
0.105264 -0.440224 0.000000 
-0.621631 -0.622124 0.000000 
-0.937896 0.081457 0.000000 
0.385608 0.002261 0.000000 
0.141715 0.811489 0.000000 
-0.474677 0.811586 0.000000 
CELL_DATA 175 
SCALARS MASS float 
LOOKUP_TABLE default 
0.078183 
0.086427 
0.094672 
0.086427 
0.088131 
0.092111 
0.085854 
0.092111 
0.088131 
0.088705 
0.091000 
0.086983 
0.091556 
0.086983 
0.091000 
0.088705 
0.089278 
0.091574 
0.089278 
0.092722 
0.089278 
0.092722 
0.089278 
0.091574 
0.089278 
0.078183 
0.086427 
0.094672 
0.086427 
0.088131 
0.092111 
0.085854 
0.092111 
0.088131 
0.088705 
0.091000 
0.086983 
0.091556 
0.086983 
0.091000 
0.088705 
0.089278 
0.091574 
0.089278 
0.092722 
0.089278 
0.092722 
0.089278 
0.091574 
0.089278 
0.078183 
0.086427 
0.094672 
0.086427 
0.088131 
0.092111 
0.085854 
0.092111 
0.088131 
0.088705 
0.091000 
0.086983 
0.091556 
0.086983 
0.091000 
0.088705 
0.089278 
0.091574 
0.089278 
0.092722 
0.089278 
0.092722 
0.089278 
0.091574 
0.089278 
0.078183 
0.086427 
0.094672 
0.086427 
0.088131 
0.092111 
0.085854 
0.092111 
0.088131 
0.088705 
0.091000 
0.086983 
0.091556 
0.086983 
0.091000 
0.088705 
0.089278 
0.091574 
0.089278 
0.092722 
0.089278 
0.092722 
0.089278 
0.091574 
0.089278 
0.078183 
0.086427 
0.094672 
0.086427 
0.088131 
0.092111 
0.085854 
0.092111 
0.088131 
0.088705 
0.091000 
0.086983 
0.091556 
0.086983 
0.091000 
0.088705 
0.089278 
0.091574 
0.089278 
0.092722 
0.089278 
0.092722 
0.089278 
0.091574 
0.089278 
0.078183 
0.086427 
0.094672 
0.086427 
0.088131 
0.092111 
0.085854 
0.092111 
0.088131 
0.088705 
0.091000 
0.086983 
0.091556 
0.086983 
0.091000 
0.088705 
0.089278 
0.091574 
0.089278 
0.092722 
0.089278 
0.092722 
0.089278 
0.091574 
0.089278 
0.078183 
0.086427 
0.094672 
0.086427 
0.088131 
0.092111 
0.085854 
0.092111 
0.088131 
0.088705 
0.091000 
0.086983 
0.091556 
0.086983 
0.091000 
0.088705 
0.089278 
0.091574 
0.089278 
0.092722 
0.089278 
0.092722 
0.089278 
0.091574 
0.089278 
SCALARS MASS float 
LOOKUP_TABLE default 
0.078183 
0.086427 
0.094672 
0.086427 
0.088131 
0.092111 
0.085854 
0.092111 
0.088131 
0.088705 
0.091000 
0.086983 
0.091556 
0.086983 
0.091000 
0.088705 
0.089278 
0.091574 
0.089278 
0.092722 
0.089278 
0.092722 
0.089278 
0.091574 
0.089278 
0.078183 
0.086427 
0.094672 
0.086427 
0.088131 
0.092111 
0.085854 
0.092111 
0.088131 
0.088705 
0.091000 
0.086983 
0.091556 
0.086983 
0.091000 
0.088705 
0.089278 
0.091574 
0.089278 
0.092722 
0.089278 
0.092722 
0.089278 
0.091574 
0.089278 
0.078183 
0.086427 
0.094672 
0.086427 
0.088131 
0.092111 
0.085854 
0.092111 
0.088131 
0.088705 
0.091000 
0.086983 
0.091556 
0.086983 
0.091000 
0.088705 
0.089278 
0.091574 
0.089278 
0.092722 
0.089278 
0.092722 
0.089278 
0.091574 
0.089278 
0.078183 
0.086427 
0.094672 
0.086427 
0.088131 
0.092111 
0.085854 
0.092111 
0.088131 
0.088705 
0.091000 
0.086983 
0.091556 
0.086983 
0.091000 
0.088705 
0.089278 
0.091574 
0.089278 
0.092722 
0.089278 
0.092722 
0.089278 
0.091574 
0.089278 
0.078183 
0.086427 
0.094672 
0.086427 
0.088131 
0.092111 
0.085854 
0.092111 
0.088131 
0.088705 
0.091000 
0.086983 
0.091556 
0.086983 
0.091000 
0.088705 
0.089278 
0.091574 
0.089278 
0.092722 
0.089278 
0.092722 
0.089278 
0.091574 
0.089278 
0.078183 
0.086427 
0.094672 
0.086427 
0.088131 
0.092111 
0.085854 
0.092111 
0.088131 
0.088705 
0.091000 
0.086983 
0.091556 
0.086983 
0.091000 
0.088705 
0.089278 
0.091574 
0.089278 
0.092722 
0.089278 
0.092722 
0.089278 
0.091574 
0.089278 
0.078183 
0.086427 
0.094672 
0.086427 
0.088131 
0.092111 
0.085854 
0.092111 
0.088131 
0.088705 
0.091000 
0.086983 
0.091556 
0.086983 
0.091000 
0.088705 
0.089278 
0.091574 
0.089278 
0.092722 
0.089278 
0.092722 
0.089278 
0.091574 
0.089278 
SCALARS DENSITY float 
LOOKUP_TABLE default 
20.000000 
20.000000 
20.000000 
20.000000 
20.000000 
20.000000 
20.000000 
20.000000 
20.000000 
20.000000 
20.000000 
20.000000 
20.000000 
20.000000 
20.000000 
20.000000 
20.000000 
20.000000 
20.000000 
20.000000 
20.000000 
20.000000 
20.000000 
20.000000 
20.000000 
20.000000 
20.000000 
20.000000 
20.000000 
20.000000 
20.000000 
20.000000 
20.000000 
20.000000 
20.000000 
20.000000 
20.000000 
20.000000 
20.000000 
20.000000 
20.000000 
20.000000 
20.000000 
20.000000 
20.000000 
20.000000 
20.000000 
20.000000 
20.000000 
20.000000 
20.000000 
20.000000 
20.000000 
20.000000 
20.000000 
20.000000 
20.000000 
20.000000 
20.000000 
20.000000 
20.000000 
20.000000 
20.000000 
20.000000 
20.000000 
20.000000 
20.000000 
20.000000 
20.000000 
20.000000 
20.000000 
20.000000 
20.000000 
20.000000 
20.000000 
20.000000 
20.000000 
20.000000 
20.000000 
20.000000 
20.000000 
20.000000 
20.000000 
20.000000 
20.000000 
20.000000 
20.000000 
20.000000 
20.000000 
20.000000 
20.000000 
20.000000 
20.000000 
20.000000 
20.000000 
20.000000 
20.000000 
20.000000 
20.000000 
20.000000 
20.000000 
20.000000 
20.000000 
20.000000 
20.000000 
20.000000 
20.000000 
20.000000 
20.000000 
20.000000 
20.000000 
20.000000 
20.000000 
20.000000 
20.000000 
20.000000 
20.000000 
20.000000 
20.000000 
20.000000 
20.000000 
20.000000 
20.000000 
20.000000 
20.000000 
20.000000 
20.000000 
20.000000 
20.000000 
20.000000 
20.000000 
20.000000 
20.000000 
20.000000 
20.000000 
20.000000 
20.000000 
20.000000 
20.000000 
20.000000 
20.000000 
20.000000 
20.000000 
20.000000 
20.000000 
20.000000 
20.000000 
20.000000 
20.000000 
20.000000 
20.000000 
20.000000 
20.000000 
20.000000 
20.000000 
20.000000 
20.000000 
20.000000 
20.000000 
20.000000 
20.000000 
20.000000 
20.000000 
20.000000 
20.000000 
20.000000 
20.000000 
20.000000 
20.000000 
20.000000 
20.000000 
20.000000 
20.000000 
20.000000 
20.000000 
SCALARS ELEM_i float 
LOOKUP_TABLE default 
182 
209 
182 
183 
210 
210 
210 
183 
183 
237 
210 
211 
210 
211 
184 
184 
238 
238 
238 
211 
211 
211 
212 
184 
185 
182 
208 
209 
209 
235 
209 
236 
209 
209 
235 
235 
236 
236 
236 
237 
237 
262 
262 
263 
263 
263 
263 
264 
237 
237 
181 
208 
208 
208 
207 
207 
207 
208 
235 
206 
207 
234 
234 
234 
235 
235 
206 
233 
233 
233 
234 
234 
261 
261 
262 
181 
180 
181 
180 
153 
180 
180 
180 
207 
152 
152 
179 
179 
179 
206 
206 
152 
152 
151 
179 
178 
179 
205 
206 
206 
181 
154 
154 
154 
127 
154 
153 
153 
153 
127 
127 
126 
126 
126 
153 
152 
100 
99 
99 
126 
126 
125 
125 
125 
152 
182 
155 
155 
154 
155 
155 
128 
155 
127 
129 
129 
128 
128 
128 
127 
127 
129 
129 
102 
101 
101 
101 
101 
100 
100 
182 
183 
182 
155 
183 
183 
156 
156 
156 
184 
184 
157 
156 
157 
156 
129 
185 
184 
158 
157 
157 
157 
130 
130 
130 
VECTORS VELOCITY float 
-0.000000 -0.878191 0.000000 
-0.000000 -0.878191 0.000000 
-0.000000 -0.878191 0.000000 
-0.000000 -0.878191 0.000000 
-0.000000 -0.878191 0.000000 
-0.000000 -0.878191 0.000000 
-0.000000 -0.878191 0.000000 
-0.000000 -0.878191 0.000000 
-0.000000 -0.878191 0.000000 
0.000000 -0.878191 0.000000 
0.000000 -0.878191 0.000000 
0.000000 -0.878191 0.000000 
-0.000000 -0.878191 0.000000 
-0.000000 -0.878191 0.000000 
-0.000000 -0.878191 0.000000 
-0.000000 -0.878191 0.000000 
0.000000 -0.878191 0.000000 
0.000000 -0.878191 0.000000 
-0.000000 -0.878191 0.000000 
-0.000000 -0.878191 0.000000 
-0.000000 -0.878191 0.000000 
0.000000 -0.878191 0.000000 
-0.000000 -0.878191 0.000000 
0.000000 -0.878191 0.000000 
0.000000 -0.878191 0.000000 
0.000000 -0.878191 0.000000 
0.000000 -0.878191 0.000000 
0.000000 -0.878191 0.000000 
0.000000 -0.878191 0.000000 
0.000000 -0.878191 0.000000 
0.000000 -0.878191 0.000000 
0.000000 -0.878191 0.000000 
0.000000 -0.878191 0.000000 
0.000000 -0.878191 0.000000 
-0.000000 -0.878191 0.000000 
-0.000000 -0.878191 0.000000 
-0.000000 -0.878191 0.000000 
-0.000000 -0.878191 0.000000 
0.000000 -0.878191 0.000000 
0.000000 -0.878191 0.000000 
0.000000 -0.878191 0.000000 
-0.000000 -0.878191 0.000000 
-0.000000 -0.878191 0.000000 
-0.000000 -0.878191 0.000000 
-0.000000 -0.878191 0.000000 
0.000000 -0.878191 0.000000 
0.000000 -0.878191 0.000000 
-0.000000 -0.878191 0.000000 
0.000000 -0.878191 0.000000 
-0.000000 -0.878191 0.000000 
0.000000 -0.878191 0.000000 
-0.000000 -0.878191 0.000000 
0.000000 -0.878191 0.000000 
0.000000 -0.878191 0.000000 
0.000000 -0.878191 0.000000 
-0.000000 -0.878191 0.000000 
0.000000 -0.878191 0.000000 
0.000000 -0.878191 0.000000 
0.000000 -0.878191 0.000000 
0.000000 -0.878191 0.000000 
0.000000 -0.878191 0.000000 
0.000000 -0.878191 0.000000 
0.000000 -0.878191 0.000000 
0.000000 -0.878191 0.000000 
0.000000 -0.878191 0.000000 
0.000000 -0.878191 0.000000 
-0.000000 -0.878191 0.000000 
-0.000000 -0.878191 0.000000 
-0.000000 -0.878191 0.000000 
-0.000000 -0.878191 0.000000 
-0.000000 -0.878191 0.000000 
0.000000 -0.878191 0.000000 
-0.000000 -0.878191 0.000000 
0.000000 -0.878191 0.000000 
0.000000 -0.878191 0.000000 
0.000000 -0.878191 0.000000 
0.000000 -0.878191 0.000000 
-0.000000 -0.878191 0.000000 
-0.000000 -0.878191 0.000000 
-0.000000 -0.878191 0.000000 
-0.000000 -0.878191 0.000000 
0.000000 -0.878191 0.000000 
-0.000000 -0.878191 0.000000 
0.000000 -0.878191 0.000000 
-0.000000 -0.878191 0.000000 
-0.000000 -0.878191 0.000000 
0.000000 -0.878191 0.000000 
0.000000 -0.878191 0.000000 
0.000000 -0.878191 0.000000 
0.000000 -0.878191 0.000000 
0.000000 -0.878191 0.000000 
0.000000 -0.878191 0.000000 
0.000000 -0.878191 0.000000 
0.000000 -0.878191 0.000000 
0.000000 -0.878191 0.000000 
-0.000000 -0.878191 0.000000 
0.000000 -0.878191 0.000000 
-0.000000 -0.878191 0.000000 
-0.000000 -0.878191 0.000000 
-0.000000 -0.878191 0.000000 
-0.000000 -0.878191 0.000000 
-0.000000 -0.878191 0.000000 
-0.000000 -0.878191 0.000000 
0.000000 -0.878191 0.000000 
-0.000000 -0.878191 0.000000 
-0.000000 -0.878191 0.000000 
-0.000000 -0.878191 0.000000 
-0.000000 -0.878191 0.000000 
-0.000000 -0.878191 0.000000 
-0.000000 -0.878191 0.000000 
-0.000000 -0.878191 0.000000 
0.000000 -0.878191 0.000000 
-0.000000 -0.878191 0.000000 
-0.000000 -0.878191 0.000000 
-0.000000 -0.878191 0.000000 
-0.000000 -0.878191 0.000000 
0.000000 -0.878191 0.000000 
0.000000 -0.878191 0.000000 
-0.000000 -0.878191 0.000000 
0.000000 -0.878191 0.000000 
0.000000 -0.878191 0.000000 
0.000000 -0.878191 0.000000 
-0.000000 -0.878191 0.000000 
-0.000000 -0.878191 0.000000 
0.000000 -0.878191 0.000000 
-0.000000 -0.878191 0.000000 
0.000000 -0.878191 0.000000 
-0.000000 -0.878191 0.000000 
-0.000000 -0.878191 0.000000 
0.000000 -0.878191 0.000000 
0.000000 -0.878191 0.000000 
0.000000 -0.878191 0.000000 
0.000000 -0.878191 0.000000 
-0.000000 -0.878191 0.000000 
0.000000 -0.878191 0.000000 
0.000000 -0.878191 0.000000 
0.000000 -0.878191 0.000000 
0.000000 -0.878191 0.000000 
-0.000000 -0.878191 0.000000 
-0.000000 -0.878191 0.000000 
-0.000000 -0.878191 0.000000 
0.000000 -0.878191 0.000000 
0.000000 -0.878191 0.000000 
-0.000000 -0.878191 0.000000 
0.000000 -0.878191 0.000000 
0.000000 -0.878191 0.000000 
-0.000000 -0.878191 0.000000 
0.000000 -0.878191 0.000000 
-0.000000 -0.878191 0.000000 
0.000000 -0.878191 0.000000 
-0.000000 -0.878191 0.000000 
-0.000000 -0.878191 0.000000 
-0.000000 -0.878191 0.000000 
0.000000 -0.878191 0.000000 
-0.000000 -0.878191 0.000000 
-0.000000 -0.878191 0.000000 
0.000000 -0.878191 0.000000 
0.000000 -0.878191 0.000000 
0.000000 -0.878191 0.000000 
-0.000000 -0.878191 0.000000 
-0.000000 -0.878191 0.000000 
-0.000000 -0.878191 0.000000 
-0.000000 -0.878191 0.000000 
-0.000000 -0.878191 0.000000 
0.000000 -0.878191 0.000000 
0.000000 -0.878191 0.000000 
0.000000 -0.878191 0.000000 
-0.000000 -0.878191 0.000000 
0.000000 -0.878191 0.000000 
-0.000000 -0.878191 0.000000 
-0.000000 -0.878191 0.000000 
-0.000000 -0.878191 0.000000 
-0.000000 -0.878191 0.000000 
-0.000000 -0.878191 0.000000 
-0.000000 -0.878191 0.000000 
TENSORS STRESS float 
0.000000 -0.000000 0.000000 
0.000000 0.000000 0.000000 
0.000000 0.000000 0.000000 

-0.000000 0.000000 0.000000 
0.000000 0.000000 0.000000 
0.000000 0.000000 0.000000 

-0.000000 -0.000000 0.000000 
0.000000 0.000000 0.000000 
0.000000 0.000000 0.000000 

-0.000000 -0.000000 0.000000 
0.000000 -0.000000 0.000000 
0.000000 0.000000 0.000000 

-0.000000 -0.000000 0.000000 
0.000000 -0.000000 0.000000 
0.000000 0.000000 0.000000 

-0.000000 -0.000000 0.000000 
0.000000 -0.000000 0.000000 
0.000000 0.000000 0.000000 

-0.000000 0.000000 0.000000 
0.000000 -0.000000 0.000000 
0.000000 0.000000 0.000000 

-0.000000 -0.000000 0.000000 
0.000000 -0.000000 0.000000 
0.000000 0.000000 0.000000 

0.000000 0.000000 0.000000 
0.000000 -0.000000 0.000000 
0.000000 0.000000 0.000000 

0.000000 -0.000000 0.000000 
0.000000 0.000000 0.000000 
0.000000 0.000000 0.000000 

-0.000000 -0.000000 0.000000 
0.000000 -0.000000 0.000000 
0.000000 0.000000 0.000000 

-0.000000 0.000000 0.000000 
0.000000 0.000000 0.000000 
0.000000 0.000000 0.000000 

-0.000000 0.000000 0.000000 
0.000000 -0.000000 0.000000 
0.000000 0.000000 0.000000 

0.000000 0.000000 0.000000 
0.000000 0.000000 0.000000 
0.000000 0.000000 0.000000 

0.000000 0.000000 0.000000 
0.000000 0.000000 0.000000 
0.000000 0.000000 0.000000 

-0.000000 0.000000 0.000000 
0.000000 -0.000000 0.000000 
0.000000 0.000000 0.000000 

0.000000 0.000000 0.000000 
0.000000 -0.000000 0.000000 
0.000000 0.000000 0.000000 

0.000000 0.000000 0.000000 
0.000000 0.000000 0.000000 
0.000000 0.000000 0.000000 

-0.000000 0.000000 0.000000 
0.000000 0.000000 0.000000 
0.000000 0.000000 0.000000 

0.000000 0.000000 0.000000 
0.000000 -0.000000 0.000000 
0.000000 0.000000 0.000000 

0.000000 -0.000000 0.000000 
0.000000 0.000000 0.000000 
0.000000 0.000000 0.000000 

0.000000 0.000000 0.000000 
0.000000 0.000000 0.000000 
0.000000 0.000000 0.000000 

-0.000000 -0.000000 0.000000 
0.000000 -0.000000 0.000000 
0.000000 0.000000 0.000000 

-0.000000 0.000000 0.000000 
0.000000 0.000000 0.000000 
0.000000 0.000000 0.000000 

-0.000000 -0.000000 0.000000 
0.000000 -0.000000 0.000000 
0.000000 0.000000 0.000000 

0.000000 -0.000000 0.000000 
0.000000 0.000000 0.000000 
0.000000 0.000000 0.000000 

0.000000 0.000000 0.000000 
0.000000 0.000000 0.000000 
0.000000 0.000000 0.000000 

0.000000 0.000000 0.000000 
0.000000 0.000000 0.000000 
0.000000 0.000000 0.000000 

0.000000 0.000000 0.000000 
0.000000 0.000000 0.000000 
0.000000 0.000000 0.000000 

0.000000 -0.000000 0.000000 
0.000000 -0.000000 0.000000 
0.000000 0.000000 0.000000 

0.000000 0.000000 0.000000 
0.000000 0.000000 0.000000 
0.000000 0.000000 0.000000 

0.000000 0.000000 0.000000 
0.000000 0.000000 0.000000 
0.000000 0.000000 0.000000 

0.000000 0.000000 0.000000 
0.000000 0.000000 0.000000 
0.000000 0.000000 0.000000 

-0.000000 0.000000 0.000000 
0.000000 -0.000000 0.000000 
0.000000 0.000000 0.000000 

0.000000 -0.000000 0.000000 
0.000000 0.000000 0.000000 
0.000000 0.000000 0.000000 

0.000000 -0.000000 0.000000 
0.000000 0.000000 0.000000 
0.000000 0.000000 0.000000 

0.000000 0.000000 0.000000 
0.000000 -0.000000 0.000000 
0.000000 0.000000 0.000000 

0.000000 0.000000 0.000000 
0.000000 -0.000000 0.000000 
0.000000 0.000000 0.000000 

-0.000000 0.000000 0.000000 
0.000000 -0.000000 0.000000 
0.000000 0.000000 0.000000 

-0.000000 -0.000000 0.000000 
0.000000 -0.000000 0.000000 
0.000000 0.000000 0.000000 

-0.000000 -0.000000 0.000000 
0.000000 -0.000000 0.000000 
0.000000 0.000000 0.000000 

0.000000 -0.000000 0.000000 
0.000000 0.000000 0.000000 
0.000000 0.000000 0.000000 

0.000000 -0.000000 0.000000 
0.000000 0.000000 0.000000 
0.000000 0.000000 0.000000 

0.000000 -0.000000 0.000000 
0.000000 -0.000000 0.000000 
0.000000 0.000000 0.000000 

0.000000 -0.000000 0.000000 
0.000000 -0.000000 0.000000 
0.000000 0.000000 0.000000 

0.000000 -0.000000 0.000000 
0.000000 -0.000000 0.000000 
0.000000 0.000000 0.000000 

0.000000 -0.000000 0.000000 
0.000000 0.000000 0.000000 
0.000000 0.000000 0.000000 

-0.000000 0.000000 0.000000 
0.000000 -0.000000 0.000000 
0.000000 0.000000 0.000000 

-0.000000 -0.000000 0.000000 
0.000000 -0.000000 0.000000 
0.000000 0.000000 0.000000 

-0.000000 -0.000000 0.000000 
0.000000 -0.000000 0.000000 
0.000000 0.000000 0.000000 

0.000000 -0.000000 0.000000 
0.000000 0.000000 0.000000 
0.000000 0.000000 0.000000 

-0.000000 0.000000 0.000000 
0.000000 0.000000 0.000000 
0.000000 0.000000 0.000000 

-0.000000 0.000000 0.000000 
0.000000 0.000000 0.000000 
0.000000 0.000000 0.000000 

-0.000000 0.000000 0.000000 
0.000000 0.000000 0.000000 
0.000000 0.000000 0.000000 

0.000000 0.000000 0.000000 
0.000000 -0.000000 0.000000 
0.000000 0.000000 0.000000 

-0.000000 0.000000 0.000000 
0.000000 -0.000000 0.000000 
0.000000 0.000000 0.000000 

-0.000000 0.000000 0.000000 
0.000000 -0.000000 0.000000 
0.000000 0.000000 0.000000 

-0.000000 0.000000 0.000000 
0.000000 -0.000000 0.000000 
0.000000 0.000000 0.000000 

0.000000 -0.000000 0.000000 
0.000000 -0.000000 0.000000 
0.000000 0.000000 0.000000 

0.000000 0.000000 0.000000 
0.000000 -0.000000 0.000000 
0.000000 0.000000 0.000000 

0.000000 0.000000 0.000000 
0.000000 0.000000 0.000000 
0.000000 0.000000 0.000000 

-0.000000 0.000000 0.000000 
0.000000 0.000000 0.000000 
0.000000 0.000000 0.000000 

-0.000000 0.000000 0.000000 
0.000000 -0.000000 0.000000 
0.000000 0.000000 0.000000 

-0.000000 0.000000 0.000000 
0.000000 -0.000000 0.000000 
0.000000 0.000000 0.000000 

0.000000 0.000000 0.000000 
0.000000 0.000000 0.000000 
0.000000 0.000000 0.000000 

0.000000 -0.000000 0.000000 
0.000000 0.000000 0.000000 
0.000000 0.000000 0.000000 

0.000000 -0.000000 0.000000 
0.000000 -0.000000 0.000000 
0.000000 0.000000 0.000000 

0.000000 -0.000000 0.000000 
0.000000 -0.000000 0.000000 
0.000000 0.000000 0.000000 

0.000000 0.000000 0.000000 
0.000000 -0.000000 0.000000 
0.000000 0.000000 0.000000 

-0.000000 0.000000 0.000000 
0.000000 -0.000000 0.000000 
0.000000 0.000000 0.000000 

-0.000000 0.000000 0.000000 
0.000000 -0.000000 0.000000 
0.000000 0.000000 0.000000 

-0.000000 0.000000 0.000000 
0.000000 -0.000000 0.000000 
0.000000 0.000000 0.000000 

0.000000 0.000000 0.000000 
0.000000 -0.000000 0.000000 
0.000000 0.000000 0.000000 

-0.000000 -0.000000 0.000000 
0.000000 0.000000 0.000000 
0.000000 0.000000 0.000000 

0.000000 -0.000000 0.000000 
0.000000 0.000000 0.000000 
0.000000 0.000000 0.000000 

0.000000 -0.000000 0.000000 
0.000000 0.000000 0.000000 
0.000000 0.000000 0.000000 

0.000000 0.000000 0.000000 
0.000000 0.000000 0.000000 
0.000000 0.000000 0.000000 

0.000000 0.000000 0.000000 
0.000000 0.000000 0.000000 
0.000000 0.000000 0.000000 

0.000000 0.000000 0.000000 
0.000000 -0.000000 0.000000 
0.000000 0.000000 0.000000 

0.000000 0.000000 0.000000 
0.000000 0.000000 0.000000 
0.000000 0.000000 0.000000 

0.000000 0.000000 0.000000 
0.000000 0.000000 0.000000 
0.000000 0.000000 0.000000 

-0.000000 0.000000 0.000000 
0.000000 0.000000 0.000000 
0.000000 0.000000 0.000000 

0.000000 0.000000 0.000000 
0.000000 0.000000 0.000000 
0.000000 0.000000 0.000000 

0.000000 0.000000 0.000000 
0.000000 0.000000 0.000000 
0.000000 0.000000 0.000000 

0.000000 0.000000 0.000000 
0.000000 0.000000 0.000000 
0.000000 0.000000 0.000000 

0.000000 -0.000000 0.000000 
0.000000 0.000000 0.000000 
0.000000 0.000000 0.000000 

0.000000 -0.000000 0.000000 
0.000000 0.000000 0.000000 
0.000000 0.000000 0.000000 

-0.000000 -0.000000 0.000000 
0.000000 0.000000 0.000000 
0.000000 0.000000 0.000000 

-0.000000 -0.000000 0.000000 
0.000000 -0.000000 0.000000 
0.000000 0.000000 0.000000 

0.000000 0.000000 0.000000 
0.000000 0.000000 0.000000 
0.000000 0.000000 0.000000 

-0.000000 0.000000 0.000000 
0.000000 -0.000000 0.000000 
0.000000 0.000000 0.000000 

0.000000 0.000000 0.000000 
0.000000 0.000000 0.000000 
0.000000 0.000000 0.000000 

0.000000 0.000000 0.000000 
0.000000 0.000000 0.000000 
0.000000 0.000000 0.000000 

0.000000 0.000000 0.000000 
0.000000 0.000000 0.000000 
0.000000 0.000000 0.000000 

0.000000 -0.000000 0.000000 
0.000000 0.000000 0.000000 
0.000000 0.000000 0.000000 

0.000000 -0.000000 0.000000 
0.000000 -0.000000 0.000000 
0.000000 0.000000 0.000000 

0.000000 -0.000000 0.000000 
0.000000 -0.000000 0.000000 
0.000000 0.000000 0.000000 

0.000000 -0.000000 0.000000 
0.000000 -0.000000 0.000000 
0.000000 0.000000 0.000000 

0.000000 0.000000 0.000000 
0.000000 -0.000000 0.000000 
0.000000 0.000000 0.000000 

0.000000 -0.000000 0.000000 
0.000000 0.000000 0.000000 
0.000000 0.000000 0.000000 

0.000000 -0.000000 0.000000 
0.000000 0.000000 0.000000 
0.000000 0.000000 0.000000 

-0.000000 -0.000000 0.000000 
0.000000 -0.000000 0.000000 
0.000000 0.000000 0.000000 

-0.000000 -0.000000 0.000000 
0.000000 -0.000000 0.000000 
0.000000 0.000000 0.000000 

-0.000000 -0.000000 0.000000 
0.000000 0.000000 0.000000 
0.000000 0.000000 0.000000 

0.000000 0.000000 0.000000 
0.000000 0.000000 0.000000 
0.000000 0.000000 0.000000 

-0.000000 -0.000000 0.000000 
0.000000 0.000000 0.000000 
0.000000 0.000000 0.000000 

-0.000000 0.000000 0.000000 
0.000000 -0.000000 0.000000 
0.000000 0.000000 0.000000 

-0.000000 0.000000 0.000000 
0.000000 0.000000 0.000000 
0.000000 0.000000 0.000000 

0.000000 0.000000 0.000000 
0.000000 0.000000 0.000000 
0.000000 0.000000 0.000000 

0.000000 0.000000 0.000000 
0.000000 0.000000 0.000000 
0.000000 0.000000 0.000000 

0.000000 0.000000 0.000000 
0.000000 0.000000 0.000000 
0.000000 0.000000 0.000000 

-0.000000 0.000000 0.000000 
0.000000 -0.000000 0.000000 
0.000000 0.000000 0.000000 

0.000000 0.000000 0.000000 
0.000000 -0.000000 0.000000 
0.000000 0.000000 0.000000 

-0.000000 0.000000 0.000000 
0.000000 -0.000000 0.000000 
0.000000 0.000000 0.000000 

0.000000 0.000000 0.000000 
0.000000 0.000000 0.000000 
0.000000 0.000000 0.000000 

0.000000 0.000000 0.000000 
0.000000 0.000000 0.000000 
0.000000 0.000000 0.000000 

0.000000 0.000000 0.000000 
0.000000 0.000000 0.000000 
0.000000 0.000000 0.000000 

-0.000000 -0.000000 0.000000 
0.000000 -0.000000 0.000000 
0.000000 0.000000 0.000000 

-0.000000 -0.000000 0.000000 
0.000000 -0.000000 0.000000 
0.000000 0.000000 0.000000 

-0.000000 0.000000 0.000000 
0.000000 -0.000000 0.000000 
0.000000 0.000000 0.000000 

0.000000 0.000000 0.000000 
0.000000 -0.000000 0.000000 
0.000000 0.000000 0.000000 

0.000000 0.000000 0.000000 
0.000000 0.000000 0.000000 
0.000000 0.000000 0.000000 

0.000000 0.000000 0.000000 
0.000000 0.000000 0.000000 
0.000000 0.000000 0.000000 

0.000000 -0.000000 0.000000 
0.000000 0.000000 0.000000 
0.000000 0.000000 0.000000 

0.000000 0.000000 0.000000 
0.000000 0.000000 0.000000 
0.000000 0.000000 0.000000 

0.000000 -0.000000 0.000000 
0.000000 0.000000 0.000000 
0.000000 0.000000 0.000000 

-0.000000 0.000000 0.000000 
0.000000 0.000000 0.000000 
0.000000 0.000000 0.000000 

-0.000000 0.000000 0.000000 
0.000000 0.000000 0.000000 
0.000000 0.000000 0.000000 

-0.000000 0.000000 0.000000 
0.000000 -0.000000 0.000000 
0.000000 0.000000 0.000000 

-0.000000 0.000000 0.000000 
0.000000 0.000000 0.000000 
0.000000 0.000000 0.000000 

-0.000000 0.000000 0.000000 
0.000000 0.000000 0.000000 
0.000000 0.000000 0.000000 

-0.000000 -0.000000 0.000000 
0.000000 -0.000000 0.000000 
0.000000 0.000000 0.000000 

-0.000000 0.000000 0.000000 
0.000000 0.000000 0.000000 
0.000000 0.000000 0.000000 

0.000000 0.000000 0.000000 
0.000000 0.000000 0.000000 
0.000000 0.000000 0.000000 

-0.000000 -0.000000 0.000000 
0.000000 -0.000000 0.000000 
0.000000 0.000000 0.000000 

-0.000000 -0.000000 0.000000 
0.000000 -0.000000 0.000000 
0.000000 0.000000 0.000000 

0.000000 -0.000000 0.000000 
0.000000 0.000000 0.000000 
0.000000 0.000000 0.000000 

0.000000 -0.000000 0.000000 
0.000000 0.000000 0.000000 
0.000000 0.000000 0.000000 

0.000000 -0.000000 0.000000 
0.000000 0.000000 0.000000 
0.000000 0.000000 0.000000 

0.000000 0.000000 0.000000 
0.000000 -0.000000 0.000000 
0.000000 0.000000 0.000000 

0.000000 0.000000 0.000000 
0.000000 0.000000 0.000000 
0.000000 0.000000 0.000000 

-0.000000 0.000000 0.000000 
0.000000 -0.000000 0.000000 
0.000000 0.000000 0.000000 

-0.000000 -0.000000 0.000000 
0.000000 -0.000000 0.000000 
0.000000 0.000000 0.000000 

0.000000 0.000000 0.000000 
0.000000 -0.000000 0.000000 
0.000000 0.000000 0.000000 

-0.000000 0.000000 0.000000 
0.000000 -0.000000 0.000000 
0.000000 0.000000 0.000000 

0.000000 0.000000 0.000000 
0.000000 0.000000 0.000000 
0.000000 0.000000 0.000000 

-0.000000 0.000000 0.000000 
0.000000 -0.000000 0.000000 
0.000000 0.000000 0.000000 

0.000000 0.000000 0.000000 
0.000000 0.000000 0.000000 
0.000000 0.000000 0.000000 

0.000000 0.000000 0.000000 
0.000000 0.000000 0.000000 
0.000000 0.000000 0.000000 

0.000000 0.000000 0.000000 
0.000000 0.000000 0.000000 
0.000000 0.000000 0.000000 

0.000000 -0.000000 0.000000 
0.000000 0.000000 0.000000 
0.000000 0.000000 0.000000 

-0.000000 -0.000000 0.000000 
0.000000 0.000000 0.000000 
0.000000 0.000000 0.000000 

-0.000000 -0.000000 0.000000 
0.000000 0.000000 0.000000 
0.000000 0.000000 0.000000 

-0.000000 0.000000 0.000000 
0.000000 0.000000 0.000000 
0.000000 0.000000 0.000000 

0.000000 -0.000000 0.000000 
0.000000 0.000000 0.000000 
0.000000 0.000000 0.000000 

0.000000 -0.000000 0.000000 
0.000000 0.000000 0.000000 
0.000000 0.000000 0.000000 

-0.000000 0.000000 0.000000 
0.000000 0.000000 0.000000 
0.000000 0.000000 0.000000 

0.000000 0.000000 0.000000 
0.000000 0.000000 0.000000 
0.000000 0.000000 0.000000 

-0.000000 0.000000 0.000000 
0.000000 -0.000000 0.000000 
0.000000 0.000000 0.000000 

-0.000000 -0.000000 0.000000 
0.000000 -0.000000 0.000000 
0.000000 0.000000 0.000000 

0.000000 -0.000000 0.000000 
0.000000 -0.000000 0.000000 
0.000000 0.000000 0.000000 

0.000000 -0.000000 0.000000 
0.000000 -0.000000 0.000000 
0.000000 0.000000 0.000000 

-0.000000 -0.000000 0.000000 
0.000000 -0.000000 0.000000 
0.000000 0.000000 0.000000 

-0.000000 0.000000 0.000000 
0.000000 0.000000 0.000000 
0.000000 0.000000 0.000000 

-0.000000 0.000000 0.000000 
0.000000 -0.000000 0.000000 
0.000000 0.000000 0.000000 

-0.000000 -0.000000 0.000000 
0.000000 -0.000000 0.000000 
0.000000 0.000000 0.000000 

0.000000 0.000000 0.000000 
0.000000 0.000000 0.000000 
0.000000 0.000000 0.000000 

-0.000000 0.000000 0.000000 
0.000000 0.000000 0.000000 
0.000000 0.000000 0.000000 

0.000000 -0.000000 0.000000 
0.000000 -0.000000 0.000000 
0.000000 0.000000 0.000000 

0.000000 -0.000000 0.000000 
0.000000 0.000000 0.000000 
0.000000 0.000000 0.000000 

0.000000 0.000000 0.000000 
0.000000 -0.000000 0.000000 
0.000000 0.000000 0.000000 

0.000000 0.000000 0.000000 
0.000000 0.000000 0.000000 
0.000000 0.000000 0.000000 

0.000000 0.000000 0.000000 
0.000000 0.000000 0.000000 
0.000000 0.000000 0.000000 

0.000000 0.000000 0.000000 
0.000000 0.000000 0.000000 
0.000000 0.000000 0.000000 

0.000000 0.000000 0.000000 
0.000000 0.000000 0.000000 
0.000000 0.000000 0.000000 

TENSORS STRAIN float 
-0.000000 -0.000000 0.000000 
0.000000 0.000000 0.000000 
0.000000 0.000000 0.000000 

-0.000000 0.000000 0.000000 
0.000000 0.000000 0.000000 
0.000000 0.000000 0.000000 

-0.000000 -0.000000 0.000000 
0.000000 0.000000 0.000000 
0.000000 0.000000 0.000000 

-0.000000 -0.000000 0.000000 
0.000000 -0.000000 0.000000 
0.000000 0.000000 0.000000 

-0.000000 -0.000000 0.000000 
0.000000 -0.000000 0.000000 
0.000000 0.000000 0.000000 

-0.000000 -0.000000 0.000000 
0.000000 0.000000 0.000000 
0.000000 0.000000 0.000000 

-0.000000 0.000000 0.000000 
0.000000 -0.000000 0.000000 
0.000000 0.000000 0.000000 

-0.000000 -0.000000 0.000000 
0.000000 -0.000000 0.000000 
0.000000 0.000000 0.000000 

0.000000 0.000000 0.000000 
0.000000 -0.000000 0.000000 
0.000000 0.000000 0.000000 

0.000000 -0.000000 0.000000 
0.000000 -0.000000 0.000000 
0.000000 0.000000 0.000000 

-0.000000 -0.000000 0.000000 
0.000000 -0.000000 0.000000 
0.000000 0.000000 0.000000 

-0.000000 0.000000 0.000000 
0.000000 0.000000 0.000000 
0.000000 0.000000 0.000000 

-0.000000 0.000000 0.000000 
0.000000 -0.000000 0.000000 
0.000000 0.000000 0.000000 

0.000000 0.000000 0.000000 
0.000000 0.000000 0.000000 
0.000000 0.000000 0.000000 

0.000000 0.000000 0.000000 
0.000000 0.000000 0.000000 
0.000000 0.000000 0.000000 

-0.000000 0.000000 0.000000 
0.000000 -0.000000 0.000000 
0.000000 0.000000 0.000000 

0.000000 0.000000 0.000000 
0.000000 -0.000000 0.000000 
0.000000 0.000000 0.000000 

0.000000 0.000000 0.000000 
0.000000 0.000000 0.000000 
0.000000 0.000000 0.000000 

-0.000000 0.000000 0.000000 
0.000000 0.000000 0.000000 
0.000000 0.000000 0.000000 

0.000000 0.000000 0.000000 
0.000000 -0.000000 0.000000 
0.000000 0.000000 0.000000 

0.000000 -0.000000 0.000000 
0.000000 0.000000 0.000000 
0.000000 0.000000 0.000000 

0.000000 0.000000 0.000000 
0.000000 -0.000000 0.000000 
0.000000 0.000000 0.000000 

-0.000000 -0.000000 0.000000 
0.000000 -0.000000 0.000000 
0.000000 0.000000 0.000000 

-0.000000 0.000000 0.000000 
0.000000 0.000000 0.000000 
0.000000 0.000000 0.000000 

-0.000000 -0.000000 0.000000 
0.000000 -0.000000 0.000000 
0.000000 0.000000 0.000000 

-0.000000 -0.000000 0.000000 
0.000000 0.000000 0.000000 
0.000000 0.000000 0.000000 

-0.000000 0.000000 0.000000 
0.000000 0.000000 0.000000 
0.000000 0.000000 0.000000 

-0.000000 0.000000 0.000000 
0.000000 0.000000 0.000000 
0.000000 0.000000 0.000000 

-0.000000 0.000000 0.000000 
0.000000 0.000000 0.000000 
0.000000 0.000000 0.000000 

0.000000 -0.000000 0.000000 
0.000000 -0.000000 0.000000 
0.000000 0.000000 0.000000 

0.000000 0.000000 0.000000 
0.000000 0.000000 0.000000 
0.000000 0.000000 0.000000 

0.000000 0.000000 0.000000 
0.000000 0.000000 0.000000 
0.000000 0.000000 0.000000 

-0.000000 0.000000 0.000000 
0.000000 0.000000 0.000000 
0.000000 0.000000 0.000000 

-0.000000 0.000000 0.000000 
0.000000 -0.000000 0.000000 
0.000000 0.000000 0.000000 

0.000000 -0.000000 0.000000 
0.000000 0.000000 0.000000 
0.000000 0.000000 0.000000 

0.000000 -0.000000 0.000000 
0.000000 0.000000 0.000000 
0.000000 0.000000 0.000000 

0.000000 0.000000 0.000000 
0.000000 -0.000000 0.000000 
0.000000 0.000000 0.000000 

0.000000 0.000000 0.000000 
0.000000 -0.000000 0.000000 
0.000000 0.000000 0.000000 

0.000000 0.000000 0.000000 
0.000000 -0.000000 0.000000 
0.000000 0.000000 0.000000 

-0.000000 -0.000000 0.000000 
0.000000 -0.000000 0.000000 
0.000000 0.000000 0.000000 

0.000000 -0.000000 0.000000 
0.000000 -0.000000 0.000000 
0.000000 0.000000 0.000000 

0.000000 -0.000000 0.000000 
0.000000 0.000000 0.000000 
0.000000 0.000000 0.000000 

0.000000 -0.000000 0.000000 
0.000000 0.000000 0.000000 
0.000000 0.000000 0.000000 

0.000000 -0.000000 0.000000 
0.000000 -0.000000 0.000000 
0.000000 0.000000 0.000000 

0.000000 -0.000000 0.000000 
0.000000 -0.000000 0.000000 
0.000000 0.000000 0.000000 

0.000000 -0.000000 0.000000 
0.000000 -0.000000 0.000000 
0.000000 0.000000 0.000000 

0.000000 -0.000000 0.000000 
0.000000 -0.000000 0.000000 
0.000000 0.000000 0.000000 

-0.000000 0.000000 0.000000 
0.000000 -0.000000 0.000000 
0.000000 0.000000 0.000000 

0.000000 -0.000000 0.000000 
0.000000 -0.000000 0.000000 
0.000000 0.000000 0.000000 

0.000000 -0.000000 0.000000 
0.000000 -0.000000 0.000000 
0.000000 0.000000 0.000000 

0.000000 -0.000000 0.000000 
0.000000 0.000000 0.000000 
0.000000 0.000000 0.000000 

-0.000000 0.000000 0.000000 
0.000000 0.000000 0.000000 
0.000000 0.000000 0.000000 

-0.000000 0.000000 0.000000 
0.000000 0.000000 0.000000 
0.000000 0.000000 0.000000 

-0.000000 0.000000 0.000000 
0.000000 0.000000 0.000000 
0.000000 0.000000 0.000000 

0.000000 0.000000 0.000000 
0.000000 -0.000000 0.000000 
0.000000 0.000000 0.000000 

-0.000000 0.000000 0.000000 
0.000000 -0.000000 0.000000 
0.000000 0.000000 0.000000 

-0.000000 0.000000 0.000000 
0.000000 -0.000000 0.000000 
0.000000 0.000000 0.000000 

-0.000000 0.000000 0.000000 
0.000000 -0.000000 0.000000 
0.000000 0.000000 0.000000 

0.000000 -0.000000 0.000000 
0.000000 -0.000000 0.000000 
0.000000 0.000000 0.000000 

0.000000 0.000000 0.000000 
0.000000 -0.000000 0.000000 
0.000000 0.000000 0.000000 

0.000000 0.000000 0.000000 
0.000000 0.000000 0.000000 
0.000000 0.000000 0.000000 

-0.000000 0.000000 0.000000 
0.000000 0.000000 0.000000 
0.000000 0.000000 0.000000 

-0.000000 0.000000 0.000000 
0.000000 0.000000 0.000000 
0.000000 0.000000 0.000000 

-0.000000 0.000000 0.000000 
0.000000 -0.000000 0.000000 
0.000000 0.000000 0.000000 

0.000000 0.000000 0.000000 
0.000000 0.000000 0.000000 
0.000000 0.000000 0.000000 

0.000000 -0.000000 0.000000 
0.000000 0.000000 0.000000 
0.000000 0.000000 0.000000 

0.000000 -0.000000 0.000000 
0.000000 -0.000000 0.000000 
0.000000 0.000000 0.000000 

0.000000 -0.000000 0.000000 
0.000000 -0.000000 0.000000 
0.000000 0.000000 0.000000 

0.000000 0.000000 0.000000 
0.000000 -0.000000 0.000000 
0.000000 0.000000 0.000000 

-0.000000 0.000000 0.000000 
0.000000 -0.000000 0.000000 
0.000000 0.000000 0.000000 

-0.000000 0.000000 0.000000 
0.000000 -0.000000 0.000000 
0.000000 0.000000 0.000000 

-0.000000 0.000000 0.000000 
0.000000 -0.000000 0.000000 
0.000000 0.000000 0.000000 

0.000000 0.000000 0.000000 
0.000000 -0.000000 0.000000 
0.000000 0.000000 0.000000 

-0.000000 -0.000000 0.000000 
0.000000 0.000000 0.000000 
0.000000 0.000000 0.000000 

-0.000000 -0.000000 0.000000 
0.000000 0.000000 0.000000 
0.000000 0.000000 0.000000 

0.000000 -0.000000 0.000000 
0.000000 0.000000 0.000000 
0.000000 0.000000 0.000000 

0.000000 0.000000 0.000000 
0.000000 0.000000 0.000000 
0.000000 0.000000 0.000000 

0.000000 0.000000 0.000000 
0.000000 0.000000 0.000000 
0.000000 0.000000 0.000000 

0.000000 0.000000 0.000000 
0.000000 -0.000000 0.000000 
0.000000 0.000000 0.000000 

0.000000 0.000000 0.000000 
0.000000 0.000000 0.000000 
0.000000 0.000000 0.000000 

0.000000 0.000000 0.000000 
0.000000 0.000000 0.000000 
0.000000 0.000000 0.000000 

-0.000000 0.000000 0.000000 
0.000000 0.000000 0.000000 
0.000000 0.000000 0.000000 

0.000000 0.000000 0.000000 
0.000000 0.000000 0.000000 
0.000000 0.000000 0.000000 

0.000000 0.000000 0.000000 
0.000000 0.000000 0.000000 
0.000000 0.000000 0.000000 

0.000000 0.000000 0.000000 
0.000000 0.000000 0.000000 
0.000000 0.000000 0.000000 

0.000000 -0.000000 0.000000 
0.000000 0.000000 0.000000 
0.000000 0.000000 0.000000 

-0.000000 -0.000000 0.000000 
0.000000 0.000000 0.000000 
0.000000 0.000000 0.000000 

-0.000000 -0.000000 0.000000 
0.000000 0.000000 0.000000 
0.000000 0.000000 0.000000 

-0.000000 -0.000000 0.000000 
0.000000 0.000000 0.000000 
0.000000 0.000000 0.000000 

0.000000 0.000000 0.000000 
0.000000 0.000000 0.000000 
0.000000 0.000000 0.000000 

0.000000 0.000000 0.000000 
0.000000 -0.000000 0.000000 
0.000000 0.000000 0.000000 

-0.000000 0.000000 0.000000 
0.000000 0.000000 0.000000 
0.000000 0.000000 0.000000 

0.000000 0.000000 0.000000 
0.000000 0.000000 0.000000 
0.000000 0.000000 0.000000 

-0.000000 0.000000 0.000000 
0.000000 0.000000 0.000000 
0.000000 0.000000 0.000000 

0.000000 -0.000000 0.000000 
0.000000 0.000000 0.000000 
0.000000 0.000000 0.000000 

0.000000 -0.000000 0.000000 
0.000000 -0.000000 0.000000 
0.000000 0.000000 0.000000 

0.000000 -0.000000 0.000000 
0.000000 -0.000000 0.000000 
0.000000 0.000000 0.000000 

0.000000 -0.000000 0.000000 
0.000000 -0.000000 0.000000 
0.000000 0.000000 0.000000 

0.000000 0.000000 0.000000 
0.000000 -0.000000 0.000000 
0.000000 0.000000 0.000000 

0.000000 -0.000000 0.000000 
0.000000 -0.000000 0.000000 
0.000000 0.000000 0.000000 

0.000000 -0.000000 0.000000 
0.000000 0.000000 0.000000 
0.000000 0.000000 0.000000 

-0.000000 -0.000000 0.000000 
0.000000 0.000000 0.000000 
0.000000 0.000000 0.000000 

-0.000000 -0.000000 0.000000 
0.000000 -0.000000 0.000000 
0.000000 0.000000 0.000000 

-0.000000 -0.000000 0.000000 
0.000000 0.000000 0.000000 
0.000000 0.000000 0.000000 

0.000000 0.000000 0.000000 
0.000000 0.000000 0.000000 
0.000000 0.000000 0.000000 

-0.000000 -0.000000 0.000000 
0.000000 0.000000 0.000000 
0.000000 0.000000 0.000000 

-0.000000 0.000000 0.000000 
0.000000 0.000000 0.000000 
0.000000 0.000000 0.000000 

-0.000000 0.000000 0.000000 
0.000000 0.000000 0.000000 
0.000000 0.000000 0.000000 

-0.000000 0.000000 0.000000 
0.000000 0.000000 0.000000 
0.000000 0.000000 0.000000 

0.000000 0.000000 0.000000 
0.000000 0.000000 0.000000 
0.000000 0.000000 0.000000 

0.000000 0.000000 0.000000 
0.000000 0.000000 0.000000 
0.000000 0.000000 0.000000 

0.000000 0.000000 0.000000 
0.000000 -0.000000 0.000000 
0.000000 0.000000 0.000000 

0.000000 0.000000 0.000000 
0.000000 -0.000000 0.000000 
0.000000 0.000000 0.000000 

0.000000 0.000000 0.000000 
0.000000 -0.000000 0.000000 
0.000000 0.000000 0.000000 

0.000000 0.000000 0.000000 
0.000000 0.000000 0.000000 
0.000000 0.000000 0.000000 

0.000000 0.000000 0.000000 
0.000000 0.000000 0.000000 
0.000000 0.000000 0.000000 

-0.000000 0.000000 0.000000 
0.000000 0.000000 0.000000 
0.000000 0.000000 0.000000 

-0.000000 -0.000000 0.000000 
0.000000 -0.000000 0.000000 
0.000000 0.000000 0.000000 

-0.000000 -0.000000 0.000000 
0.000000 -0.000000 0.000000 
0.000000 0.000000 0.000000 

0.000000 0.000000 0.000000 
0.000000 -0.000000 0.000000 
0.000000 0.000000 0.000000 

0.000000 0.000000 0.000000 
0.000000 -0.000000 0.000000 
0.000000 0.000000 0.000000 

0.000000 0.000000 0.000000 
0.000000 0.000000 0.000000 
0.000000 0.000000 0.000000 

0.000000 0.000000 0.000000 
0.000000 0.000000 0.000000 
0.000000 0.000000 0.000000 

0.000000 -0.000000 0.000000 
0.000000 0.000000 0.000000 
0.000000 0.000000 0.000000 

0.000000 0.000000 0.000000 
0.000000 0.000000 0.000000 
0.000000 0.000000 0.000000 

-0.000000 -0.000000 0.000000 
0.000000 0.000000 0.000000 
0.000000 0.000000 0.000000 

-0.000000 0.000000 0.000000 
0.000000 0.000000 0.000000 
0.000000 0.000000 0.000000 

-0.000000 0.000000 0.000000 
0.000000 0.000000 0.000000 
0.000000 0.000000 0.000000 

-0.000000 0.000000 0.000000 
0.000000 0.000000 0.000000 
0.000000 0.000000 0.000000 

-0.000000 0.000000 0.000000 
0.000000 0.000000 0.000000 
0.000000 0.000000 0.000000 

-0.000000 0.000000 0.000000 
0.000000 0.000000 0.000000 
0.000000 0.000000 0.000000 

0.000000 -0.000000 0.000000 
0.000000 -0.000000 0.000000 
0.000000 0.000000 0.000000 

-0.000000 0.000000 0.000000 
0.000000 0.000000 0.000000 
0.000000 0.000000 0.000000 

0.000000 0.000000 0.000000 
0.000000 -0.000000 0.000000 
0.000000 0.000000 0.000000 

-0.000000 -0.000000 0.000000 
0.000000 -0.000000 0.000000 
0.000000 0.000000 0.000000 

-0.000000 -0.000000 0.000000 
0.000000 -0.000000 0.000000 
0.000000 0.000000 0.000000 

-0.000000 -0.000000 0.000000 
0.000000 0.000000 0.000000 
0.000000 0.000000 0.000000 

0.000000 -0.000000 0.000000 
0.000000 0.000000 0.000000 
0.000000 0.000000 0.000000 

0.000000 -0.000000 0.000000 
0.000000 0.000000 0.000000 
0.000000 0.000000 0.000000 

0.000000 0.000000 0.000000 
0.000000 -0.000000 0.000000 
0.000000 0.000000 0.000000 

0.000000 0.000000 0.000000 
0.000000 0.000000 0.000000 
0.000000 0.000000 0.000000 

0.000000 0.000000 0.000000 
0.000000 -0.000000 0.000000 
0.000000 0.000000 0.000000 

-0.000000 -0.000000 0.000000 
0.000000 -0.000000 0.000000 
0.000000 0.000000 0.000000 

0.000000 0.000000 0.000000 
0.000000 -0.000000 0.000000 
0.000000 0.000000 0.000000 

-0.000000 0.000000 0.000000 
0.000000 -0.000000 0.000000 
0.000000 0.000000 0.000000 

-0.000000 0.000000 0.000000 
0.000000 0.000000 0.000000 
0.000000 0.000000 0.000000 

-0.000000 0.000000 0.000000 
0.000000 -0.000000 0.000000 
0.000000 0.000000 0.000000 

-0.000000 0.000000 0.000000 
0.000000 0.000000 0.000000 
0.000000 0.000000 0.000000 

-0.000000 0.000000 0.000000 
0.000000 0.000000 0.000000 
0.000000 0.000000 0.000000 

-0.000000 0.000000 0.000000 
0.000000 0.000000 0.000000 
0.000000 0.000000 0.000000 

-0.000000 -0.000000 0.000000 
0.000000 0.000000 0.000000 
0.000000 0.000000 0.000000 

-0.000000 -0.000000 0.000000 
0.000000 0.000000 0.000000 
0.000000 0.000000 0.000000 

-0.000000 -0.000000 0.000000 
0.000000 0.000000 0.000000 
0.000000 0.000000 0.000000 

-0.000000 0.000000 0.000000 
0.000000 0.000000 0.000000 
0.000000 0.000000 0.000000 

0.000000 -0.000000 0.000000 
0.000000 0.000000 0.000000 
0.000000 0.000000 0.000000 

-0.000000 -0.000000 0.000000 
0.000000 0.000000 0.000000 
0.000000 0.000000 0.000000 

-0.000000 0.000000 0.000000 
0.000000 0.000000 0.000000 
0.000000 0.000000 0.000000 

-0.000000 0.000000 0.000000 
0.000000 0.000000 0.000000 
0.000000 0.000000 0.000000 

-0.000000 0.000000 0.000000 
0.000000 0.000000 0.000000 
0.000000 0.000000 0.000000 

-0.000000 -0.000000 0.000000 
0.000000 -0.000000 0.000000 
0.000000 0.000000 0.000000 

0.000000 -0.000000 0.000000 
0.000000 -0.000000 0.000000 
0.000000 0.000000 0.000000 

0.000000 -0.000000 0.000000 
0.000000 -0.000000 0.000000 
0.000000 0.000000 0.000000 

-0.000000 -0.000000 0.000000 
0.000000 -0.000000 0.000000 
0.000000 0.000000 0.000000 

-0.000000 0.000000 0.000000 
0.000000 0.000000 0.000000 
0.000000 0.000000 0.000000 

-0.000000 0.000000 0.000000 
0.000000 -0.000000 0.000000 
0.000000 0.000000 0.000000 

-0.000000 -0.000000 0.000000 
0.000000 -0.000000 0.000000 
0.000000 0.000000 0.000000 

-0.000000 0.000000 0.000000 
0.000000 0.000000 0.000000 
0.000000 0.000000 0.000000 

-0.000000 0.000000 0.000000 
0.000000 0.000000 0.000000 
0.000000 0.000000 0.000000 

0.000000 -0.000000 0.000000 
0.000000 -0.000000 0.000000 
0.000000 0.000000 0.000000 

0.000000 -0.000000 0.000000 
0.000000 -0.000000 0.000000 
0.000000 0.000000 0.000000 

0.000000 0.000000 0.000000 
0.000000 -0.000000 0.000000 
0.000000 0.000000 0.000000 

0.000000 0.000000 0.000000 
0.000000 -0.000000 0.000000 
0.000000 0.000000 0.000000 

0.000000 0.000000 0.000000 
0.000000 -0.000000 0.000000 
0.000000 0.000000 0.000000 

0.000000 0.000000 0.000000 
0.000000 0.000000 0.000000 
0.000000 0.000000 0.000000 

0.000000 0.000000 0.000000 
0.000000 0.000000 0.000000 
0.000000 0.000000 0.000000 

