# vtk DataFile Version 3.0 
vtk output 
ASCII 
DATASET UNSTRUCTURED_GRID 
POINTS 175 float 
-0.026061 0.052917 0.000000 
-0.106992 0.120972 0.000000 
-0.054870 0.112739 0.000000 
-0.028809 0.158623 0.000000 
-0.186430 0.185047 0.000000 
-0.137056 0.182521 0.000000 
-0.114311 0.236169 0.000000 
-0.058186 0.220503 0.000000 
-0.029377 0.260680 0.000000 
-0.265318 0.248203 0.000000 
-0.217198 0.247404 0.000000 
-0.196633 0.304700 0.000000 
-0.143120 0.295991 0.000000 
-0.116563 0.343260 0.000000 
-0.058945 0.323614 0.000000 
-0.029568 0.361734 0.000000 
-0.344206 0.311359 0.000000 
-0.296791 0.311366 0.000000 
-0.278030 0.371309 0.000000 
-0.225992 0.365443 0.000000 
-0.201664 0.417560 0.000000 
-0.145749 0.404086 0.000000 
-0.117890 0.448428 0.000000 
-0.059328 0.425723 0.000000 
-0.029759 0.462788 0.000000 
-0.058559 0.012166 0.000000 
-0.162226 -0.008677 0.000000 
-0.123292 0.026941 0.000000 
-0.142917 0.075924 0.000000 
-0.261851 -0.030833 0.000000 
-0.229092 0.006194 0.000000 
-0.256854 0.057425 0.000000 
-0.209613 0.091538 0.000000 
-0.223062 0.139112 0.000000 
-0.360414 -0.053133 0.000000 
-0.329787 -0.016011 0.000000 
-0.361761 0.035792 0.000000 
-0.321587 0.072200 0.000000 
-0.341985 0.122434 0.000000 
-0.290702 0.155233 0.000000 
-0.302189 0.201969 0.000000 
-0.458977 -0.075434 0.000000 
-0.429420 -0.038359 0.000000 
-0.464588 0.013683 0.000000 
-0.427556 0.050710 0.000000 
-0.453135 0.102225 0.000000 
-0.407738 0.137540 0.000000 
-0.425037 0.186969 0.000000 
-0.370772 0.218598 0.000000 
-0.381315 0.264825 0.000000 
-0.046960 -0.038649 0.000000 
-0.095301 -0.132695 0.000000 
-0.098873 -0.080048 0.000000 
-0.149405 -0.064851 0.000000 
-0.140093 -0.224399 0.000000 
-0.148617 -0.175701 0.000000 
-0.205981 -0.165464 0.000000 
-0.203197 -0.107260 0.000000 
-0.248777 -0.088114 0.000000 
-0.184111 -0.315363 0.000000 
-0.194039 -0.268272 0.000000 
-0.254475 -0.260972 0.000000 
-0.257893 -0.206862 0.000000 
-0.309886 -0.191490 0.000000 
-0.303554 -0.130945 0.000000 
-0.347255 -0.110787 0.000000 
-0.228129 -0.406327 0.000000 
-0.238687 -0.360102 0.000000 
-0.301302 -0.355150 0.000000 
-0.307162 -0.303111 0.000000 
-0.363386 -0.290990 0.000000 
-0.362692 -0.233479 0.000000 
-0.412122 -0.216186 0.000000 
-0.403017 -0.154039 0.000000 
-0.445733 -0.133460 0.000000 
-0.000000 -0.061264 0.000000 
0.043388 -0.157695 0.000000 
-0.000000 -0.127663 0.000000 
-0.043388 -0.157695 0.000000 
0.087158 -0.249892 0.000000 
0.043769 -0.226193 0.000000 
-0.000000 -0.264659 0.000000 
-0.043769 -0.226193 0.000000 
-0.087158 -0.249892 0.000000 
0.130831 -0.341021 0.000000 
0.087824 -0.319423 0.000000 
0.044436 -0.362122 0.000000 
-0.000000 -0.331057 0.000000 
-0.044436 -0.362122 0.000000 
-0.087824 -0.319422 0.000000 
-0.130831 -0.341021 0.000000 
0.174505 -0.432151 0.000000 
0.131782 -0.411585 0.000000 
0.088871 -0.457451 0.000000 
0.044532 -0.429588 0.000000 
-0.000000 -0.465988 0.000000 
-0.044532 -0.429588 0.000000 
-0.088871 -0.457451 0.000000 
-0.131782 -0.411585 0.000000 
-0.174505 -0.432151 0.000000 
0.046960 -0.038649 0.000000 
0.149405 -0.064851 0.000000 
0.098873 -0.080048 0.000000 
0.095301 -0.132695 0.000000 
0.248777 -0.088114 0.000000 
0.203197 -0.107260 0.000000 
0.205981 -0.165464 0.000000 
0.148617 -0.175701 0.000000 
0.140093 -0.224399 0.000000 
0.347255 -0.110787 0.000000 
0.303554 -0.130945 0.000000 
0.309886 -0.191490 0.000000 
0.257893 -0.206862 0.000000 
0.254475 -0.260972 0.000000 
0.194039 -0.268272 0.000000 
0.184111 -0.315363 0.000000 
0.445733 -0.133460 0.000000 
0.403017 -0.154039 0.000000 
0.412122 -0.216186 0.000000 
0.362692 -0.233479 0.000000 
0.363386 -0.290990 0.000000 
0.307162 -0.303111 0.000000 
0.301302 -0.355150 0.000000 
0.238687 -0.360102 0.000000 
0.228129 -0.406327 0.000000 
0.058559 0.012166 0.000000 
0.142917 0.075924 0.000000 
0.123292 0.026941 0.000000 
0.162226 -0.008677 0.000000 
0.223062 0.139112 0.000000 
0.209613 0.091538 0.000000 
0.256854 0.057425 0.000000 
0.229092 0.006194 0.000000 
0.261851 -0.030833 0.000000 
0.302189 0.201969 0.000000 
0.290702 0.155233 0.000000 
0.341985 0.122434 0.000000 
0.321587 0.072200 0.000000 
0.361761 0.035792 0.000000 
0.329787 -0.016011 0.000000 
0.360414 -0.053133 0.000000 
0.381315 0.264825 0.000000 
0.370772 0.218598 0.000000 
0.425037 0.186969 0.000000 
0.407738 0.137540 0.000000 
0.453135 0.102225 0.000000 
0.427556 0.050710 0.000000 
0.464588 0.013683 0.000000 
0.429420 -0.038359 0.000000 
0.458977 -0.075434 0.000000 
0.026061 0.052917 0.000000 
0.028809 0.158623 0.000000 
0.054870 0.112739 0.000000 
0.106992 0.120972 0.000000 
0.029377 0.260680 0.000000 
0.058186 0.220503 0.000000 
0.114311 0.236169 0.000000 
0.137056 0.182521 0.000000 
0.186430 0.185047 0.000000 
0.029568 0.361734 0.000000 
0.058945 0.323614 0.000000 
0.116563 0.343260 0.000000 
0.143120 0.295991 0.000000 
0.196633 0.304700 0.000000 
0.217198 0.247404 0.000000 
0.265318 0.248203 0.000000 
0.029759 0.462788 0.000000 
0.059328 0.425723 0.000000 
0.117890 0.448428 0.000000 
0.145749 0.404086 0.000000 
0.201664 0.417560 0.000000 
0.225992 0.365443 0.000000 
0.278030 0.371309 0.000000 
0.296791 0.311366 0.000000 
0.344206 0.311359 0.000000 
CELLS 175 350 
1 0 
1 1 
1 2 
1 3 
1 4 
1 5 
1 6 
1 7 
1 8 
1 9 
1 10 
1 11 
1 12 
1 13 
1 14 
1 15 
1 16 
1 17 
1 18 
1 19 
1 20 
1 21 
1 22 
1 23 
1 24 
1 25 
1 26 
1 27 
1 28 
1 29 
1 30 
1 31 
1 32 
1 33 
1 34 
1 35 
1 36 
1 37 
1 38 
1 39 
1 40 
1 41 
1 42 
1 43 
1 44 
1 45 
1 46 
1 47 
1 48 
1 49 
1 50 
1 51 
1 52 
1 53 
1 54 
1 55 
1 56 
1 57 
1 58 
1 59 
1 60 
1 61 
1 62 
1 63 
1 64 
1 65 
1 66 
1 67 
1 68 
1 69 
1 70 
1 71 
1 72 
1 73 
1 74 
1 75 
1 76 
1 77 
1 78 
1 79 
1 80 
1 81 
1 82 
1 83 
1 84 
1 85 
1 86 
1 87 
1 88 
1 89 
1 90 
1 91 
1 92 
1 93 
1 94 
1 95 
1 96 
1 97 
1 98 
1 99 
1 100 
1 101 
1 102 
1 103 
1 104 
1 105 
1 106 
1 107 
1 108 
1 109 
1 110 
1 111 
1 112 
1 113 
1 114 
1 115 
1 116 
1 117 
1 118 
1 119 
1 120 
1 121 
1 122 
1 123 
1 124 
1 125 
1 126 
1 127 
1 128 
1 129 
1 130 
1 131 
1 132 
1 133 
1 134 
1 135 
1 136 
1 137 
1 138 
1 139 
1 140 
1 141 
1 142 
1 143 
1 144 
1 145 
1 146 
1 147 
1 148 
1 149 
1 150 
1 151 
1 152 
1 153 
1 154 
1 155 
1 156 
1 157 
1 158 
1 159 
1 160 
1 161 
1 162 
1 163 
1 164 
1 165 
1 166 
1 167 
1 168 
1 169 
1 170 
1 171 
1 172 
1 173 
1 174 
CELL_TYPES 175 
1 
1 
1 
1 
1 
1 
1 
1 
1 
1 
1 
1 
1 
1 
1 
1 
1 
1 
1 
1 
1 
1 
1 
1 
1 
1 
1 
1 
1 
1 
1 
1 
1 
1 
1 
1 
1 
1 
1 
1 
1 
1 
1 
1 
1 
1 
1 
1 
1 
1 
1 
1 
1 
1 
1 
1 
1 
1 
1 
1 
1 
1 
1 
1 
1 
1 
1 
1 
1 
1 
1 
1 
1 
1 
1 
1 
1 
1 
1 
1 
1 
1 
1 
1 
1 
1 
1 
1 
1 
1 
1 
1 
1 
1 
1 
1 
1 
1 
1 
1 
1 
1 
1 
1 
1 
1 
1 
1 
1 
1 
1 
1 
1 
1 
1 
1 
1 
1 
1 
1 
1 
1 
1 
1 
1 
1 
1 
1 
1 
1 
1 
1 
1 
1 
1 
1 
1 
1 
1 
1 
1 
1 
1 
1 
1 
1 
1 
1 
1 
1 
1 
1 
1 
1 
1 
1 
1 
1 
1 
1 
1 
1 
1 
1 
1 
1 
1 
1 
1 
1 
1 
1 
1 
1 
1 
POINT_DATA 175 
VECTORS X_GC float 
-0.026061 0.052917 0.000000 
-0.106992 0.120972 0.000000 
-0.054870 0.112739 0.000000 
-0.028809 0.158623 0.000000 
-0.186430 0.185047 0.000000 
-0.137056 0.182521 0.000000 
-0.114311 0.236169 0.000000 
-0.058186 0.220503 0.000000 
-0.029377 0.260680 0.000000 
-0.265318 0.248203 0.000000 
-0.217198 0.247404 0.000000 
-0.196633 0.304700 0.000000 
-0.143120 0.295991 0.000000 
-0.116563 0.343260 0.000000 
-0.058945 0.323614 0.000000 
-0.029568 0.361734 0.000000 
-0.344206 0.311359 0.000000 
-0.296791 0.311366 0.000000 
-0.278030 0.371309 0.000000 
-0.225992 0.365443 0.000000 
-0.201664 0.417560 0.000000 
-0.145749 0.404086 0.000000 
-0.117890 0.448428 0.000000 
-0.059328 0.425723 0.000000 
-0.029759 0.462788 0.000000 
-0.058559 0.012166 0.000000 
-0.162226 -0.008677 0.000000 
-0.123292 0.026941 0.000000 
-0.142917 0.075924 0.000000 
-0.261851 -0.030833 0.000000 
-0.229092 0.006194 0.000000 
-0.256854 0.057425 0.000000 
-0.209613 0.091538 0.000000 
-0.223062 0.139112 0.000000 
-0.360414 -0.053133 0.000000 
-0.329787 -0.016011 0.000000 
-0.361761 0.035792 0.000000 
-0.321587 0.072200 0.000000 
-0.341985 0.122434 0.000000 
-0.290702 0.155233 0.000000 
-0.302189 0.201969 0.000000 
-0.458977 -0.075434 0.000000 
-0.429420 -0.038359 0.000000 
-0.464588 0.013683 0.000000 
-0.427556 0.050710 0.000000 
-0.453135 0.102225 0.000000 
-0.407738 0.137540 0.000000 
-0.425037 0.186969 0.000000 
-0.370772 0.218598 0.000000 
-0.381315 0.264825 0.000000 
-0.046960 -0.038649 0.000000 
-0.095301 -0.132695 0.000000 
-0.098873 -0.080048 0.000000 
-0.149405 -0.064851 0.000000 
-0.140093 -0.224399 0.000000 
-0.148617 -0.175701 0.000000 
-0.205981 -0.165464 0.000000 
-0.203197 -0.107260 0.000000 
-0.248777 -0.088114 0.000000 
-0.184111 -0.315363 0.000000 
-0.194039 -0.268272 0.000000 
-0.254475 -0.260972 0.000000 
-0.257893 -0.206862 0.000000 
-0.309886 -0.191490 0.000000 
-0.303554 -0.130945 0.000000 
-0.347255 -0.110787 0.000000 
-0.228129 -0.406327 0.000000 
-0.238687 -0.360102 0.000000 
-0.301302 -0.355150 0.000000 
-0.307162 -0.303111 0.000000 
-0.363386 -0.290990 0.000000 
-0.362692 -0.233479 0.000000 
-0.412122 -0.216186 0.000000 
-0.403017 -0.154039 0.000000 
-0.445733 -0.133460 0.000000 
-0.000000 -0.061264 0.000000 
0.043388 -0.157695 0.000000 
-0.000000 -0.127663 0.000000 
-0.043388 -0.157695 0.000000 
0.087158 -0.249892 0.000000 
0.043769 -0.226193 0.000000 
-0.000000 -0.264659 0.000000 
-0.043769 -0.226193 0.000000 
-0.087158 -0.249892 0.000000 
0.130831 -0.341021 0.000000 
0.087824 -0.319423 0.000000 
0.044436 -0.362122 0.000000 
-0.000000 -0.331057 0.000000 
-0.044436 -0.362122 0.000000 
-0.087824 -0.319422 0.000000 
-0.130831 -0.341021 0.000000 
0.174505 -0.432151 0.000000 
0.131782 -0.411585 0.000000 
0.088871 -0.457451 0.000000 
0.044532 -0.429588 0.000000 
-0.000000 -0.465988 0.000000 
-0.044532 -0.429588 0.000000 
-0.088871 -0.457451 0.000000 
-0.131782 -0.411585 0.000000 
-0.174505 -0.432151 0.000000 
0.046960 -0.038649 0.000000 
0.149405 -0.064851 0.000000 
0.098873 -0.080048 0.000000 
0.095301 -0.132695 0.000000 
0.248777 -0.088114 0.000000 
0.203197 -0.107260 0.000000 
0.205981 -0.165464 0.000000 
0.148617 -0.175701 0.000000 
0.140093 -0.224399 0.000000 
0.347255 -0.110787 0.000000 
0.303554 -0.130945 0.000000 
0.309886 -0.191490 0.000000 
0.257893 -0.206862 0.000000 
0.254475 -0.260972 0.000000 
0.194039 -0.268272 0.000000 
0.184111 -0.315363 0.000000 
0.445733 -0.133460 0.000000 
0.403017 -0.154039 0.000000 
0.412122 -0.216186 0.000000 
0.362692 -0.233479 0.000000 
0.363386 -0.290990 0.000000 
0.307162 -0.303111 0.000000 
0.301302 -0.355150 0.000000 
0.238687 -0.360102 0.000000 
0.228129 -0.406327 0.000000 
0.058559 0.012166 0.000000 
0.142917 0.075924 0.000000 
0.123292 0.026941 0.000000 
0.162226 -0.008677 0.000000 
0.223062 0.139112 0.000000 
0.209613 0.091538 0.000000 
0.256854 0.057425 0.000000 
0.229092 0.006194 0.000000 
0.261851 -0.030833 0.000000 
0.302189 0.201969 0.000000 
0.290702 0.155233 0.000000 
0.341985 0.122434 0.000000 
0.321587 0.072200 0.000000 
0.361761 0.035792 0.000000 
0.329787 -0.016011 0.000000 
0.360414 -0.053133 0.000000 
0.381315 0.264825 0.000000 
0.370772 0.218598 0.000000 
0.425037 0.186969 0.000000 
0.407738 0.137540 0.000000 
0.453135 0.102225 0.000000 
0.427556 0.050710 0.000000 
0.464588 0.013683 0.000000 
0.429420 -0.038359 0.000000 
0.458977 -0.075434 0.000000 
0.026061 0.052917 0.000000 
0.028809 0.158623 0.000000 
0.054870 0.112739 0.000000 
0.106992 0.120972 0.000000 
0.029377 0.260680 0.000000 
0.058186 0.220503 0.000000 
0.114311 0.236169 0.000000 
0.137056 0.182521 0.000000 
0.186430 0.185047 0.000000 
0.029568 0.361734 0.000000 
0.058945 0.323614 0.000000 
0.116563 0.343260 0.000000 
0.143120 0.295991 0.000000 
0.196633 0.304700 0.000000 
0.217198 0.247404 0.000000 
0.265318 0.248203 0.000000 
0.029759 0.462788 0.000000 
0.059328 0.425723 0.000000 
0.117890 0.448428 0.000000 
0.145749 0.404086 0.000000 
0.201664 0.417560 0.000000 
0.225992 0.365443 0.000000 
0.278030 0.371309 0.000000 
0.296791 0.311366 0.000000 
0.344206 0.311359 0.000000 
VECTORS X_EC float 
0.338794 -0.214373 0.000000 
-0.609100 0.866878 0.000000 
0.713312 0.978019 0.000000 
0.374519 0.358590 0.000000 
0.423588 0.001859 0.000000 
-0.218274 0.035963 0.000000 
-0.513962 -0.688276 0.000000 
0.756418 -0.476790 0.000000 
0.381900 0.980818 0.000000 
-0.550868 -0.850744 0.000000 
0.823577 -0.839948 0.000000 
0.556234 0.386548 0.000000 
-0.139443 0.504116 0.000000 
-0.484677 -0.134008 0.000000 
0.766286 0.131207 0.000000 
0.384386 -0.383413 0.000000 
0.474677 0.296653 0.000000 
-0.141715 0.296556 0.000000 
-0.385608 -0.512672 0.000000 
0.937896 -0.433476 0.000000 
0.621631 0.862944 0.000000 
-0.105264 -0.955157 0.000000 
-0.467428 0.446217 0.000000 
0.771260 0.752745 0.000000 
0.386873 0.252356 0.000000 
0.761262 0.335761 0.000000 
0.108942 0.617138 0.000000 
-0.397202 0.136299 0.000000 
-0.142083 -0.524977 0.000000 
-0.595936 0.916249 0.000000 
0.978194 0.416383 0.000000 
-0.660903 -0.275242 0.000000 
0.724964 -0.735762 0.000000 
0.899809 0.621989 0.000000 
0.685384 -0.782699 0.000000 
0.287229 0.716142 0.000000 
0.702895 0.016814 0.000000 
0.180633 -0.474705 0.000000 
0.445811 0.847136 0.000000 
-0.220880 0.404350 0.000000 
-0.071546 -0.226576 0.000000 
-0.033296 -0.481647 0.000000 
-0.417537 -0.982157 0.000000 
0.039645 0.315281 0.000000 
-0.441768 -0.184590 0.000000 
-0.109248 -0.880041 0.000000 
-0.699407 0.643204 0.000000 
-0.474522 -0.024076 0.000000 
0.820030 -0.451069 0.000000 
0.957100 0.924859 0.000000 
0.610485 -0.978232 0.000000 
-0.761092 0.291387 0.000000 
-0.714655 -0.419350 0.000000 
-0.057734 -0.624518 0.000000 
-0.178789 -0.470609 0.000000 
-0.067979 0.871965 0.000000 
0.677748 0.733762 0.000000 
0.641556 -0.051983 0.000000 
-0.765897 -0.310462 0.000000 
0.393446 0.757400 0.000000 
0.522510 0.121670 0.000000 
-0.691820 0.023126 0.000000 
-0.647393 -0.707356 0.000000 
0.028512 -0.914883 0.000000 
-0.053800 0.267757 0.000000 
0.514316 -0.004374 0.000000 
0.965681 -0.014591 0.000000 
-0.897068 -0.638619 0.000000 
-0.083078 -0.705472 0.000000 
-0.006893 0.592003 0.000000 
0.724017 0.428370 0.000000 
0.714996 -0.348033 0.000000 
-0.642413 -0.581491 0.000000 
-0.760780 0.579529 0.000000 
-0.205471 0.301713 0.000000 
0.000000 -0.672931 0.000000 
-0.564049 0.628882 0.000000 
0.000000 0.223446 0.000000 
0.564049 0.628882 0.000000 
0.866949 -0.126463 0.000000 
-0.569003 -0.446394 0.000000 
0.000000 0.072895 0.000000 
0.569003 -0.446394 0.000000 
-0.866949 -0.126463 0.000000 
0.299194 -0.896212 0.000000 
0.858290 0.812204 0.000000 
-0.577662 -0.611350 0.000000 
0.000000 0.969271 0.000000 
0.577662 -0.611350 0.000000 
-0.858290 0.812204 0.000000 
-0.299194 -0.896212 0.000000 
-0.268560 0.334038 0.000000 
0.286830 0.056396 0.000000 
0.844677 0.675594 0.000000 
-0.578910 0.299432 0.000000 
0.000000 0.790835 0.000000 
0.578910 0.299432 0.000000 
-0.844677 0.675594 0.000000 
-0.286830 0.056396 0.000000 
0.268560 0.334038 0.000000 
-0.610485 -0.978232 0.000000 
0.057734 -0.624518 0.000000 
0.714655 -0.419350 0.000000 
0.761092 0.291387 0.000000 
0.765897 -0.310462 0.000000 
-0.641556 -0.051983 0.000000 
-0.677748 0.733762 0.000000 
0.067979 0.871965 0.000000 
0.178789 -0.470609 0.000000 
-0.514316 -0.004374 0.000000 
0.053800 0.267757 0.000000 
-0.028512 -0.914883 0.000000 
0.647393 -0.707356 0.000000 
0.691820 0.023126 0.000000 
-0.522510 0.121670 0.000000 
-0.393446 0.757400 0.000000 
0.205471 0.301713 0.000000 
0.760780 0.579529 0.000000 
0.642413 -0.581491 0.000000 
-0.714996 -0.348033 0.000000 
-0.724017 0.428370 0.000000 
0.006894 0.592003 0.000000 
0.083078 -0.705472 0.000000 
0.897068 -0.638619 0.000000 
-0.965681 -0.014591 0.000000 
-0.761262 0.335761 0.000000 
0.142083 -0.524977 0.000000 
0.397202 0.136299 0.000000 
-0.108942 0.617138 0.000000 
-0.899809 0.621989 0.000000 
-0.724964 -0.735762 0.000000 
0.660903 -0.275242 0.000000 
-0.978194 0.416383 0.000000 
0.595936 0.916249 0.000000 
0.071546 -0.226576 0.000000 
0.220880 0.404350 0.000000 
-0.445811 0.847136 0.000000 
-0.180633 -0.474705 0.000000 
-0.702895 0.016814 0.000000 
-0.287229 0.716142 0.000000 
-0.685384 -0.782699 0.000000 
-0.957100 0.924859 0.000000 
-0.820030 -0.451069 0.000000 
0.474522 -0.024076 0.000000 
0.699407 0.643204 0.000000 
0.109248 -0.880041 0.000000 
0.441768 -0.184590 0.000000 
-0.039645 0.315281 0.000000 
0.417537 -0.982157 0.000000 
0.033296 -0.481647 0.000000 
-0.338794 -0.214373 0.000000 
-0.374519 0.358590 0.000000 
-0.713312 0.978019 0.000000 
0.609100 0.866878 0.000000 
-0.381900 0.980818 0.000000 
-0.756418 -0.476790 0.000000 
0.513962 -0.688276 0.000000 
0.218274 0.035963 0.000000 
-0.423588 0.001859 0.000000 
-0.384386 -0.383413 0.000000 
-0.766286 0.131207 0.000000 
0.484677 -0.134008 0.000000 
0.139443 0.504116 0.000000 
-0.556234 0.386548 0.000000 
-0.823577 -0.839948 0.000000 
0.550868 -0.850744 0.000000 
-0.386873 0.252356 0.000000 
-0.771260 0.752745 0.000000 
0.467428 0.446217 0.000000 
0.105264 -0.955157 0.000000 
-0.621631 0.862944 0.000000 
-0.937896 -0.433476 0.000000 
0.385608 -0.512672 0.000000 
0.141715 0.296556 0.000000 
-0.474677 0.296653 0.000000 
CELL_DATA 175 
SCALARS MASS float 
LOOKUP_TABLE default 
0.078183 
0.086427 
0.094672 
0.086427 
0.088131 
0.092111 
0.085854 
0.092111 
0.088131 
0.088705 
0.091000 
0.086983 
0.091556 
0.086983 
0.091000 
0.088705 
0.089278 
0.091574 
0.089278 
0.092722 
0.089278 
0.092722 
0.089278 
0.091574 
0.089278 
0.078183 
0.086427 
0.094672 
0.086427 
0.088131 
0.092111 
0.085854 
0.092111 
0.088131 
0.088705 
0.091000 
0.086983 
0.091556 
0.086983 
0.091000 
0.088705 
0.089278 
0.091574 
0.089278 
0.092722 
0.089278 
0.092722 
0.089278 
0.091574 
0.089278 
0.078183 
0.086427 
0.094672 
0.086427 
0.088131 
0.092111 
0.085854 
0.092111 
0.088131 
0.088705 
0.091000 
0.086983 
0.091556 
0.086983 
0.091000 
0.088705 
0.089278 
0.091574 
0.089278 
0.092722 
0.089278 
0.092722 
0.089278 
0.091574 
0.089278 
0.078183 
0.086427 
0.094672 
0.086427 
0.088131 
0.092111 
0.085854 
0.092111 
0.088131 
0.088705 
0.091000 
0.086983 
0.091556 
0.086983 
0.091000 
0.088705 
0.089278 
0.091574 
0.089278 
0.092722 
0.089278 
0.092722 
0.089278 
0.091574 
0.089278 
0.078183 
0.086427 
0.094672 
0.086427 
0.088131 
0.092111 
0.085854 
0.092111 
0.088131 
0.088705 
0.091000 
0.086983 
0.091556 
0.086983 
0.091000 
0.088705 
0.089278 
0.091574 
0.089278 
0.092722 
0.089278 
0.092722 
0.089278 
0.091574 
0.089278 
0.078183 
0.086427 
0.094672 
0.086427 
0.088131 
0.092111 
0.085854 
0.092111 
0.088131 
0.088705 
0.091000 
0.086983 
0.091556 
0.086983 
0.091000 
0.088705 
0.089278 
0.091574 
0.089278 
0.092722 
0.089278 
0.092722 
0.089278 
0.091574 
0.089278 
0.078183 
0.086427 
0.094672 
0.086427 
0.088131 
0.092111 
0.085854 
0.092111 
0.088131 
0.088705 
0.091000 
0.086983 
0.091556 
0.086983 
0.091000 
0.088705 
0.089278 
0.091574 
0.089278 
0.092722 
0.089278 
0.092722 
0.089278 
0.091574 
0.089278 
SCALARS MASS float 
LOOKUP_TABLE default 
0.078183 
0.086427 
0.094672 
0.086427 
0.088131 
0.092111 
0.085854 
0.092111 
0.088131 
0.088705 
0.091000 
0.086983 
0.091556 
0.086983 
0.091000 
0.088705 
0.089278 
0.091574 
0.089278 
0.092722 
0.089278 
0.092722 
0.089278 
0.091574 
0.089278 
0.078183 
0.086427 
0.094672 
0.086427 
0.088131 
0.092111 
0.085854 
0.092111 
0.088131 
0.088705 
0.091000 
0.086983 
0.091556 
0.086983 
0.091000 
0.088705 
0.089278 
0.091574 
0.089278 
0.092722 
0.089278 
0.092722 
0.089278 
0.091574 
0.089278 
0.078183 
0.086427 
0.094672 
0.086427 
0.088131 
0.092111 
0.085854 
0.092111 
0.088131 
0.088705 
0.091000 
0.086983 
0.091556 
0.086983 
0.091000 
0.088705 
0.089278 
0.091574 
0.089278 
0.092722 
0.089278 
0.092722 
0.089278 
0.091574 
0.089278 
0.078183 
0.086427 
0.094672 
0.086427 
0.088131 
0.092111 
0.085854 
0.092111 
0.088131 
0.088705 
0.091000 
0.086983 
0.091556 
0.086983 
0.091000 
0.088705 
0.089278 
0.091574 
0.089278 
0.092722 
0.089278 
0.092722 
0.089278 
0.091574 
0.089278 
0.078183 
0.086427 
0.094672 
0.086427 
0.088131 
0.092111 
0.085854 
0.092111 
0.088131 
0.088705 
0.091000 
0.086983 
0.091556 
0.086983 
0.091000 
0.088705 
0.089278 
0.091574 
0.089278 
0.092722 
0.089278 
0.092722 
0.089278 
0.091574 
0.089278 
0.078183 
0.086427 
0.094672 
0.086427 
0.088131 
0.092111 
0.085854 
0.092111 
0.088131 
0.088705 
0.091000 
0.086983 
0.091556 
0.086983 
0.091000 
0.088705 
0.089278 
0.091574 
0.089278 
0.092722 
0.089278 
0.092722 
0.089278 
0.091574 
0.089278 
0.078183 
0.086427 
0.094672 
0.086427 
0.088131 
0.092111 
0.085854 
0.092111 
0.088131 
0.088705 
0.091000 
0.086983 
0.091556 
0.086983 
0.091000 
0.088705 
0.089278 
0.091574 
0.089278 
0.092722 
0.089278 
0.092722 
0.089278 
0.091574 
0.089278 
SCALARS DENSITY float 
LOOKUP_TABLE default 
20.000000 
20.000000 
20.000000 
20.000000 
20.000000 
20.000000 
20.000000 
20.000000 
20.000000 
20.000000 
20.000000 
20.000000 
20.000000 
20.000000 
20.000000 
20.000000 
20.000000 
20.000000 
20.000000 
20.000000 
20.000000 
20.000000 
20.000000 
20.000000 
20.000000 
20.000000 
20.000000 
20.000000 
20.000000 
20.000000 
20.000000 
20.000000 
20.000000 
20.000000 
20.000000 
20.000000 
20.000000 
20.000000 
20.000000 
20.000000 
20.000000 
20.000000 
20.000000 
20.000000 
20.000000 
20.000000 
20.000000 
20.000000 
20.000000 
20.000000 
20.000000 
20.000000 
20.000000 
20.000000 
20.000000 
20.000000 
20.000000 
20.000000 
20.000000 
20.000000 
20.000000 
20.000000 
20.000000 
20.000000 
20.000000 
20.000000 
20.000000 
20.000000 
20.000000 
20.000000 
20.000000 
20.000000 
20.000000 
20.000000 
20.000000 
20.000000 
20.000000 
20.000000 
20.000000 
20.000000 
20.000000 
20.000000 
20.000000 
20.000000 
20.000000 
20.000000 
20.000000 
20.000000 
20.000000 
20.000000 
20.000000 
20.000000 
20.000000 
20.000000 
20.000000 
20.000000 
20.000000 
20.000000 
20.000000 
20.000000 
20.000000 
20.000000 
20.000000 
20.000000 
20.000000 
20.000000 
20.000000 
20.000000 
20.000000 
20.000000 
20.000000 
20.000000 
20.000000 
20.000000 
20.000000 
20.000000 
20.000000 
20.000000 
20.000000 
20.000000 
20.000000 
20.000000 
20.000000 
20.000000 
20.000000 
20.000000 
20.000000 
20.000000 
20.000000 
20.000000 
20.000000 
20.000000 
20.000000 
20.000000 
20.000000 
20.000000 
20.000000 
20.000000 
20.000000 
20.000000 
20.000000 
20.000000 
20.000000 
20.000000 
20.000000 
20.000000 
20.000000 
20.000000 
20.000000 
20.000000 
20.000000 
20.000000 
20.000000 
20.000000 
20.000000 
20.000000 
20.000000 
20.000000 
20.000000 
20.000000 
20.000000 
20.000000 
20.000000 
20.000000 
20.000000 
20.000000 
20.000000 
20.000000 
20.000000 
20.000000 
20.000000 
20.000000 
20.000000 
20.000000 
20.000000 
SCALARS ELEM_i float 
LOOKUP_TABLE default 
182 
210 
183 
183 
210 
210 
210 
183 
184 
237 
210 
211 
211 
211 
184 
184 
238 
238 
238 
211 
212 
211 
212 
185 
185 
182 
209 
209 
209 
236 
209 
236 
209 
210 
235 
236 
236 
236 
237 
237 
237 
262 
262 
263 
263 
263 
264 
264 
237 
238 
181 
208 
208 
208 
207 
208 
208 
208 
235 
207 
207 
234 
234 
234 
235 
235 
206 
233 
233 
234 
234 
234 
261 
262 
262 
181 
181 
181 
181 
153 
180 
180 
180 
207 
152 
153 
179 
180 
179 
207 
206 
152 
152 
152 
179 
179 
179 
206 
206 
206 
181 
154 
154 
154 
127 
154 
154 
154 
153 
127 
127 
126 
126 
126 
153 
153 
100 
100 
99 
126 
126 
126 
125 
125 
152 
182 
155 
155 
155 
156 
155 
128 
155 
128 
129 
129 
129 
128 
128 
128 
127 
130 
129 
102 
102 
101 
101 
101 
100 
100 
182 
183 
183 
156 
184 
183 
156 
156 
156 
184 
184 
157 
157 
157 
156 
129 
185 
185 
158 
157 
158 
157 
130 
130 
130 
VECTORS VELOCITY float 
0.000000 -0.153036 0.000000 
0.000000 -0.153036 0.000000 
0.000000 -0.153036 0.000000 
0.000000 -0.153036 0.000000 
0.000000 -0.153036 0.000000 
0.000000 -0.153036 0.000000 
-0.000000 -0.153036 0.000000 
-0.000000 -0.153036 0.000000 
-0.000000 -0.153036 0.000000 
0.000000 -0.153036 0.000000 
0.000000 -0.153036 0.000000 
0.000000 -0.153036 0.000000 
-0.000000 -0.153036 0.000000 
-0.000000 -0.153036 0.000000 
-0.000000 -0.153036 0.000000 
-0.000000 -0.153036 0.000000 
-0.000000 -0.153036 0.000000 
0.000000 -0.153036 0.000000 
0.000000 -0.153036 0.000000 
0.000000 -0.153036 0.000000 
0.000000 -0.153036 0.000000 
-0.000000 -0.153036 0.000000 
-0.000000 -0.153036 0.000000 
-0.000000 -0.153036 0.000000 
-0.000000 -0.153036 0.000000 
-0.000000 -0.153036 0.000000 
-0.000000 -0.153036 0.000000 
-0.000000 -0.153036 0.000000 
0.000000 -0.153036 0.000000 
-0.000000 -0.153036 0.000000 
-0.000000 -0.153036 0.000000 
0.000000 -0.153036 0.000000 
0.000000 -0.153036 0.000000 
0.000000 -0.153036 0.000000 
0.000000 -0.153036 0.000000 
-0.000000 -0.153036 0.000000 
0.000000 -0.153036 0.000000 
0.000000 -0.153036 0.000000 
0.000000 -0.153036 0.000000 
0.000000 -0.153036 0.000000 
0.000000 -0.153036 0.000000 
0.000000 -0.153036 0.000000 
0.000000 -0.153036 0.000000 
0.000000 -0.153036 0.000000 
0.000000 -0.153036 0.000000 
0.000000 -0.153036 0.000000 
-0.000000 -0.153036 0.000000 
-0.000000 -0.153036 0.000000 
-0.000000 -0.153036 0.000000 
-0.000000 -0.153036 0.000000 
-0.000000 -0.153036 0.000000 
0.000000 -0.153036 0.000000 
-0.000000 -0.153036 0.000000 
-0.000000 -0.153036 0.000000 
0.000000 -0.153036 0.000000 
0.000000 -0.153036 0.000000 
0.000000 -0.153036 0.000000 
-0.000000 -0.153036 0.000000 
-0.000000 -0.153036 0.000000 
-0.000000 -0.153036 0.000000 
0.000000 -0.153036 0.000000 
0.000000 -0.153036 0.000000 
0.000000 -0.153036 0.000000 
0.000000 -0.153036 0.000000 
0.000000 -0.153036 0.000000 
0.000000 -0.153036 0.000000 
-0.000000 -0.153036 0.000000 
0.000000 -0.153036 0.000000 
0.000000 -0.153036 0.000000 
-0.000000 -0.153036 0.000000 
-0.000000 -0.153036 0.000000 
0.000000 -0.153036 0.000000 
0.000000 -0.153036 0.000000 
0.000000 -0.153036 0.000000 
0.000000 -0.153036 0.000000 
0.000000 -0.153036 0.000000 
-0.000000 -0.153036 0.000000 
-0.000000 -0.153036 0.000000 
0.000000 -0.153036 0.000000 
-0.000000 -0.153036 0.000000 
-0.000000 -0.153036 0.000000 
-0.000000 -0.153036 0.000000 
0.000000 -0.153036 0.000000 
0.000000 -0.153036 0.000000 
-0.000000 -0.153036 0.000000 
-0.000000 -0.153036 0.000000 
0.000000 -0.153036 0.000000 
-0.000000 -0.153036 0.000000 
-0.000000 -0.153036 0.000000 
-0.000000 -0.153036 0.000000 
-0.000000 -0.153036 0.000000 
0.000000 -0.153036 0.000000 
0.000000 -0.153036 0.000000 
0.000000 -0.153036 0.000000 
0.000000 -0.153036 0.000000 
0.000000 -0.153036 0.000000 
-0.000000 -0.153036 0.000000 
-0.000000 -0.153036 0.000000 
-0.000000 -0.153036 0.000000 
-0.000000 -0.153036 0.000000 
0.000000 -0.153036 0.000000 
0.000000 -0.153036 0.000000 
0.000000 -0.153036 0.000000 
-0.000000 -0.153036 0.000000 
-0.000000 -0.153036 0.000000 
-0.000000 -0.153036 0.000000 
-0.000000 -0.153036 0.000000 
-0.000000 -0.153036 0.000000 
-0.000000 -0.153036 0.000000 
-0.000000 -0.153036 0.000000 
-0.000000 -0.153036 0.000000 
-0.000000 -0.153036 0.000000 
-0.000000 -0.153036 0.000000 
-0.000000 -0.153036 0.000000 
-0.000000 -0.153036 0.000000 
-0.000000 -0.153036 0.000000 
-0.000000 -0.153036 0.000000 
-0.000000 -0.153036 0.000000 
-0.000000 -0.153036 0.000000 
-0.000000 -0.153036 0.000000 
-0.000000 -0.153036 0.000000 
-0.000000 -0.153036 0.000000 
0.000000 -0.153036 0.000000 
-0.000000 -0.153036 0.000000 
0.000000 -0.153036 0.000000 
0.000000 -0.153036 0.000000 
-0.000000 -0.153036 0.000000 
0.000000 -0.153036 0.000000 
0.000000 -0.153036 0.000000 
-0.000000 -0.153036 0.000000 
-0.000000 -0.153036 0.000000 
-0.000000 -0.153036 0.000000 
-0.000000 -0.153036 0.000000 
-0.000000 -0.153036 0.000000 
-0.000000 -0.153036 0.000000 
-0.000000 -0.153036 0.000000 
0.000000 -0.153036 0.000000 
0.000000 -0.153036 0.000000 
0.000000 -0.153036 0.000000 
0.000000 -0.153036 0.000000 
0.000000 -0.153036 0.000000 
0.000000 -0.153036 0.000000 
0.000000 -0.153036 0.000000 
-0.000000 -0.153036 0.000000 
0.000000 -0.153036 0.000000 
0.000000 -0.153036 0.000000 
0.000000 -0.153036 0.000000 
0.000000 -0.153036 0.000000 
0.000000 -0.153036 0.000000 
0.000000 -0.153036 0.000000 
0.000000 -0.153036 0.000000 
-0.000000 -0.153036 0.000000 
0.000000 -0.153036 0.000000 
-0.000000 -0.153036 0.000000 
-0.000000 -0.153036 0.000000 
-0.000000 -0.153036 0.000000 
-0.000000 -0.153036 0.000000 
-0.000000 -0.153036 0.000000 
-0.000000 -0.153036 0.000000 
-0.000000 -0.153036 0.000000 
-0.000000 -0.153036 0.000000 
-0.000000 -0.153036 0.000000 
-0.000000 -0.153036 0.000000 
-0.000000 -0.153036 0.000000 
-0.000000 -0.153036 0.000000 
-0.000000 -0.153036 0.000000 
-0.000000 -0.153036 0.000000 
-0.000000 -0.153036 0.000000 
-0.000000 -0.153036 0.000000 
0.000000 -0.153036 0.000000 
0.000000 -0.153036 0.000000 
0.000000 -0.153036 0.000000 
0.000000 -0.153036 0.000000 
0.000000 -0.153036 0.000000 
0.000000 -0.153036 0.000000 
TENSORS STRESS float 
0.000000 0.000000 0.000000 
0.000000 0.000000 0.000000 
0.000000 0.000000 0.000000 

0.000000 -0.000000 0.000000 
0.000000 0.000000 0.000000 
0.000000 0.000000 0.000000 

-0.000000 0.000000 0.000000 
0.000000 -0.000000 0.000000 
0.000000 0.000000 0.000000 

-0.000000 0.000000 0.000000 
0.000000 0.000000 0.000000 
0.000000 0.000000 0.000000 

0.000000 -0.000000 0.000000 
0.000000 -0.000000 0.000000 
0.000000 0.000000 0.000000 

0.000000 -0.000000 0.000000 
0.000000 0.000000 0.000000 
0.000000 0.000000 0.000000 

0.000000 -0.000000 0.000000 
0.000000 -0.000000 0.000000 
0.000000 0.000000 0.000000 

-0.000000 0.000000 0.000000 
0.000000 -0.000000 0.000000 
0.000000 0.000000 0.000000 

-0.000000 0.000000 0.000000 
0.000000 -0.000000 0.000000 
0.000000 0.000000 0.000000 

0.000000 -0.000000 0.000000 
0.000000 -0.000000 0.000000 
0.000000 0.000000 0.000000 

0.000000 -0.000000 0.000000 
0.000000 -0.000000 0.000000 
0.000000 0.000000 0.000000 

0.000000 -0.000000 0.000000 
0.000000 0.000000 0.000000 
0.000000 0.000000 0.000000 

0.000000 -0.000000 0.000000 
0.000000 -0.000000 0.000000 
0.000000 0.000000 0.000000 

0.000000 -0.000000 0.000000 
0.000000 0.000000 0.000000 
0.000000 0.000000 0.000000 

-0.000000 0.000000 0.000000 
0.000000 -0.000000 0.000000 
0.000000 0.000000 0.000000 

-0.000000 0.000000 0.000000 
0.000000 -0.000000 0.000000 
0.000000 0.000000 0.000000 

-0.000000 -0.000000 0.000000 
0.000000 -0.000000 0.000000 
0.000000 0.000000 0.000000 

-0.000000 -0.000000 0.000000 
0.000000 -0.000000 0.000000 
0.000000 0.000000 0.000000 

-0.000000 -0.000000 0.000000 
0.000000 -0.000000 0.000000 
0.000000 0.000000 0.000000 

-0.000000 -0.000000 0.000000 
0.000000 -0.000000 0.000000 
0.000000 0.000000 0.000000 

-0.000000 -0.000000 0.000000 
0.000000 -0.000000 0.000000 
0.000000 0.000000 0.000000 

-0.000000 0.000000 0.000000 
0.000000 -0.000000 0.000000 
0.000000 0.000000 0.000000 

-0.000000 -0.000000 0.000000 
0.000000 0.000000 0.000000 
0.000000 0.000000 0.000000 

0.000000 -0.000000 0.000000 
0.000000 0.000000 0.000000 
0.000000 0.000000 0.000000 

0.000000 -0.000000 0.000000 
0.000000 0.000000 0.000000 
0.000000 0.000000 0.000000 

0.000000 0.000000 0.000000 
0.000000 0.000000 0.000000 
0.000000 0.000000 0.000000 

0.000000 -0.000000 0.000000 
0.000000 0.000000 0.000000 
0.000000 0.000000 0.000000 

0.000000 -0.000000 0.000000 
0.000000 0.000000 0.000000 
0.000000 0.000000 0.000000 

0.000000 -0.000000 0.000000 
0.000000 0.000000 0.000000 
0.000000 0.000000 0.000000 

-0.000000 0.000000 0.000000 
0.000000 -0.000000 0.000000 
0.000000 0.000000 0.000000 

0.000000 -0.000000 0.000000 
0.000000 0.000000 0.000000 
0.000000 0.000000 0.000000 

0.000000 0.000000 0.000000 
0.000000 -0.000000 0.000000 
0.000000 0.000000 0.000000 

0.000000 -0.000000 0.000000 
0.000000 -0.000000 0.000000 
0.000000 0.000000 0.000000 

0.000000 -0.000000 0.000000 
0.000000 -0.000000 0.000000 
0.000000 0.000000 0.000000 

-0.000000 0.000000 0.000000 
0.000000 0.000000 0.000000 
0.000000 0.000000 0.000000 

-0.000000 0.000000 0.000000 
0.000000 -0.000000 0.000000 
0.000000 0.000000 0.000000 

0.000000 0.000000 0.000000 
0.000000 -0.000000 0.000000 
0.000000 0.000000 0.000000 

0.000000 0.000000 0.000000 
0.000000 -0.000000 0.000000 
0.000000 0.000000 0.000000 

0.000000 0.000000 0.000000 
0.000000 -0.000000 0.000000 
0.000000 0.000000 0.000000 

0.000000 -0.000000 0.000000 
0.000000 -0.000000 0.000000 
0.000000 0.000000 0.000000 

0.000000 -0.000000 0.000000 
0.000000 -0.000000 0.000000 
0.000000 0.000000 0.000000 

-0.000000 0.000000 0.000000 
0.000000 -0.000000 0.000000 
0.000000 0.000000 0.000000 

-0.000000 0.000000 0.000000 
0.000000 -0.000000 0.000000 
0.000000 0.000000 0.000000 

0.000000 0.000000 0.000000 
0.000000 0.000000 0.000000 
0.000000 0.000000 0.000000 

0.000000 0.000000 0.000000 
0.000000 0.000000 0.000000 
0.000000 0.000000 0.000000 

-0.000000 0.000000 0.000000 
0.000000 0.000000 0.000000 
0.000000 0.000000 0.000000 

-0.000000 0.000000 0.000000 
0.000000 -0.000000 0.000000 
0.000000 0.000000 0.000000 

-0.000000 0.000000 0.000000 
0.000000 -0.000000 0.000000 
0.000000 0.000000 0.000000 

0.000000 -0.000000 0.000000 
0.000000 0.000000 0.000000 
0.000000 0.000000 0.000000 

-0.000000 -0.000000 0.000000 
0.000000 -0.000000 0.000000 
0.000000 0.000000 0.000000 

-0.000000 0.000000 0.000000 
0.000000 -0.000000 0.000000 
0.000000 0.000000 0.000000 

-0.000000 0.000000 0.000000 
0.000000 -0.000000 0.000000 
0.000000 0.000000 0.000000 

-0.000000 -0.000000 0.000000 
0.000000 -0.000000 0.000000 
0.000000 0.000000 0.000000 

0.000000 -0.000000 0.000000 
0.000000 0.000000 0.000000 
0.000000 0.000000 0.000000 

-0.000000 0.000000 0.000000 
0.000000 -0.000000 0.000000 
0.000000 0.000000 0.000000 

-0.000000 0.000000 0.000000 
0.000000 0.000000 0.000000 
0.000000 0.000000 0.000000 

0.000000 0.000000 0.000000 
0.000000 0.000000 0.000000 
0.000000 0.000000 0.000000 

0.000000 0.000000 0.000000 
0.000000 0.000000 0.000000 
0.000000 0.000000 0.000000 

0.000000 -0.000000 0.000000 
0.000000 0.000000 0.000000 
0.000000 0.000000 0.000000 

-0.000000 -0.000000 0.000000 
0.000000 -0.000000 0.000000 
0.000000 0.000000 0.000000 

-0.000000 0.000000 0.000000 
0.000000 -0.000000 0.000000 
0.000000 0.000000 0.000000 

-0.000000 0.000000 0.000000 
0.000000 -0.000000 0.000000 
0.000000 0.000000 0.000000 

-0.000000 -0.000000 0.000000 
0.000000 -0.000000 0.000000 
0.000000 0.000000 0.000000 

-0.000000 -0.000000 0.000000 
0.000000 -0.000000 0.000000 
0.000000 0.000000 0.000000 

0.000000 -0.000000 0.000000 
0.000000 0.000000 0.000000 
0.000000 0.000000 0.000000 

0.000000 -0.000000 0.000000 
0.000000 0.000000 0.000000 
0.000000 0.000000 0.000000 

0.000000 -0.000000 0.000000 
0.000000 0.000000 0.000000 
0.000000 0.000000 0.000000 

0.000000 0.000000 0.000000 
0.000000 0.000000 0.000000 
0.000000 0.000000 0.000000 

-0.000000 0.000000 0.000000 
0.000000 -0.000000 0.000000 
0.000000 0.000000 0.000000 

-0.000000 0.000000 0.000000 
0.000000 -0.000000 0.000000 
0.000000 0.000000 0.000000 

0.000000 0.000000 0.000000 
0.000000 0.000000 0.000000 
0.000000 0.000000 0.000000 

0.000000 -0.000000 0.000000 
0.000000 0.000000 0.000000 
0.000000 0.000000 0.000000 

0.000000 -0.000000 0.000000 
0.000000 0.000000 0.000000 
0.000000 0.000000 0.000000 

-0.000000 -0.000000 0.000000 
0.000000 -0.000000 0.000000 
0.000000 0.000000 0.000000 

-0.000000 0.000000 0.000000 
0.000000 -0.000000 0.000000 
0.000000 0.000000 0.000000 

-0.000000 0.000000 0.000000 
0.000000 -0.000000 0.000000 
0.000000 0.000000 0.000000 

0.000000 -0.000000 0.000000 
0.000000 0.000000 0.000000 
0.000000 0.000000 0.000000 

-0.000000 -0.000000 0.000000 
0.000000 -0.000000 0.000000 
0.000000 0.000000 0.000000 

-0.000000 -0.000000 0.000000 
0.000000 -0.000000 0.000000 
0.000000 0.000000 0.000000 

-0.000000 0.000000 0.000000 
0.000000 0.000000 0.000000 
0.000000 0.000000 0.000000 

0.000000 -0.000000 0.000000 
0.000000 0.000000 0.000000 
0.000000 0.000000 0.000000 

0.000000 -0.000000 0.000000 
0.000000 0.000000 0.000000 
0.000000 0.000000 0.000000 

0.000000 -0.000000 0.000000 
0.000000 0.000000 0.000000 
0.000000 0.000000 0.000000 

0.000000 0.000000 0.000000 
0.000000 0.000000 0.000000 
0.000000 0.000000 0.000000 

0.000000 0.000000 0.000000 
0.000000 -0.000000 0.000000 
0.000000 0.000000 0.000000 

0.000000 0.000000 0.000000 
0.000000 0.000000 0.000000 
0.000000 0.000000 0.000000 

0.000000 0.000000 0.000000 
0.000000 -0.000000 0.000000 
0.000000 0.000000 0.000000 

0.000000 -0.000000 0.000000 
0.000000 0.000000 0.000000 
0.000000 0.000000 0.000000 

0.000000 0.000000 0.000000 
0.000000 -0.000000 0.000000 
0.000000 0.000000 0.000000 

0.000000 -0.000000 0.000000 
0.000000 0.000000 0.000000 
0.000000 0.000000 0.000000 

-0.000000 -0.000000 0.000000 
0.000000 0.000000 0.000000 
0.000000 0.000000 0.000000 

0.000000 -0.000000 0.000000 
0.000000 0.000000 0.000000 
0.000000 0.000000 0.000000 

0.000000 0.000000 0.000000 
0.000000 0.000000 0.000000 
0.000000 0.000000 0.000000 

0.000000 -0.000000 0.000000 
0.000000 -0.000000 0.000000 
0.000000 0.000000 0.000000 

0.000000 0.000000 0.000000 
0.000000 -0.000000 0.000000 
0.000000 0.000000 0.000000 

0.000000 0.000000 0.000000 
0.000000 -0.000000 0.000000 
0.000000 0.000000 0.000000 

0.000000 0.000000 0.000000 
0.000000 -0.000000 0.000000 
0.000000 0.000000 0.000000 

-0.000000 0.000000 0.000000 
0.000000 -0.000000 0.000000 
0.000000 0.000000 0.000000 

-0.000000 0.000000 0.000000 
0.000000 0.000000 0.000000 
0.000000 0.000000 0.000000 

0.000000 0.000000 0.000000 
0.000000 0.000000 0.000000 
0.000000 0.000000 0.000000 

0.000000 0.000000 0.000000 
0.000000 -0.000000 0.000000 
0.000000 0.000000 0.000000 

-0.000000 0.000000 0.000000 
0.000000 0.000000 0.000000 
0.000000 0.000000 0.000000 

-0.000000 0.000000 0.000000 
0.000000 0.000000 0.000000 
0.000000 0.000000 0.000000 

-0.000000 0.000000 0.000000 
0.000000 0.000000 0.000000 
0.000000 0.000000 0.000000 

0.000000 -0.000000 0.000000 
0.000000 0.000000 0.000000 
0.000000 0.000000 0.000000 

0.000000 0.000000 0.000000 
0.000000 0.000000 0.000000 
0.000000 0.000000 0.000000 

0.000000 0.000000 0.000000 
0.000000 0.000000 0.000000 
0.000000 0.000000 0.000000 

-0.000000 -0.000000 0.000000 
0.000000 0.000000 0.000000 
0.000000 0.000000 0.000000 

-0.000000 -0.000000 0.000000 
0.000000 0.000000 0.000000 
0.000000 0.000000 0.000000 

-0.000000 0.000000 0.000000 
0.000000 0.000000 0.000000 
0.000000 0.000000 0.000000 

0.000000 -0.000000 0.000000 
0.000000 0.000000 0.000000 
0.000000 0.000000 0.000000 

-0.000000 -0.000000 0.000000 
0.000000 -0.000000 0.000000 
0.000000 0.000000 0.000000 

-0.000000 -0.000000 0.000000 
0.000000 -0.000000 0.000000 
0.000000 0.000000 0.000000 

-0.000000 -0.000000 0.000000 
0.000000 -0.000000 0.000000 
0.000000 0.000000 0.000000 

0.000000 0.000000 0.000000 
0.000000 0.000000 0.000000 
0.000000 0.000000 0.000000 

0.000000 0.000000 0.000000 
0.000000 0.000000 0.000000 
0.000000 0.000000 0.000000 

0.000000 -0.000000 0.000000 
0.000000 0.000000 0.000000 
0.000000 0.000000 0.000000 

0.000000 0.000000 0.000000 
0.000000 0.000000 0.000000 
0.000000 0.000000 0.000000 

0.000000 -0.000000 0.000000 
0.000000 0.000000 0.000000 
0.000000 0.000000 0.000000 

-0.000000 -0.000000 0.000000 
0.000000 -0.000000 0.000000 
0.000000 0.000000 0.000000 

0.000000 -0.000000 0.000000 
0.000000 0.000000 0.000000 
0.000000 0.000000 0.000000 

0.000000 -0.000000 0.000000 
0.000000 0.000000 0.000000 
0.000000 0.000000 0.000000 

-0.000000 -0.000000 0.000000 
0.000000 -0.000000 0.000000 
0.000000 0.000000 0.000000 

0.000000 -0.000000 0.000000 
0.000000 -0.000000 0.000000 
0.000000 0.000000 0.000000 

0.000000 -0.000000 0.000000 
0.000000 0.000000 0.000000 
0.000000 0.000000 0.000000 

0.000000 0.000000 0.000000 
0.000000 0.000000 0.000000 
0.000000 0.000000 0.000000 

-0.000000 0.000000 0.000000 
0.000000 -0.000000 0.000000 
0.000000 0.000000 0.000000 

-0.000000 0.000000 0.000000 
0.000000 0.000000 0.000000 
0.000000 0.000000 0.000000 

-0.000000 0.000000 0.000000 
0.000000 0.000000 0.000000 
0.000000 0.000000 0.000000 

-0.000000 -0.000000 0.000000 
0.000000 0.000000 0.000000 
0.000000 0.000000 0.000000 

-0.000000 0.000000 0.000000 
0.000000 -0.000000 0.000000 
0.000000 0.000000 0.000000 

-0.000000 -0.000000 0.000000 
0.000000 -0.000000 0.000000 
0.000000 0.000000 0.000000 

-0.000000 0.000000 0.000000 
0.000000 -0.000000 0.000000 
0.000000 0.000000 0.000000 

-0.000000 -0.000000 0.000000 
0.000000 -0.000000 0.000000 
0.000000 0.000000 0.000000 

-0.000000 -0.000000 0.000000 
0.000000 0.000000 0.000000 
0.000000 0.000000 0.000000 

-0.000000 -0.000000 0.000000 
0.000000 0.000000 0.000000 
0.000000 0.000000 0.000000 

-0.000000 -0.000000 0.000000 
0.000000 0.000000 0.000000 
0.000000 0.000000 0.000000 

-0.000000 -0.000000 0.000000 
0.000000 -0.000000 0.000000 
0.000000 0.000000 0.000000 

-0.000000 -0.000000 0.000000 
0.000000 -0.000000 0.000000 
0.000000 0.000000 0.000000 

-0.000000 -0.000000 0.000000 
0.000000 -0.000000 0.000000 
0.000000 0.000000 0.000000 

0.000000 -0.000000 0.000000 
0.000000 0.000000 0.000000 
0.000000 0.000000 0.000000 

-0.000000 -0.000000 0.000000 
0.000000 -0.000000 0.000000 
0.000000 0.000000 0.000000 

-0.000000 -0.000000 0.000000 
0.000000 0.000000 0.000000 
0.000000 0.000000 0.000000 

-0.000000 -0.000000 0.000000 
0.000000 0.000000 0.000000 
0.000000 0.000000 0.000000 

-0.000000 -0.000000 0.000000 
0.000000 -0.000000 0.000000 
0.000000 0.000000 0.000000 

-0.000000 -0.000000 0.000000 
0.000000 0.000000 0.000000 
0.000000 0.000000 0.000000 

-0.000000 -0.000000 0.000000 
0.000000 -0.000000 0.000000 
0.000000 0.000000 0.000000 

0.000000 -0.000000 0.000000 
0.000000 0.000000 0.000000 
0.000000 0.000000 0.000000 

-0.000000 -0.000000 0.000000 
0.000000 0.000000 0.000000 
0.000000 0.000000 0.000000 

-0.000000 -0.000000 0.000000 
0.000000 -0.000000 0.000000 
0.000000 0.000000 0.000000 

0.000000 0.000000 0.000000 
0.000000 0.000000 0.000000 
0.000000 0.000000 0.000000 

0.000000 0.000000 0.000000 
0.000000 0.000000 0.000000 
0.000000 0.000000 0.000000 

0.000000 0.000000 0.000000 
0.000000 0.000000 0.000000 
0.000000 0.000000 0.000000 

-0.000000 0.000000 0.000000 
0.000000 0.000000 0.000000 
0.000000 0.000000 0.000000 

-0.000000 0.000000 0.000000 
0.000000 -0.000000 0.000000 
0.000000 0.000000 0.000000 

0.000000 0.000000 0.000000 
0.000000 0.000000 0.000000 
0.000000 0.000000 0.000000 

-0.000000 0.000000 0.000000 
0.000000 0.000000 0.000000 
0.000000 0.000000 0.000000 

-0.000000 0.000000 0.000000 
0.000000 0.000000 0.000000 
0.000000 0.000000 0.000000 

-0.000000 0.000000 0.000000 
0.000000 0.000000 0.000000 
0.000000 0.000000 0.000000 

-0.000000 0.000000 0.000000 
0.000000 -0.000000 0.000000 
0.000000 0.000000 0.000000 

-0.000000 0.000000 0.000000 
0.000000 -0.000000 0.000000 
0.000000 0.000000 0.000000 

-0.000000 -0.000000 0.000000 
0.000000 -0.000000 0.000000 
0.000000 0.000000 0.000000 

-0.000000 -0.000000 0.000000 
0.000000 -0.000000 0.000000 
0.000000 0.000000 0.000000 

-0.000000 -0.000000 0.000000 
0.000000 0.000000 0.000000 
0.000000 0.000000 0.000000 

-0.000000 0.000000 0.000000 
0.000000 0.000000 0.000000 
0.000000 0.000000 0.000000 

-0.000000 -0.000000 0.000000 
0.000000 0.000000 0.000000 
0.000000 0.000000 0.000000 

0.000000 -0.000000 0.000000 
0.000000 0.000000 0.000000 
0.000000 0.000000 0.000000 

0.000000 -0.000000 0.000000 
0.000000 0.000000 0.000000 
0.000000 0.000000 0.000000 

-0.000000 -0.000000 0.000000 
0.000000 -0.000000 0.000000 
0.000000 0.000000 0.000000 

-0.000000 0.000000 0.000000 
0.000000 -0.000000 0.000000 
0.000000 0.000000 0.000000 

-0.000000 -0.000000 0.000000 
0.000000 -0.000000 0.000000 
0.000000 0.000000 0.000000 

-0.000000 0.000000 0.000000 
0.000000 0.000000 0.000000 
0.000000 0.000000 0.000000 

-0.000000 -0.000000 0.000000 
0.000000 -0.000000 0.000000 
0.000000 0.000000 0.000000 

-0.000000 -0.000000 0.000000 
0.000000 -0.000000 0.000000 
0.000000 0.000000 0.000000 

-0.000000 -0.000000 0.000000 
0.000000 -0.000000 0.000000 
0.000000 0.000000 0.000000 

TENSORS STRAIN float 
-0.000000 0.000000 0.000000 
0.000000 0.000000 0.000000 
0.000000 0.000000 0.000000 

0.000000 -0.000000 0.000000 
0.000000 -0.000000 0.000000 
0.000000 0.000000 0.000000 

-0.000000 0.000000 0.000000 
0.000000 -0.000000 0.000000 
0.000000 0.000000 0.000000 

-0.000000 0.000000 0.000000 
0.000000 0.000000 0.000000 
0.000000 0.000000 0.000000 

0.000000 -0.000000 0.000000 
0.000000 -0.000000 0.000000 
0.000000 0.000000 0.000000 

0.000000 -0.000000 0.000000 
0.000000 0.000000 0.000000 
0.000000 0.000000 0.000000 

0.000000 -0.000000 0.000000 
0.000000 -0.000000 0.000000 
0.000000 0.000000 0.000000 

-0.000000 0.000000 0.000000 
0.000000 0.000000 0.000000 
0.000000 0.000000 0.000000 

-0.000000 0.000000 0.000000 
0.000000 -0.000000 0.000000 
0.000000 0.000000 0.000000 

0.000000 -0.000000 0.000000 
0.000000 -0.000000 0.000000 
0.000000 0.000000 0.000000 

0.000000 -0.000000 0.000000 
0.000000 -0.000000 0.000000 
0.000000 0.000000 0.000000 

0.000000 -0.000000 0.000000 
0.000000 0.000000 0.000000 
0.000000 0.000000 0.000000 

0.000000 -0.000000 0.000000 
0.000000 -0.000000 0.000000 
0.000000 0.000000 0.000000 

0.000000 -0.000000 0.000000 
0.000000 0.000000 0.000000 
0.000000 0.000000 0.000000 

0.000000 0.000000 0.000000 
0.000000 -0.000000 0.000000 
0.000000 0.000000 0.000000 

0.000000 0.000000 0.000000 
0.000000 -0.000000 0.000000 
0.000000 0.000000 0.000000 

0.000000 -0.000000 0.000000 
0.000000 -0.000000 0.000000 
0.000000 0.000000 0.000000 

0.000000 -0.000000 0.000000 
0.000000 -0.000000 0.000000 
0.000000 0.000000 0.000000 

0.000000 -0.000000 0.000000 
0.000000 -0.000000 0.000000 
0.000000 0.000000 0.000000 

-0.000000 -0.000000 0.000000 
0.000000 -0.000000 0.000000 
0.000000 0.000000 0.000000 

-0.000000 -0.000000 0.000000 
0.000000 -0.000000 0.000000 
0.000000 0.000000 0.000000 

-0.000000 0.000000 0.000000 
0.000000 -0.000000 0.000000 
0.000000 0.000000 0.000000 

-0.000000 -0.000000 0.000000 
0.000000 0.000000 0.000000 
0.000000 0.000000 0.000000 

0.000000 -0.000000 0.000000 
0.000000 0.000000 0.000000 
0.000000 0.000000 0.000000 

0.000000 -0.000000 0.000000 
0.000000 0.000000 0.000000 
0.000000 0.000000 0.000000 

-0.000000 0.000000 0.000000 
0.000000 0.000000 0.000000 
0.000000 0.000000 0.000000 

0.000000 -0.000000 0.000000 
0.000000 0.000000 0.000000 
0.000000 0.000000 0.000000 

0.000000 -0.000000 0.000000 
0.000000 0.000000 0.000000 
0.000000 0.000000 0.000000 

0.000000 -0.000000 0.000000 
0.000000 0.000000 0.000000 
0.000000 0.000000 0.000000 

-0.000000 0.000000 0.000000 
0.000000 -0.000000 0.000000 
0.000000 0.000000 0.000000 

0.000000 -0.000000 0.000000 
0.000000 -0.000000 0.000000 
0.000000 0.000000 0.000000 

0.000000 0.000000 0.000000 
0.000000 -0.000000 0.000000 
0.000000 0.000000 0.000000 

0.000000 -0.000000 0.000000 
0.000000 -0.000000 0.000000 
0.000000 0.000000 0.000000 

0.000000 -0.000000 0.000000 
0.000000 -0.000000 0.000000 
0.000000 0.000000 0.000000 

-0.000000 0.000000 0.000000 
0.000000 0.000000 0.000000 
0.000000 0.000000 0.000000 

-0.000000 0.000000 0.000000 
0.000000 -0.000000 0.000000 
0.000000 0.000000 0.000000 

0.000000 0.000000 0.000000 
0.000000 -0.000000 0.000000 
0.000000 0.000000 0.000000 

0.000000 0.000000 0.000000 
0.000000 -0.000000 0.000000 
0.000000 0.000000 0.000000 

0.000000 0.000000 0.000000 
0.000000 -0.000000 0.000000 
0.000000 0.000000 0.000000 

0.000000 -0.000000 0.000000 
0.000000 -0.000000 0.000000 
0.000000 0.000000 0.000000 

0.000000 -0.000000 0.000000 
0.000000 -0.000000 0.000000 
0.000000 0.000000 0.000000 

0.000000 0.000000 0.000000 
0.000000 -0.000000 0.000000 
0.000000 0.000000 0.000000 

0.000000 0.000000 0.000000 
0.000000 -0.000000 0.000000 
0.000000 0.000000 0.000000 

-0.000000 0.000000 0.000000 
0.000000 0.000000 0.000000 
0.000000 0.000000 0.000000 

-0.000000 0.000000 0.000000 
0.000000 0.000000 0.000000 
0.000000 0.000000 0.000000 

-0.000000 0.000000 0.000000 
0.000000 0.000000 0.000000 
0.000000 0.000000 0.000000 

-0.000000 0.000000 0.000000 
0.000000 -0.000000 0.000000 
0.000000 0.000000 0.000000 

-0.000000 0.000000 0.000000 
0.000000 -0.000000 0.000000 
0.000000 0.000000 0.000000 

0.000000 -0.000000 0.000000 
0.000000 0.000000 0.000000 
0.000000 0.000000 0.000000 

0.000000 -0.000000 0.000000 
0.000000 -0.000000 0.000000 
0.000000 0.000000 0.000000 

0.000000 0.000000 0.000000 
0.000000 -0.000000 0.000000 
0.000000 0.000000 0.000000 

0.000000 0.000000 0.000000 
0.000000 -0.000000 0.000000 
0.000000 0.000000 0.000000 

0.000000 -0.000000 0.000000 
0.000000 -0.000000 0.000000 
0.000000 0.000000 0.000000 

0.000000 -0.000000 0.000000 
0.000000 0.000000 0.000000 
0.000000 0.000000 0.000000 

-0.000000 0.000000 0.000000 
0.000000 -0.000000 0.000000 
0.000000 0.000000 0.000000 

-0.000000 0.000000 0.000000 
0.000000 0.000000 0.000000 
0.000000 0.000000 0.000000 

-0.000000 0.000000 0.000000 
0.000000 0.000000 0.000000 
0.000000 0.000000 0.000000 

0.000000 0.000000 0.000000 
0.000000 0.000000 0.000000 
0.000000 0.000000 0.000000 

-0.000000 -0.000000 0.000000 
0.000000 0.000000 0.000000 
0.000000 0.000000 0.000000 

-0.000000 -0.000000 0.000000 
0.000000 -0.000000 0.000000 
0.000000 0.000000 0.000000 

-0.000000 0.000000 0.000000 
0.000000 -0.000000 0.000000 
0.000000 0.000000 0.000000 

-0.000000 0.000000 0.000000 
0.000000 -0.000000 0.000000 
0.000000 0.000000 0.000000 

-0.000000 -0.000000 0.000000 
0.000000 -0.000000 0.000000 
0.000000 0.000000 0.000000 

-0.000000 -0.000000 0.000000 
0.000000 -0.000000 0.000000 
0.000000 0.000000 0.000000 

-0.000000 -0.000000 0.000000 
0.000000 0.000000 0.000000 
0.000000 0.000000 0.000000 

-0.000000 -0.000000 0.000000 
0.000000 0.000000 0.000000 
0.000000 0.000000 0.000000 

-0.000000 -0.000000 0.000000 
0.000000 0.000000 0.000000 
0.000000 0.000000 0.000000 

-0.000000 0.000000 0.000000 
0.000000 0.000000 0.000000 
0.000000 0.000000 0.000000 

-0.000000 0.000000 0.000000 
0.000000 -0.000000 0.000000 
0.000000 0.000000 0.000000 

0.000000 0.000000 0.000000 
0.000000 -0.000000 0.000000 
0.000000 0.000000 0.000000 

0.000000 0.000000 0.000000 
0.000000 0.000000 0.000000 
0.000000 0.000000 0.000000 

-0.000000 -0.000000 0.000000 
0.000000 0.000000 0.000000 
0.000000 0.000000 0.000000 

0.000000 -0.000000 0.000000 
0.000000 0.000000 0.000000 
0.000000 0.000000 0.000000 

0.000000 -0.000000 0.000000 
0.000000 -0.000000 0.000000 
0.000000 0.000000 0.000000 

0.000000 0.000000 0.000000 
0.000000 -0.000000 0.000000 
0.000000 0.000000 0.000000 

0.000000 0.000000 0.000000 
0.000000 -0.000000 0.000000 
0.000000 0.000000 0.000000 

0.000000 -0.000000 0.000000 
0.000000 0.000000 0.000000 
0.000000 0.000000 0.000000 

0.000000 -0.000000 0.000000 
0.000000 -0.000000 0.000000 
0.000000 0.000000 0.000000 

0.000000 -0.000000 0.000000 
0.000000 -0.000000 0.000000 
0.000000 0.000000 0.000000 

-0.000000 0.000000 0.000000 
0.000000 0.000000 0.000000 
0.000000 0.000000 0.000000 

0.000000 -0.000000 0.000000 
0.000000 0.000000 0.000000 
0.000000 0.000000 0.000000 

0.000000 -0.000000 0.000000 
0.000000 0.000000 0.000000 
0.000000 0.000000 0.000000 

0.000000 -0.000000 0.000000 
0.000000 0.000000 0.000000 
0.000000 0.000000 0.000000 

-0.000000 0.000000 0.000000 
0.000000 0.000000 0.000000 
0.000000 0.000000 0.000000 

0.000000 0.000000 0.000000 
0.000000 -0.000000 0.000000 
0.000000 0.000000 0.000000 

0.000000 0.000000 0.000000 
0.000000 0.000000 0.000000 
0.000000 0.000000 0.000000 

0.000000 0.000000 0.000000 
0.000000 -0.000000 0.000000 
0.000000 0.000000 0.000000 

0.000000 -0.000000 0.000000 
0.000000 0.000000 0.000000 
0.000000 0.000000 0.000000 

0.000000 0.000000 0.000000 
0.000000 -0.000000 0.000000 
0.000000 0.000000 0.000000 

-0.000000 -0.000000 0.000000 
0.000000 0.000000 0.000000 
0.000000 0.000000 0.000000 

-0.000000 -0.000000 0.000000 
0.000000 0.000000 0.000000 
0.000000 0.000000 0.000000 

0.000000 -0.000000 0.000000 
0.000000 -0.000000 0.000000 
0.000000 0.000000 0.000000 

0.000000 0.000000 0.000000 
0.000000 0.000000 0.000000 
0.000000 0.000000 0.000000 

0.000000 -0.000000 0.000000 
0.000000 -0.000000 0.000000 
0.000000 0.000000 0.000000 

0.000000 0.000000 0.000000 
0.000000 -0.000000 0.000000 
0.000000 0.000000 0.000000 

0.000000 0.000000 0.000000 
0.000000 -0.000000 0.000000 
0.000000 0.000000 0.000000 

0.000000 0.000000 0.000000 
0.000000 -0.000000 0.000000 
0.000000 0.000000 0.000000 

-0.000000 0.000000 0.000000 
0.000000 -0.000000 0.000000 
0.000000 0.000000 0.000000 

-0.000000 0.000000 0.000000 
0.000000 0.000000 0.000000 
0.000000 0.000000 0.000000 

-0.000000 0.000000 0.000000 
0.000000 0.000000 0.000000 
0.000000 0.000000 0.000000 

0.000000 0.000000 0.000000 
0.000000 -0.000000 0.000000 
0.000000 0.000000 0.000000 

-0.000000 0.000000 0.000000 
0.000000 0.000000 0.000000 
0.000000 0.000000 0.000000 

-0.000000 0.000000 0.000000 
0.000000 0.000000 0.000000 
0.000000 0.000000 0.000000 

-0.000000 0.000000 0.000000 
0.000000 0.000000 0.000000 
0.000000 0.000000 0.000000 

-0.000000 -0.000000 0.000000 
0.000000 0.000000 0.000000 
0.000000 0.000000 0.000000 

-0.000000 0.000000 0.000000 
0.000000 0.000000 0.000000 
0.000000 0.000000 0.000000 

-0.000000 0.000000 0.000000 
0.000000 0.000000 0.000000 
0.000000 0.000000 0.000000 

-0.000000 -0.000000 0.000000 
0.000000 0.000000 0.000000 
0.000000 0.000000 0.000000 

-0.000000 -0.000000 0.000000 
0.000000 0.000000 0.000000 
0.000000 0.000000 0.000000 

-0.000000 0.000000 0.000000 
0.000000 0.000000 0.000000 
0.000000 0.000000 0.000000 

-0.000000 -0.000000 0.000000 
0.000000 0.000000 0.000000 
0.000000 0.000000 0.000000 

-0.000000 -0.000000 0.000000 
0.000000 0.000000 0.000000 
0.000000 0.000000 0.000000 

-0.000000 -0.000000 0.000000 
0.000000 -0.000000 0.000000 
0.000000 0.000000 0.000000 

-0.000000 -0.000000 0.000000 
0.000000 -0.000000 0.000000 
0.000000 0.000000 0.000000 

-0.000000 0.000000 0.000000 
0.000000 0.000000 0.000000 
0.000000 0.000000 0.000000 

0.000000 0.000000 0.000000 
0.000000 0.000000 0.000000 
0.000000 0.000000 0.000000 

0.000000 -0.000000 0.000000 
0.000000 0.000000 0.000000 
0.000000 0.000000 0.000000 

0.000000 0.000000 0.000000 
0.000000 0.000000 0.000000 
0.000000 0.000000 0.000000 

0.000000 -0.000000 0.000000 
0.000000 0.000000 0.000000 
0.000000 0.000000 0.000000 

-0.000000 -0.000000 0.000000 
0.000000 -0.000000 0.000000 
0.000000 0.000000 0.000000 

0.000000 -0.000000 0.000000 
0.000000 0.000000 0.000000 
0.000000 0.000000 0.000000 

0.000000 -0.000000 0.000000 
0.000000 0.000000 0.000000 
0.000000 0.000000 0.000000 

0.000000 -0.000000 0.000000 
0.000000 -0.000000 0.000000 
0.000000 0.000000 0.000000 

0.000000 -0.000000 0.000000 
0.000000 -0.000000 0.000000 
0.000000 0.000000 0.000000 

0.000000 -0.000000 0.000000 
0.000000 0.000000 0.000000 
0.000000 0.000000 0.000000 

-0.000000 0.000000 0.000000 
0.000000 0.000000 0.000000 
0.000000 0.000000 0.000000 

-0.000000 0.000000 0.000000 
0.000000 0.000000 0.000000 
0.000000 0.000000 0.000000 

-0.000000 0.000000 0.000000 
0.000000 0.000000 0.000000 
0.000000 0.000000 0.000000 

-0.000000 0.000000 0.000000 
0.000000 0.000000 0.000000 
0.000000 0.000000 0.000000 

-0.000000 -0.000000 0.000000 
0.000000 0.000000 0.000000 
0.000000 0.000000 0.000000 

-0.000000 0.000000 0.000000 
0.000000 -0.000000 0.000000 
0.000000 0.000000 0.000000 

-0.000000 -0.000000 0.000000 
0.000000 -0.000000 0.000000 
0.000000 0.000000 0.000000 

-0.000000 0.000000 0.000000 
0.000000 0.000000 0.000000 
0.000000 0.000000 0.000000 

-0.000000 -0.000000 0.000000 
0.000000 -0.000000 0.000000 
0.000000 0.000000 0.000000 

-0.000000 -0.000000 0.000000 
0.000000 0.000000 0.000000 
0.000000 0.000000 0.000000 

-0.000000 -0.000000 0.000000 
0.000000 0.000000 0.000000 
0.000000 0.000000 0.000000 

-0.000000 -0.000000 0.000000 
0.000000 0.000000 0.000000 
0.000000 0.000000 0.000000 

-0.000000 -0.000000 0.000000 
0.000000 -0.000000 0.000000 
0.000000 0.000000 0.000000 

-0.000000 -0.000000 0.000000 
0.000000 -0.000000 0.000000 
0.000000 0.000000 0.000000 

-0.000000 -0.000000 0.000000 
0.000000 -0.000000 0.000000 
0.000000 0.000000 0.000000 

-0.000000 -0.000000 0.000000 
0.000000 0.000000 0.000000 
0.000000 0.000000 0.000000 

-0.000000 -0.000000 0.000000 
0.000000 -0.000000 0.000000 
0.000000 0.000000 0.000000 

-0.000000 -0.000000 0.000000 
0.000000 0.000000 0.000000 
0.000000 0.000000 0.000000 

-0.000000 -0.000000 0.000000 
0.000000 0.000000 0.000000 
0.000000 0.000000 0.000000 

-0.000000 -0.000000 0.000000 
0.000000 -0.000000 0.000000 
0.000000 0.000000 0.000000 

-0.000000 -0.000000 0.000000 
0.000000 0.000000 0.000000 
0.000000 0.000000 0.000000 

-0.000000 -0.000000 0.000000 
0.000000 -0.000000 0.000000 
0.000000 0.000000 0.000000 

-0.000000 -0.000000 0.000000 
0.000000 0.000000 0.000000 
0.000000 0.000000 0.000000 

-0.000000 -0.000000 0.000000 
0.000000 0.000000 0.000000 
0.000000 0.000000 0.000000 

-0.000000 -0.000000 0.000000 
0.000000 -0.000000 0.000000 
0.000000 0.000000 0.000000 

-0.000000 0.000000 0.000000 
0.000000 0.000000 0.000000 
0.000000 0.000000 0.000000 

-0.000000 0.000000 0.000000 
0.000000 0.000000 0.000000 
0.000000 0.000000 0.000000 

-0.000000 0.000000 0.000000 
0.000000 0.000000 0.000000 
0.000000 0.000000 0.000000 

-0.000000 0.000000 0.000000 
0.000000 0.000000 0.000000 
0.000000 0.000000 0.000000 

-0.000000 0.000000 0.000000 
0.000000 -0.000000 0.000000 
0.000000 0.000000 0.000000 

-0.000000 0.000000 0.000000 
0.000000 0.000000 0.000000 
0.000000 0.000000 0.000000 

-0.000000 0.000000 0.000000 
0.000000 0.000000 0.000000 
0.000000 0.000000 0.000000 

-0.000000 0.000000 0.000000 
0.000000 0.000000 0.000000 
0.000000 0.000000 0.000000 

-0.000000 0.000000 0.000000 
0.000000 0.000000 0.000000 
0.000000 0.000000 0.000000 

0.000000 0.000000 0.000000 
0.000000 -0.000000 0.000000 
0.000000 0.000000 0.000000 

0.000000 0.000000 0.000000 
0.000000 -0.000000 0.000000 
0.000000 0.000000 0.000000 

-0.000000 -0.000000 0.000000 
0.000000 -0.000000 0.000000 
0.000000 0.000000 0.000000 

-0.000000 -0.000000 0.000000 
0.000000 0.000000 0.000000 
0.000000 0.000000 0.000000 

-0.000000 -0.000000 0.000000 
0.000000 0.000000 0.000000 
0.000000 0.000000 0.000000 

-0.000000 0.000000 0.000000 
0.000000 0.000000 0.000000 
0.000000 0.000000 0.000000 

-0.000000 -0.000000 0.000000 
0.000000 0.000000 0.000000 
0.000000 0.000000 0.000000 

0.000000 -0.000000 0.000000 
0.000000 0.000000 0.000000 
0.000000 0.000000 0.000000 

0.000000 -0.000000 0.000000 
0.000000 0.000000 0.000000 
0.000000 0.000000 0.000000 

-0.000000 -0.000000 0.000000 
0.000000 -0.000000 0.000000 
0.000000 0.000000 0.000000 

-0.000000 0.000000 0.000000 
0.000000 -0.000000 0.000000 
0.000000 0.000000 0.000000 

-0.000000 -0.000000 0.000000 
0.000000 -0.000000 0.000000 
0.000000 0.000000 0.000000 

-0.000000 0.000000 0.000000 
0.000000 0.000000 0.000000 
0.000000 0.000000 0.000000 

-0.000000 -0.000000 0.000000 
0.000000 -0.000000 0.000000 
0.000000 0.000000 0.000000 

-0.000000 -0.000000 0.000000 
0.000000 -0.000000 0.000000 
0.000000 0.000000 0.000000 

-0.000000 -0.000000 0.000000 
0.000000 -0.000000 0.000000 
0.000000 0.000000 0.000000 

