# vtk DataFile Version 3.0 
vtk output 
ASCII 
DATASET UNSTRUCTURED_GRID 
POINTS 175 float 
-0.026061 -1.307731 0.000000 
-0.106992 -1.239675 0.000000 
-0.054870 -1.247908 0.000000 
-0.028809 -1.202024 0.000000 
-0.186430 -1.175600 0.000000 
-0.137056 -1.178126 0.000000 
-0.114311 -1.124479 0.000000 
-0.058186 -1.140144 0.000000 
-0.029377 -1.099967 0.000000 
-0.265318 -1.112444 0.000000 
-0.217198 -1.113244 0.000000 
-0.196633 -1.055947 0.000000 
-0.143120 -1.064656 0.000000 
-0.116563 -1.017388 0.000000 
-0.058945 -1.037033 0.000000 
-0.029568 -0.998913 0.000000 
-0.344206 -1.049288 0.000000 
-0.296791 -1.049281 0.000000 
-0.278030 -0.989338 0.000000 
-0.225992 -0.995205 0.000000 
-0.201664 -0.943088 0.000000 
-0.145749 -0.956562 0.000000 
-0.117890 -0.912219 0.000000 
-0.059328 -0.934925 0.000000 
-0.029759 -0.897859 0.000000 
-0.058559 -1.348482 0.000000 
-0.162226 -1.369324 0.000000 
-0.123292 -1.333707 0.000000 
-0.142917 -1.284723 0.000000 
-0.261851 -1.391481 0.000000 
-0.229092 -1.354454 0.000000 
-0.256854 -1.303222 0.000000 
-0.209613 -1.269109 0.000000 
-0.223062 -1.221535 0.000000 
-0.360414 -1.413781 0.000000 
-0.329787 -1.376658 0.000000 
-0.361761 -1.324856 0.000000 
-0.321587 -1.288447 0.000000 
-0.341985 -1.238213 0.000000 
-0.290702 -1.205414 0.000000 
-0.302189 -1.158679 0.000000 
-0.458977 -1.436081 0.000000 
-0.429420 -1.399006 0.000000 
-0.464588 -1.346964 0.000000 
-0.427556 -1.309937 0.000000 
-0.453135 -1.258422 0.000000 
-0.407738 -1.223107 0.000000 
-0.425037 -1.173679 0.000000 
-0.370772 -1.142050 0.000000 
-0.381315 -1.095822 0.000000 
-0.046960 -1.399297 0.000000 
-0.095301 -1.493343 0.000000 
-0.098873 -1.440695 0.000000 
-0.149405 -1.425498 0.000000 
-0.140093 -1.585047 0.000000 
-0.148617 -1.536349 0.000000 
-0.205981 -1.526111 0.000000 
-0.203197 -1.467908 0.000000 
-0.248777 -1.448761 0.000000 
-0.184111 -1.676010 0.000000 
-0.194039 -1.628919 0.000000 
-0.254475 -1.621620 0.000000 
-0.257893 -1.567510 0.000000 
-0.309886 -1.552138 0.000000 
-0.303554 -1.491592 0.000000 
-0.347255 -1.471434 0.000000 
-0.228129 -1.766974 0.000000 
-0.238687 -1.720750 0.000000 
-0.301302 -1.715798 0.000000 
-0.307162 -1.663759 0.000000 
-0.363386 -1.651638 0.000000 
-0.362692 -1.594126 0.000000 
-0.412122 -1.576833 0.000000 
-0.403017 -1.514687 0.000000 
-0.445733 -1.494108 0.000000 
-0.000000 -1.421912 0.000000 
0.043388 -1.518342 0.000000 
-0.000000 -1.488310 0.000000 
-0.043388 -1.518342 0.000000 
0.087158 -1.610539 0.000000 
0.043769 -1.586840 0.000000 
-0.000000 -1.625306 0.000000 
-0.043769 -1.586840 0.000000 
-0.087158 -1.610539 0.000000 
0.130831 -1.701669 0.000000 
0.087824 -1.680070 0.000000 
0.044436 -1.722770 0.000000 
-0.000000 -1.691705 0.000000 
-0.044436 -1.722770 0.000000 
-0.087824 -1.680070 0.000000 
-0.130831 -1.701669 0.000000 
0.174505 -1.792798 0.000000 
0.131782 -1.772232 0.000000 
0.088871 -1.818099 0.000000 
0.044532 -1.790235 0.000000 
-0.000000 -1.826635 0.000000 
-0.044532 -1.790235 0.000000 
-0.088871 -1.818099 0.000000 
-0.131782 -1.772232 0.000000 
-0.174505 -1.792798 0.000000 
0.046960 -1.399297 0.000000 
0.149405 -1.425498 0.000000 
0.098873 -1.440695 0.000000 
0.095301 -1.493343 0.000000 
0.248777 -1.448761 0.000000 
0.203197 -1.467908 0.000000 
0.205981 -1.526111 0.000000 
0.148617 -1.536349 0.000000 
0.140093 -1.585047 0.000000 
0.347255 -1.471434 0.000000 
0.303554 -1.491592 0.000000 
0.309886 -1.552138 0.000000 
0.257893 -1.567510 0.000000 
0.254475 -1.621620 0.000000 
0.194039 -1.628919 0.000000 
0.184111 -1.676010 0.000000 
0.445733 -1.494108 0.000000 
0.403017 -1.514687 0.000000 
0.412122 -1.576833 0.000000 
0.362692 -1.594126 0.000000 
0.363386 -1.651638 0.000000 
0.307162 -1.663759 0.000000 
0.301302 -1.715798 0.000000 
0.238687 -1.720750 0.000000 
0.228129 -1.766974 0.000000 
0.058559 -1.348482 0.000000 
0.142917 -1.284723 0.000000 
0.123292 -1.333707 0.000000 
0.162226 -1.369324 0.000000 
0.223062 -1.221535 0.000000 
0.209613 -1.269109 0.000000 
0.256854 -1.303222 0.000000 
0.229092 -1.354454 0.000000 
0.261851 -1.391481 0.000000 
0.302189 -1.158679 0.000000 
0.290702 -1.205414 0.000000 
0.341985 -1.238213 0.000000 
0.321587 -1.288447 0.000000 
0.361761 -1.324856 0.000000 
0.329787 -1.376658 0.000000 
0.360414 -1.413781 0.000000 
0.381315 -1.095822 0.000000 
0.370772 -1.142050 0.000000 
0.425037 -1.173679 0.000000 
0.407738 -1.223107 0.000000 
0.453135 -1.258422 0.000000 
0.427556 -1.309937 0.000000 
0.464588 -1.346964 0.000000 
0.429420 -1.399006 0.000000 
0.458977 -1.436081 0.000000 
0.026061 -1.307731 0.000000 
0.028809 -1.202024 0.000000 
0.054870 -1.247908 0.000000 
0.106992 -1.239675 0.000000 
0.029377 -1.099967 0.000000 
0.058186 -1.140144 0.000000 
0.114311 -1.124479 0.000000 
0.137056 -1.178126 0.000000 
0.186430 -1.175600 0.000000 
0.029568 -0.998913 0.000000 
0.058945 -1.037033 0.000000 
0.116563 -1.017388 0.000000 
0.143120 -1.064656 0.000000 
0.196633 -1.055947 0.000000 
0.217198 -1.113244 0.000000 
0.265318 -1.112444 0.000000 
0.029759 -0.897859 0.000000 
0.059328 -0.934925 0.000000 
0.117890 -0.912219 0.000000 
0.145749 -0.956562 0.000000 
0.201664 -0.943088 0.000000 
0.225992 -0.995205 0.000000 
0.278030 -0.989338 0.000000 
0.296791 -1.049281 0.000000 
0.344206 -1.049288 0.000000 
CELLS 175 350 
1 0 
1 1 
1 2 
1 3 
1 4 
1 5 
1 6 
1 7 
1 8 
1 9 
1 10 
1 11 
1 12 
1 13 
1 14 
1 15 
1 16 
1 17 
1 18 
1 19 
1 20 
1 21 
1 22 
1 23 
1 24 
1 25 
1 26 
1 27 
1 28 
1 29 
1 30 
1 31 
1 32 
1 33 
1 34 
1 35 
1 36 
1 37 
1 38 
1 39 
1 40 
1 41 
1 42 
1 43 
1 44 
1 45 
1 46 
1 47 
1 48 
1 49 
1 50 
1 51 
1 52 
1 53 
1 54 
1 55 
1 56 
1 57 
1 58 
1 59 
1 60 
1 61 
1 62 
1 63 
1 64 
1 65 
1 66 
1 67 
1 68 
1 69 
1 70 
1 71 
1 72 
1 73 
1 74 
1 75 
1 76 
1 77 
1 78 
1 79 
1 80 
1 81 
1 82 
1 83 
1 84 
1 85 
1 86 
1 87 
1 88 
1 89 
1 90 
1 91 
1 92 
1 93 
1 94 
1 95 
1 96 
1 97 
1 98 
1 99 
1 100 
1 101 
1 102 
1 103 
1 104 
1 105 
1 106 
1 107 
1 108 
1 109 
1 110 
1 111 
1 112 
1 113 
1 114 
1 115 
1 116 
1 117 
1 118 
1 119 
1 120 
1 121 
1 122 
1 123 
1 124 
1 125 
1 126 
1 127 
1 128 
1 129 
1 130 
1 131 
1 132 
1 133 
1 134 
1 135 
1 136 
1 137 
1 138 
1 139 
1 140 
1 141 
1 142 
1 143 
1 144 
1 145 
1 146 
1 147 
1 148 
1 149 
1 150 
1 151 
1 152 
1 153 
1 154 
1 155 
1 156 
1 157 
1 158 
1 159 
1 160 
1 161 
1 162 
1 163 
1 164 
1 165 
1 166 
1 167 
1 168 
1 169 
1 170 
1 171 
1 172 
1 173 
1 174 
CELL_TYPES 175 
1 
1 
1 
1 
1 
1 
1 
1 
1 
1 
1 
1 
1 
1 
1 
1 
1 
1 
1 
1 
1 
1 
1 
1 
1 
1 
1 
1 
1 
1 
1 
1 
1 
1 
1 
1 
1 
1 
1 
1 
1 
1 
1 
1 
1 
1 
1 
1 
1 
1 
1 
1 
1 
1 
1 
1 
1 
1 
1 
1 
1 
1 
1 
1 
1 
1 
1 
1 
1 
1 
1 
1 
1 
1 
1 
1 
1 
1 
1 
1 
1 
1 
1 
1 
1 
1 
1 
1 
1 
1 
1 
1 
1 
1 
1 
1 
1 
1 
1 
1 
1 
1 
1 
1 
1 
1 
1 
1 
1 
1 
1 
1 
1 
1 
1 
1 
1 
1 
1 
1 
1 
1 
1 
1 
1 
1 
1 
1 
1 
1 
1 
1 
1 
1 
1 
1 
1 
1 
1 
1 
1 
1 
1 
1 
1 
1 
1 
1 
1 
1 
1 
1 
1 
1 
1 
1 
1 
1 
1 
1 
1 
1 
1 
1 
1 
1 
1 
1 
1 
1 
1 
1 
1 
1 
1 
POINT_DATA 175 
VECTORS X_GC float 
-0.026061 -1.307731 0.000000 
-0.106992 -1.239675 0.000000 
-0.054870 -1.247908 0.000000 
-0.028809 -1.202024 0.000000 
-0.186430 -1.175600 0.000000 
-0.137056 -1.178126 0.000000 
-0.114311 -1.124479 0.000000 
-0.058186 -1.140144 0.000000 
-0.029377 -1.099967 0.000000 
-0.265318 -1.112444 0.000000 
-0.217198 -1.113244 0.000000 
-0.196633 -1.055947 0.000000 
-0.143120 -1.064656 0.000000 
-0.116563 -1.017388 0.000000 
-0.058945 -1.037033 0.000000 
-0.029568 -0.998913 0.000000 
-0.344206 -1.049288 0.000000 
-0.296791 -1.049281 0.000000 
-0.278030 -0.989338 0.000000 
-0.225992 -0.995205 0.000000 
-0.201664 -0.943088 0.000000 
-0.145749 -0.956562 0.000000 
-0.117890 -0.912219 0.000000 
-0.059328 -0.934925 0.000000 
-0.029759 -0.897859 0.000000 
-0.058559 -1.348482 0.000000 
-0.162226 -1.369324 0.000000 
-0.123292 -1.333707 0.000000 
-0.142917 -1.284723 0.000000 
-0.261851 -1.391481 0.000000 
-0.229092 -1.354454 0.000000 
-0.256854 -1.303222 0.000000 
-0.209613 -1.269109 0.000000 
-0.223062 -1.221535 0.000000 
-0.360414 -1.413781 0.000000 
-0.329787 -1.376658 0.000000 
-0.361761 -1.324856 0.000000 
-0.321587 -1.288447 0.000000 
-0.341985 -1.238213 0.000000 
-0.290702 -1.205414 0.000000 
-0.302189 -1.158679 0.000000 
-0.458977 -1.436081 0.000000 
-0.429420 -1.399006 0.000000 
-0.464588 -1.346964 0.000000 
-0.427556 -1.309937 0.000000 
-0.453135 -1.258422 0.000000 
-0.407738 -1.223107 0.000000 
-0.425037 -1.173679 0.000000 
-0.370772 -1.142050 0.000000 
-0.381315 -1.095822 0.000000 
-0.046960 -1.399297 0.000000 
-0.095301 -1.493343 0.000000 
-0.098873 -1.440695 0.000000 
-0.149405 -1.425498 0.000000 
-0.140093 -1.585047 0.000000 
-0.148617 -1.536349 0.000000 
-0.205981 -1.526111 0.000000 
-0.203197 -1.467908 0.000000 
-0.248777 -1.448761 0.000000 
-0.184111 -1.676010 0.000000 
-0.194039 -1.628919 0.000000 
-0.254475 -1.621620 0.000000 
-0.257893 -1.567510 0.000000 
-0.309886 -1.552138 0.000000 
-0.303554 -1.491592 0.000000 
-0.347255 -1.471434 0.000000 
-0.228129 -1.766974 0.000000 
-0.238687 -1.720750 0.000000 
-0.301302 -1.715798 0.000000 
-0.307162 -1.663759 0.000000 
-0.363386 -1.651638 0.000000 
-0.362692 -1.594126 0.000000 
-0.412122 -1.576833 0.000000 
-0.403017 -1.514687 0.000000 
-0.445733 -1.494108 0.000000 
-0.000000 -1.421912 0.000000 
0.043388 -1.518342 0.000000 
-0.000000 -1.488310 0.000000 
-0.043388 -1.518342 0.000000 
0.087158 -1.610539 0.000000 
0.043769 -1.586840 0.000000 
-0.000000 -1.625306 0.000000 
-0.043769 -1.586840 0.000000 
-0.087158 -1.610539 0.000000 
0.130831 -1.701669 0.000000 
0.087824 -1.680070 0.000000 
0.044436 -1.722770 0.000000 
-0.000000 -1.691705 0.000000 
-0.044436 -1.722770 0.000000 
-0.087824 -1.680070 0.000000 
-0.130831 -1.701669 0.000000 
0.174505 -1.792798 0.000000 
0.131782 -1.772232 0.000000 
0.088871 -1.818099 0.000000 
0.044532 -1.790235 0.000000 
-0.000000 -1.826635 0.000000 
-0.044532 -1.790235 0.000000 
-0.088871 -1.818099 0.000000 
-0.131782 -1.772232 0.000000 
-0.174505 -1.792798 0.000000 
0.046960 -1.399297 0.000000 
0.149405 -1.425498 0.000000 
0.098873 -1.440695 0.000000 
0.095301 -1.493343 0.000000 
0.248777 -1.448761 0.000000 
0.203197 -1.467908 0.000000 
0.205981 -1.526111 0.000000 
0.148617 -1.536349 0.000000 
0.140093 -1.585047 0.000000 
0.347255 -1.471434 0.000000 
0.303554 -1.491592 0.000000 
0.309886 -1.552138 0.000000 
0.257893 -1.567510 0.000000 
0.254475 -1.621620 0.000000 
0.194039 -1.628919 0.000000 
0.184111 -1.676010 0.000000 
0.445733 -1.494108 0.000000 
0.403017 -1.514687 0.000000 
0.412122 -1.576833 0.000000 
0.362692 -1.594126 0.000000 
0.363386 -1.651638 0.000000 
0.307162 -1.663759 0.000000 
0.301302 -1.715798 0.000000 
0.238687 -1.720750 0.000000 
0.228129 -1.766974 0.000000 
0.058559 -1.348482 0.000000 
0.142917 -1.284723 0.000000 
0.123292 -1.333707 0.000000 
0.162226 -1.369324 0.000000 
0.223062 -1.221535 0.000000 
0.209613 -1.269109 0.000000 
0.256854 -1.303222 0.000000 
0.229092 -1.354454 0.000000 
0.261851 -1.391481 0.000000 
0.302189 -1.158679 0.000000 
0.290702 -1.205414 0.000000 
0.341985 -1.238213 0.000000 
0.321587 -1.288447 0.000000 
0.361761 -1.324856 0.000000 
0.329787 -1.376658 0.000000 
0.360414 -1.413781 0.000000 
0.381315 -1.095822 0.000000 
0.370772 -1.142050 0.000000 
0.425037 -1.173679 0.000000 
0.407738 -1.223107 0.000000 
0.453135 -1.258422 0.000000 
0.427556 -1.309937 0.000000 
0.464588 -1.346964 0.000000 
0.429420 -1.399006 0.000000 
0.458977 -1.436081 0.000000 
0.026061 -1.307731 0.000000 
0.028809 -1.202024 0.000000 
0.054870 -1.247908 0.000000 
0.106992 -1.239675 0.000000 
0.029377 -1.099967 0.000000 
0.058186 -1.140144 0.000000 
0.114311 -1.124479 0.000000 
0.137056 -1.178126 0.000000 
0.186430 -1.175600 0.000000 
0.029568 -0.998913 0.000000 
0.058945 -1.037033 0.000000 
0.116563 -1.017388 0.000000 
0.143120 -1.064656 0.000000 
0.196633 -1.055947 0.000000 
0.217198 -1.113244 0.000000 
0.265318 -1.112444 0.000000 
0.029759 -0.897859 0.000000 
0.059328 -0.934925 0.000000 
0.117890 -0.912219 0.000000 
0.145749 -0.956562 0.000000 
0.201664 -0.943088 0.000000 
0.225992 -0.995205 0.000000 
0.278030 -0.989338 0.000000 
0.296791 -1.049281 0.000000 
0.344206 -1.049288 0.000000 
VECTORS X_EC float 
0.338794 0.154367 0.000000 
-0.609100 -0.764382 0.000000 
0.713312 -0.653241 0.000000 
0.374519 0.727329 0.000000 
0.423588 0.370599 0.000000 
-0.218274 0.404702 0.000000 
-0.513962 -0.319536 0.000000 
0.756418 -0.108050 0.000000 
0.381900 -0.650443 0.000000 
-0.550868 -0.482004 0.000000 
0.823577 -0.471209 0.000000 
0.556234 0.755287 0.000000 
-0.139443 0.872856 0.000000 
-0.484677 0.234731 0.000000 
0.766286 0.499947 0.000000 
0.384386 -0.014674 0.000000 
0.474677 0.665392 0.000000 
-0.141715 0.665296 0.000000 
-0.385608 -0.143932 0.000000 
0.937896 -0.064737 0.000000 
0.621631 -0.768317 0.000000 
-0.105264 -0.586417 0.000000 
-0.467428 0.814956 0.000000 
0.771260 -0.878515 0.000000 
0.386873 0.621095 0.000000 
0.761262 0.704501 0.000000 
0.108942 0.985878 0.000000 
-0.397202 0.505038 0.000000 
-0.142083 -0.156237 0.000000 
-0.595936 -0.715012 0.000000 
0.978194 0.785122 0.000000 
-0.660903 0.093497 0.000000 
0.724964 -0.367023 0.000000 
0.899809 0.990729 0.000000 
0.685384 -0.413960 0.000000 
0.287229 -0.915118 0.000000 
0.702895 0.385553 0.000000 
0.180633 -0.105965 0.000000 
0.445811 -0.784125 0.000000 
-0.220880 0.773089 0.000000 
-0.071546 0.142164 0.000000 
-0.033296 -0.112907 0.000000 
-0.417537 -0.613417 0.000000 
0.039645 0.684020 0.000000 
-0.441768 0.184149 0.000000 
-0.109248 -0.511301 0.000000 
-0.699407 -0.988057 0.000000 
-0.474522 0.344664 0.000000 
0.820030 -0.082330 0.000000 
0.957100 -0.706401 0.000000 
0.610485 -0.609493 0.000000 
-0.761092 0.660127 0.000000 
-0.714655 -0.050611 0.000000 
-0.057734 -0.255778 0.000000 
-0.178789 -0.101869 0.000000 
-0.067979 -0.759295 0.000000 
0.677748 -0.897499 0.000000 
0.641556 0.316756 0.000000 
-0.765897 0.058278 0.000000 
0.393446 -0.873860 0.000000 
0.522510 0.490410 0.000000 
-0.691820 0.391866 0.000000 
-0.647393 -0.338617 0.000000 
0.028512 -0.546143 0.000000 
-0.053800 0.636496 0.000000 
0.514316 0.364365 0.000000 
0.965681 0.354149 0.000000 
-0.897068 -0.269880 0.000000 
-0.083078 -0.336733 0.000000 
-0.006893 0.960743 0.000000 
0.724017 0.797110 0.000000 
0.714996 0.020706 0.000000 
-0.642413 -0.212751 0.000000 
-0.760780 0.948268 0.000000 
-0.205471 0.670453 0.000000 
0.000000 -0.304191 0.000000 
-0.564049 0.997622 0.000000 
0.000000 0.592186 0.000000 
0.564049 0.997622 0.000000 
0.866949 0.242277 0.000000 
-0.569003 -0.077654 0.000000 
0.000000 0.441634 0.000000 
0.569003 -0.077654 0.000000 
-0.866949 0.242277 0.000000 
0.299194 -0.527473 0.000000 
0.858290 -0.819057 0.000000 
-0.577662 -0.242611 0.000000 
0.000000 -0.661989 0.000000 
0.577662 -0.242611 0.000000 
-0.858290 -0.819057 0.000000 
-0.299194 -0.527473 0.000000 
-0.268560 0.702777 0.000000 
0.286830 0.425136 0.000000 
0.844677 -0.955666 0.000000 
-0.578910 0.668171 0.000000 
0.000000 -0.840425 0.000000 
0.578910 0.668171 0.000000 
-0.844677 -0.955666 0.000000 
-0.286830 0.425136 0.000000 
0.268560 0.702777 0.000000 
-0.610485 -0.609493 0.000000 
0.057734 -0.255778 0.000000 
0.714655 -0.050611 0.000000 
0.761092 0.660127 0.000000 
0.765897 0.058278 0.000000 
-0.641556 0.316756 0.000000 
-0.677748 -0.897499 0.000000 
0.067979 -0.759295 0.000000 
0.178789 -0.101869 0.000000 
-0.514316 0.364365 0.000000 
0.053800 0.636496 0.000000 
-0.028512 -0.546143 0.000000 
0.647393 -0.338617 0.000000 
0.691820 0.391866 0.000000 
-0.522510 0.490410 0.000000 
-0.393446 -0.873860 0.000000 
0.205471 0.670453 0.000000 
0.760780 0.948268 0.000000 
0.642413 -0.212751 0.000000 
-0.714996 0.020706 0.000000 
-0.724017 0.797110 0.000000 
0.006894 0.960743 0.000000 
0.083078 -0.336733 0.000000 
0.897068 -0.269880 0.000000 
-0.965681 0.354149 0.000000 
-0.761262 0.704501 0.000000 
0.142083 -0.156237 0.000000 
0.397202 0.505038 0.000000 
-0.108942 0.985878 0.000000 
-0.899809 0.990729 0.000000 
-0.724964 -0.367023 0.000000 
0.660903 0.093497 0.000000 
-0.978194 0.785122 0.000000 
0.595936 -0.715012 0.000000 
0.071546 0.142164 0.000000 
0.220880 0.773089 0.000000 
-0.445811 -0.784125 0.000000 
-0.180633 -0.105965 0.000000 
-0.702895 0.385553 0.000000 
-0.287229 -0.915118 0.000000 
-0.685384 -0.413960 0.000000 
-0.957100 -0.706401 0.000000 
-0.820030 -0.082330 0.000000 
0.474522 0.344664 0.000000 
0.699407 -0.988057 0.000000 
0.109248 -0.511301 0.000000 
0.441768 0.184149 0.000000 
-0.039645 0.684021 0.000000 
0.417537 -0.613417 0.000000 
0.033296 -0.112907 0.000000 
-0.338794 0.154367 0.000000 
-0.374519 0.727329 0.000000 
-0.713312 -0.653241 0.000000 
0.609100 -0.764382 0.000000 
-0.381900 -0.650443 0.000000 
-0.756418 -0.108050 0.000000 
0.513962 -0.319536 0.000000 
0.218274 0.404702 0.000000 
-0.423588 0.370599 0.000000 
-0.384386 -0.014674 0.000000 
-0.766286 0.499947 0.000000 
0.484677 0.234731 0.000000 
0.139443 0.872856 0.000000 
-0.556234 0.755287 0.000000 
-0.823577 -0.471209 0.000000 
0.550868 -0.482004 0.000000 
-0.386873 0.621095 0.000000 
-0.771260 -0.878515 0.000000 
0.467428 0.814956 0.000000 
0.105264 -0.586417 0.000000 
-0.621631 -0.768317 0.000000 
-0.937896 -0.064737 0.000000 
0.385608 -0.143932 0.000000 
0.141715 0.665296 0.000000 
-0.474677 0.665392 0.000000 
CELL_DATA 175 
SCALARS MASS float 
LOOKUP_TABLE default 
0.078183 
0.086427 
0.094672 
0.086427 
0.088131 
0.092111 
0.085854 
0.092111 
0.088131 
0.088705 
0.091000 
0.086983 
0.091556 
0.086983 
0.091000 
0.088705 
0.089278 
0.091574 
0.089278 
0.092722 
0.089278 
0.092722 
0.089278 
0.091574 
0.089278 
0.078183 
0.086427 
0.094672 
0.086427 
0.088131 
0.092111 
0.085854 
0.092111 
0.088131 
0.088705 
0.091000 
0.086983 
0.091556 
0.086983 
0.091000 
0.088705 
0.089278 
0.091574 
0.089278 
0.092722 
0.089278 
0.092722 
0.089278 
0.091574 
0.089278 
0.078183 
0.086427 
0.094672 
0.086427 
0.088131 
0.092111 
0.085854 
0.092111 
0.088131 
0.088705 
0.091000 
0.086983 
0.091556 
0.086983 
0.091000 
0.088705 
0.089278 
0.091574 
0.089278 
0.092722 
0.089278 
0.092722 
0.089278 
0.091574 
0.089278 
0.078183 
0.086427 
0.094672 
0.086427 
0.088131 
0.092111 
0.085854 
0.092111 
0.088131 
0.088705 
0.091000 
0.086983 
0.091556 
0.086983 
0.091000 
0.088705 
0.089278 
0.091574 
0.089278 
0.092722 
0.089278 
0.092722 
0.089278 
0.091574 
0.089278 
0.078183 
0.086427 
0.094672 
0.086427 
0.088131 
0.092111 
0.085854 
0.092111 
0.088131 
0.088705 
0.091000 
0.086983 
0.091556 
0.086983 
0.091000 
0.088705 
0.089278 
0.091574 
0.089278 
0.092722 
0.089278 
0.092722 
0.089278 
0.091574 
0.089278 
0.078183 
0.086427 
0.094672 
0.086427 
0.088131 
0.092111 
0.085854 
0.092111 
0.088131 
0.088705 
0.091000 
0.086983 
0.091556 
0.086983 
0.091000 
0.088705 
0.089278 
0.091574 
0.089278 
0.092722 
0.089278 
0.092722 
0.089278 
0.091574 
0.089278 
0.078183 
0.086427 
0.094672 
0.086427 
0.088131 
0.092111 
0.085854 
0.092111 
0.088131 
0.088705 
0.091000 
0.086983 
0.091556 
0.086983 
0.091000 
0.088705 
0.089278 
0.091574 
0.089278 
0.092722 
0.089278 
0.092722 
0.089278 
0.091574 
0.089278 
SCALARS MASS float 
LOOKUP_TABLE default 
0.078183 
0.086427 
0.094672 
0.086427 
0.088131 
0.092111 
0.085854 
0.092111 
0.088131 
0.088705 
0.091000 
0.086983 
0.091556 
0.086983 
0.091000 
0.088705 
0.089278 
0.091574 
0.089278 
0.092722 
0.089278 
0.092722 
0.089278 
0.091574 
0.089278 
0.078183 
0.086427 
0.094672 
0.086427 
0.088131 
0.092111 
0.085854 
0.092111 
0.088131 
0.088705 
0.091000 
0.086983 
0.091556 
0.086983 
0.091000 
0.088705 
0.089278 
0.091574 
0.089278 
0.092722 
0.089278 
0.092722 
0.089278 
0.091574 
0.089278 
0.078183 
0.086427 
0.094672 
0.086427 
0.088131 
0.092111 
0.085854 
0.092111 
0.088131 
0.088705 
0.091000 
0.086983 
0.091556 
0.086983 
0.091000 
0.088705 
0.089278 
0.091574 
0.089278 
0.092722 
0.089278 
0.092722 
0.089278 
0.091574 
0.089278 
0.078183 
0.086427 
0.094672 
0.086427 
0.088131 
0.092111 
0.085854 
0.092111 
0.088131 
0.088705 
0.091000 
0.086983 
0.091556 
0.086983 
0.091000 
0.088705 
0.089278 
0.091574 
0.089278 
0.092722 
0.089278 
0.092722 
0.089278 
0.091574 
0.089278 
0.078183 
0.086427 
0.094672 
0.086427 
0.088131 
0.092111 
0.085854 
0.092111 
0.088131 
0.088705 
0.091000 
0.086983 
0.091556 
0.086983 
0.091000 
0.088705 
0.089278 
0.091574 
0.089278 
0.092722 
0.089278 
0.092722 
0.089278 
0.091574 
0.089278 
0.078183 
0.086427 
0.094672 
0.086427 
0.088131 
0.092111 
0.085854 
0.092111 
0.088131 
0.088705 
0.091000 
0.086983 
0.091556 
0.086983 
0.091000 
0.088705 
0.089278 
0.091574 
0.089278 
0.092722 
0.089278 
0.092722 
0.089278 
0.091574 
0.089278 
0.078183 
0.086427 
0.094672 
0.086427 
0.088131 
0.092111 
0.085854 
0.092111 
0.088131 
0.088705 
0.091000 
0.086983 
0.091556 
0.086983 
0.091000 
0.088705 
0.089278 
0.091574 
0.089278 
0.092722 
0.089278 
0.092722 
0.089278 
0.091574 
0.089278 
SCALARS DENSITY float 
LOOKUP_TABLE default 
20.000000 
20.000000 
20.000000 
20.000000 
20.000000 
20.000000 
20.000000 
20.000000 
20.000000 
20.000000 
20.000000 
20.000000 
20.000000 
20.000000 
20.000000 
20.000000 
20.000000 
20.000000 
20.000000 
20.000000 
20.000000 
20.000000 
20.000000 
20.000000 
20.000000 
20.000000 
20.000000 
20.000000 
20.000000 
20.000000 
20.000000 
20.000000 
20.000000 
20.000000 
20.000000 
20.000000 
20.000000 
20.000000 
20.000000 
20.000000 
20.000000 
20.000000 
20.000000 
20.000000 
20.000000 
20.000000 
20.000000 
20.000000 
20.000000 
20.000000 
20.000000 
20.000000 
20.000000 
20.000000 
20.000000 
20.000000 
20.000000 
20.000000 
20.000000 
20.000000 
20.000000 
20.000000 
20.000000 
20.000000 
20.000000 
20.000000 
20.000000 
20.000000 
20.000000 
20.000000 
20.000000 
20.000000 
20.000000 
20.000000 
20.000000 
20.000000 
20.000000 
20.000000 
20.000000 
20.000000 
20.000000 
20.000000 
20.000000 
20.000000 
20.000000 
20.000000 
20.000000 
20.000000 
20.000000 
20.000000 
20.000000 
20.000000 
20.000000 
20.000000 
20.000000 
20.000000 
20.000000 
20.000000 
20.000000 
20.000000 
20.000000 
20.000000 
20.000000 
20.000000 
20.000000 
20.000000 
20.000000 
20.000000 
20.000000 
20.000000 
20.000000 
20.000000 
20.000000 
20.000000 
20.000000 
20.000000 
20.000000 
20.000000 
20.000000 
20.000000 
20.000000 
20.000000 
20.000000 
20.000000 
20.000000 
20.000000 
20.000000 
20.000000 
20.000000 
20.000000 
20.000000 
20.000000 
20.000000 
20.000000 
20.000000 
20.000000 
20.000000 
20.000000 
20.000000 
20.000000 
20.000000 
20.000000 
20.000000 
20.000000 
20.000000 
20.000000 
20.000000 
20.000000 
20.000000 
20.000000 
20.000000 
20.000000 
20.000000 
20.000000 
20.000000 
20.000000 
20.000000 
20.000000 
20.000000 
20.000000 
20.000000 
20.000000 
20.000000 
20.000000 
20.000000 
20.000000 
20.000000 
20.000000 
20.000000 
20.000000 
20.000000 
20.000000 
20.000000 
20.000000 
20.000000 
SCALARS ELEM_i float 
LOOKUP_TABLE default 
173 
200 
173 
174 
201 
201 
201 
174 
174 
228 
201 
202 
202 
202 
175 
175 
229 
229 
229 
202 
202 
202 
203 
175 
176 
173 
200 
200 
200 
226 
200 
227 
200 
201 
226 
226 
227 
227 
227 
228 
228 
253 
253 
254 
254 
254 
254 
255 
228 
228 
172 
199 
199 
199 
198 
198 
198 
199 
226 
197 
198 
225 
225 
225 
226 
226 
197 
224 
224 
225 
225 
225 
252 
253 
253 
172 
172 
172 
172 
144 
171 
171 
171 
198 
143 
143 
170 
170 
170 
197 
197 
143 
143 
142 
170 
169 
170 
196 
197 
197 
172 
145 
145 
145 
118 
145 
144 
144 
144 
118 
118 
117 
117 
117 
144 
143 
91 
91 
90 
117 
117 
117 
116 
116 
143 
173 
146 
146 
146 
147 
146 
119 
146 
118 
120 
120 
119 
119 
119 
118 
118 
120 
120 
93 
92 
92 
92 
92 
91 
91 
173 
174 
173 
146 
174 
174 
147 
147 
147 
175 
175 
148 
148 
148 
147 
120 
176 
175 
149 
148 
148 
148 
121 
121 
121 
VECTORS VELOCITY float 
0.000000 -5.168693 0.000000 
0.000000 -5.168693 0.000000 
0.000000 -5.168693 0.000000 
-0.000000 -5.168693 0.000000 
0.000000 -5.168693 0.000000 
0.000000 -5.168693 0.000000 
-0.000000 -5.168693 0.000000 
-0.000000 -5.168693 0.000000 
-0.000000 -5.168693 0.000000 
-0.000000 -5.168693 0.000000 
-0.000000 -5.168693 0.000000 
-0.000000 -5.168693 0.000000 
-0.000000 -5.168693 0.000000 
-0.000000 -5.168693 0.000000 
-0.000000 -5.168693 0.000000 
0.000000 -5.168693 0.000000 
-0.000000 -5.168693 0.000000 
-0.000000 -5.168693 0.000000 
0.000000 -5.168693 0.000000 
0.000000 -5.168693 0.000000 
-0.000000 -5.168693 0.000000 
-0.000000 -5.168693 0.000000 
-0.000000 -5.168693 0.000000 
0.000000 -5.168693 0.000000 
0.000000 -5.168693 0.000000 
0.000000 -5.168693 0.000000 
0.000000 -5.168693 0.000000 
0.000000 -5.168693 0.000000 
0.000000 -5.168693 0.000000 
0.000000 -5.168693 0.000000 
-0.000000 -5.168693 0.000000 
-0.000000 -5.168693 0.000000 
-0.000000 -5.168693 0.000000 
0.000000 -5.168693 0.000000 
0.000000 -5.168693 0.000000 
0.000000 -5.168693 0.000000 
0.000000 -5.168693 0.000000 
0.000000 -5.168693 0.000000 
0.000000 -5.168693 0.000000 
0.000000 -5.168693 0.000000 
0.000000 -5.168693 0.000000 
-0.000000 -5.168693 0.000000 
0.000000 -5.168693 0.000000 
0.000000 -5.168693 0.000000 
0.000000 -5.168693 0.000000 
-0.000000 -5.168693 0.000000 
-0.000000 -5.168693 0.000000 
-0.000000 -5.168693 0.000000 
-0.000000 -5.168693 0.000000 
-0.000000 -5.168693 0.000000 
0.000000 -5.168693 0.000000 
0.000000 -5.168693 0.000000 
-0.000000 -5.168693 0.000000 
0.000000 -5.168693 0.000000 
-0.000000 -5.168693 0.000000 
-0.000000 -5.168693 0.000000 
0.000000 -5.168693 0.000000 
0.000000 -5.168693 0.000000 
0.000000 -5.168693 0.000000 
-0.000000 -5.168693 0.000000 
-0.000000 -5.168693 0.000000 
0.000000 -5.168693 0.000000 
0.000000 -5.168693 0.000000 
0.000000 -5.168693 0.000000 
0.000000 -5.168693 0.000000 
0.000000 -5.168693 0.000000 
-0.000000 -5.168693 0.000000 
-0.000000 -5.168693 0.000000 
-0.000000 -5.168693 0.000000 
-0.000000 -5.168693 0.000000 
-0.000000 -5.168693 0.000000 
0.000000 -5.168693 0.000000 
-0.000000 -5.168693 0.000000 
-0.000000 -5.168693 0.000000 
-0.000000 -5.168693 0.000000 
0.000000 -5.168693 0.000000 
0.000000 -5.168693 0.000000 
0.000000 -5.168693 0.000000 
-0.000000 -5.168693 0.000000 
-0.000000 -5.168693 0.000000 
-0.000000 -5.168693 0.000000 
-0.000000 -5.168693 0.000000 
-0.000000 -5.168693 0.000000 
-0.000000 -5.168693 0.000000 
-0.000000 -5.168693 0.000000 
-0.000000 -5.168693 0.000000 
0.000000 -5.168693 0.000000 
-0.000000 -5.168693 0.000000 
0.000000 -5.168693 0.000000 
0.000000 -5.168693 0.000000 
-0.000000 -5.168693 0.000000 
-0.000000 -5.168693 0.000000 
-0.000000 -5.168693 0.000000 
-0.000000 -5.168693 0.000000 
-0.000000 -5.168693 0.000000 
0.000000 -5.168693 0.000000 
0.000000 -5.168693 0.000000 
0.000000 -5.168693 0.000000 
-0.000000 -5.168693 0.000000 
-0.000000 -5.168693 0.000000 
0.000000 -5.168693 0.000000 
-0.000000 -5.168693 0.000000 
0.000000 -5.168693 0.000000 
0.000000 -5.168693 0.000000 
0.000000 -5.168693 0.000000 
-0.000000 -5.168693 0.000000 
0.000000 -5.168693 0.000000 
0.000000 -5.168693 0.000000 
0.000000 -5.168693 0.000000 
0.000000 -5.168693 0.000000 
0.000000 -5.168693 0.000000 
0.000000 -5.168693 0.000000 
0.000000 -5.168693 0.000000 
-0.000000 -5.168693 0.000000 
-0.000000 -5.168693 0.000000 
-0.000000 -5.168693 0.000000 
0.000000 -5.168693 0.000000 
0.000000 -5.168693 0.000000 
0.000000 -5.168693 0.000000 
-0.000000 -5.168693 0.000000 
-0.000000 -5.168693 0.000000 
-0.000000 -5.168693 0.000000 
-0.000000 -5.168693 0.000000 
-0.000000 -5.168693 0.000000 
-0.000000 -5.168693 0.000000 
0.000000 -5.168693 0.000000 
0.000000 -5.168693 0.000000 
0.000000 -5.168693 0.000000 
0.000000 -5.168693 0.000000 
-0.000000 -5.168693 0.000000 
0.000000 -5.168693 0.000000 
-0.000000 -5.168693 0.000000 
-0.000000 -5.168693 0.000000 
-0.000000 -5.168693 0.000000 
-0.000000 -5.168693 0.000000 
-0.000000 -5.168693 0.000000 
0.000000 -5.168693 0.000000 
0.000000 -5.168693 0.000000 
0.000000 -5.168693 0.000000 
0.000000 -5.168693 0.000000 
0.000000 -5.168693 0.000000 
-0.000000 -5.168693 0.000000 
0.000000 -5.168693 0.000000 
-0.000000 -5.168693 0.000000 
0.000000 -5.168693 0.000000 
0.000000 -5.168693 0.000000 
0.000000 -5.168693 0.000000 
-0.000000 -5.168693 0.000000 
0.000000 -5.168693 0.000000 
0.000000 -5.168693 0.000000 
0.000000 -5.168693 0.000000 
0.000000 -5.168693 0.000000 
0.000000 -5.168693 0.000000 
-0.000000 -5.168693 0.000000 
0.000000 -5.168693 0.000000 
-0.000000 -5.168693 0.000000 
0.000000 -5.168693 0.000000 
-0.000000 -5.168693 0.000000 
-0.000000 -5.168693 0.000000 
0.000000 -5.168693 0.000000 
0.000000 -5.168693 0.000000 
0.000000 -5.168693 0.000000 
-0.000000 -5.168693 0.000000 
-0.000000 -5.168693 0.000000 
-0.000000 -5.168693 0.000000 
-0.000000 -5.168693 0.000000 
0.000000 -5.168693 0.000000 
0.000000 -5.168693 0.000000 
-0.000000 -5.168693 0.000000 
0.000000 -5.168693 0.000000 
-0.000000 -5.168693 0.000000 
0.000000 -5.168693 0.000000 
0.000000 -5.168693 0.000000 
0.000000 -5.168693 0.000000 
0.000000 -5.168693 0.000000 
TENSORS STRESS float 
-0.000000 -0.000000 0.000000 
0.000000 -0.000000 0.000000 
0.000000 0.000000 0.000000 

0.000000 0.000000 0.000000 
0.000000 0.000000 0.000000 
0.000000 0.000000 0.000000 

-0.000000 -0.000000 0.000000 
0.000000 -0.000000 0.000000 
0.000000 0.000000 0.000000 

0.000000 -0.000000 0.000000 
0.000000 -0.000000 0.000000 
0.000000 0.000000 0.000000 

-0.000000 0.000000 0.000000 
0.000000 -0.000000 0.000000 
0.000000 0.000000 0.000000 

-0.000000 0.000000 0.000000 
0.000000 0.000000 0.000000 
0.000000 0.000000 0.000000 

-0.000000 0.000000 0.000000 
0.000000 0.000000 0.000000 
0.000000 0.000000 0.000000 

0.000000 -0.000000 0.000000 
0.000000 -0.000000 0.000000 
0.000000 0.000000 0.000000 

0.000000 -0.000000 0.000000 
0.000000 -0.000000 0.000000 
0.000000 0.000000 0.000000 

0.000000 0.000000 0.000000 
0.000000 0.000000 0.000000 
0.000000 0.000000 0.000000 

-0.000000 -0.000000 0.000000 
0.000000 0.000000 0.000000 
0.000000 0.000000 0.000000 

0.000000 -0.000000 0.000000 
0.000000 0.000000 0.000000 
0.000000 0.000000 0.000000 

-0.000000 0.000000 0.000000 
0.000000 0.000000 0.000000 
0.000000 0.000000 0.000000 

0.000000 -0.000000 0.000000 
0.000000 -0.000000 0.000000 
0.000000 0.000000 0.000000 

-0.000000 -0.000000 0.000000 
0.000000 -0.000000 0.000000 
0.000000 0.000000 0.000000 

-0.000000 -0.000000 0.000000 
0.000000 -0.000000 0.000000 
0.000000 0.000000 0.000000 

0.000000 0.000000 0.000000 
0.000000 0.000000 0.000000 
0.000000 0.000000 0.000000 

0.000000 0.000000 0.000000 
0.000000 0.000000 0.000000 
0.000000 0.000000 0.000000 

0.000000 0.000000 0.000000 
0.000000 0.000000 0.000000 
0.000000 0.000000 0.000000 

-0.000000 0.000000 0.000000 
0.000000 -0.000000 0.000000 
0.000000 0.000000 0.000000 

0.000000 0.000000 0.000000 
0.000000 0.000000 0.000000 
0.000000 0.000000 0.000000 

-0.000000 0.000000 0.000000 
0.000000 -0.000000 0.000000 
0.000000 0.000000 0.000000 

0.000000 -0.000000 0.000000 
0.000000 0.000000 0.000000 
0.000000 0.000000 0.000000 

-0.000000 -0.000000 0.000000 
0.000000 -0.000000 0.000000 
0.000000 0.000000 0.000000 

-0.000000 -0.000000 0.000000 
0.000000 -0.000000 0.000000 
0.000000 0.000000 0.000000 

-0.000000 -0.000000 0.000000 
0.000000 -0.000000 0.000000 
0.000000 0.000000 0.000000 

0.000000 0.000000 0.000000 
0.000000 0.000000 0.000000 
0.000000 0.000000 0.000000 

0.000000 -0.000000 0.000000 
0.000000 0.000000 0.000000 
0.000000 0.000000 0.000000 

-0.000000 -0.000000 0.000000 
0.000000 -0.000000 0.000000 
0.000000 0.000000 0.000000 

-0.000000 -0.000000 0.000000 
0.000000 -0.000000 0.000000 
0.000000 0.000000 0.000000 

0.000000 0.000000 0.000000 
0.000000 0.000000 0.000000 
0.000000 0.000000 0.000000 

-0.000000 0.000000 0.000000 
0.000000 -0.000000 0.000000 
0.000000 0.000000 0.000000 

-0.000000 -0.000000 0.000000 
0.000000 -0.000000 0.000000 
0.000000 0.000000 0.000000 

-0.000000 -0.000000 0.000000 
0.000000 -0.000000 0.000000 
0.000000 0.000000 0.000000 

-0.000000 -0.000000 0.000000 
0.000000 -0.000000 0.000000 
0.000000 0.000000 0.000000 

-0.000000 0.000000 0.000000 
0.000000 0.000000 0.000000 
0.000000 0.000000 0.000000 

-0.000000 -0.000000 0.000000 
0.000000 -0.000000 0.000000 
0.000000 0.000000 0.000000 

-0.000000 0.000000 0.000000 
0.000000 -0.000000 0.000000 
0.000000 0.000000 0.000000 

-0.000000 0.000000 0.000000 
0.000000 -0.000000 0.000000 
0.000000 0.000000 0.000000 

0.000000 0.000000 0.000000 
0.000000 -0.000000 0.000000 
0.000000 0.000000 0.000000 

0.000000 -0.000000 0.000000 
0.000000 0.000000 0.000000 
0.000000 0.000000 0.000000 

-0.000000 0.000000 0.000000 
0.000000 -0.000000 0.000000 
0.000000 0.000000 0.000000 

0.000000 0.000000 0.000000 
0.000000 -0.000000 0.000000 
0.000000 0.000000 0.000000 

0.000000 0.000000 0.000000 
0.000000 -0.000000 0.000000 
0.000000 0.000000 0.000000 

0.000000 0.000000 0.000000 
0.000000 0.000000 0.000000 
0.000000 0.000000 0.000000 

-0.000000 0.000000 0.000000 
0.000000 -0.000000 0.000000 
0.000000 0.000000 0.000000 

0.000000 0.000000 0.000000 
0.000000 0.000000 0.000000 
0.000000 0.000000 0.000000 

0.000000 -0.000000 0.000000 
0.000000 -0.000000 0.000000 
0.000000 0.000000 0.000000 

0.000000 -0.000000 0.000000 
0.000000 0.000000 0.000000 
0.000000 0.000000 0.000000 

0.000000 0.000000 0.000000 
0.000000 -0.000000 0.000000 
0.000000 0.000000 0.000000 

0.000000 0.000000 0.000000 
0.000000 0.000000 0.000000 
0.000000 0.000000 0.000000 

-0.000000 0.000000 0.000000 
0.000000 -0.000000 0.000000 
0.000000 0.000000 0.000000 

0.000000 -0.000000 0.000000 
0.000000 0.000000 0.000000 
0.000000 0.000000 0.000000 

0.000000 0.000000 0.000000 
0.000000 0.000000 0.000000 
0.000000 0.000000 0.000000 

0.000000 -0.000000 0.000000 
0.000000 0.000000 0.000000 
0.000000 0.000000 0.000000 

0.000000 -0.000000 0.000000 
0.000000 0.000000 0.000000 
0.000000 0.000000 0.000000 

0.000000 -0.000000 0.000000 
0.000000 0.000000 0.000000 
0.000000 0.000000 0.000000 

-0.000000 0.000000 0.000000 
0.000000 -0.000000 0.000000 
0.000000 0.000000 0.000000 

-0.000000 -0.000000 0.000000 
0.000000 -0.000000 0.000000 
0.000000 0.000000 0.000000 

-0.000000 -0.000000 0.000000 
0.000000 -0.000000 0.000000 
0.000000 0.000000 0.000000 

0.000000 -0.000000 0.000000 
0.000000 0.000000 0.000000 
0.000000 0.000000 0.000000 

-0.000000 0.000000 0.000000 
0.000000 -0.000000 0.000000 
0.000000 0.000000 0.000000 

0.000000 0.000000 0.000000 
0.000000 0.000000 0.000000 
0.000000 0.000000 0.000000 

0.000000 0.000000 0.000000 
0.000000 0.000000 0.000000 
0.000000 0.000000 0.000000 

-0.000000 0.000000 0.000000 
0.000000 -0.000000 0.000000 
0.000000 0.000000 0.000000 

-0.000000 0.000000 0.000000 
0.000000 0.000000 0.000000 
0.000000 0.000000 0.000000 

0.000000 0.000000 0.000000 
0.000000 0.000000 0.000000 
0.000000 0.000000 0.000000 

0.000000 -0.000000 0.000000 
0.000000 0.000000 0.000000 
0.000000 0.000000 0.000000 

0.000000 -0.000000 0.000000 
0.000000 0.000000 0.000000 
0.000000 0.000000 0.000000 

0.000000 -0.000000 0.000000 
0.000000 0.000000 0.000000 
0.000000 0.000000 0.000000 

0.000000 0.000000 0.000000 
0.000000 -0.000000 0.000000 
0.000000 0.000000 0.000000 

-0.000000 -0.000000 0.000000 
0.000000 0.000000 0.000000 
0.000000 0.000000 0.000000 

-0.000000 -0.000000 0.000000 
0.000000 -0.000000 0.000000 
0.000000 0.000000 0.000000 

-0.000000 -0.000000 0.000000 
0.000000 -0.000000 0.000000 
0.000000 0.000000 0.000000 

-0.000000 -0.000000 0.000000 
0.000000 -0.000000 0.000000 
0.000000 0.000000 0.000000 

-0.000000 0.000000 0.000000 
0.000000 -0.000000 0.000000 
0.000000 0.000000 0.000000 

0.000000 -0.000000 0.000000 
0.000000 -0.000000 0.000000 
0.000000 0.000000 0.000000 

0.000000 -0.000000 0.000000 
0.000000 0.000000 0.000000 
0.000000 0.000000 0.000000 

0.000000 -0.000000 0.000000 
0.000000 0.000000 0.000000 
0.000000 0.000000 0.000000 

-0.000000 -0.000000 0.000000 
0.000000 -0.000000 0.000000 
0.000000 0.000000 0.000000 

0.000000 -0.000000 0.000000 
0.000000 0.000000 0.000000 
0.000000 0.000000 0.000000 

0.000000 -0.000000 0.000000 
0.000000 -0.000000 0.000000 
0.000000 0.000000 0.000000 

0.000000 -0.000000 0.000000 
0.000000 0.000000 0.000000 
0.000000 0.000000 0.000000 

0.000000 -0.000000 0.000000 
0.000000 0.000000 0.000000 
0.000000 0.000000 0.000000 

-0.000000 -0.000000 0.000000 
0.000000 -0.000000 0.000000 
0.000000 0.000000 0.000000 

-0.000000 -0.000000 0.000000 
0.000000 -0.000000 0.000000 
0.000000 0.000000 0.000000 

0.000000 -0.000000 0.000000 
0.000000 0.000000 0.000000 
0.000000 0.000000 0.000000 

-0.000000 -0.000000 0.000000 
0.000000 -0.000000 0.000000 
0.000000 0.000000 0.000000 

0.000000 0.000000 0.000000 
0.000000 0.000000 0.000000 
0.000000 0.000000 0.000000 

-0.000000 0.000000 0.000000 
0.000000 -0.000000 0.000000 
0.000000 0.000000 0.000000 

0.000000 -0.000000 0.000000 
0.000000 0.000000 0.000000 
0.000000 0.000000 0.000000 

-0.000000 -0.000000 0.000000 
0.000000 -0.000000 0.000000 
0.000000 0.000000 0.000000 

-0.000000 0.000000 0.000000 
0.000000 -0.000000 0.000000 
0.000000 0.000000 0.000000 

0.000000 -0.000000 0.000000 
0.000000 -0.000000 0.000000 
0.000000 0.000000 0.000000 

-0.000000 0.000000 0.000000 
0.000000 -0.000000 0.000000 
0.000000 0.000000 0.000000 

0.000000 0.000000 0.000000 
0.000000 -0.000000 0.000000 
0.000000 0.000000 0.000000 

-0.000000 0.000000 0.000000 
0.000000 -0.000000 0.000000 
0.000000 0.000000 0.000000 

-0.000000 -0.000000 0.000000 
0.000000 -0.000000 0.000000 
0.000000 0.000000 0.000000 

-0.000000 -0.000000 0.000000 
0.000000 0.000000 0.000000 
0.000000 0.000000 0.000000 

-0.000000 0.000000 0.000000 
0.000000 -0.000000 0.000000 
0.000000 0.000000 0.000000 

-0.000000 -0.000000 0.000000 
0.000000 0.000000 0.000000 
0.000000 0.000000 0.000000 

0.000000 -0.000000 0.000000 
0.000000 0.000000 0.000000 
0.000000 0.000000 0.000000 

0.000000 0.000000 0.000000 
0.000000 0.000000 0.000000 
0.000000 0.000000 0.000000 

0.000000 -0.000000 0.000000 
0.000000 0.000000 0.000000 
0.000000 0.000000 0.000000 

0.000000 0.000000 0.000000 
0.000000 -0.000000 0.000000 
0.000000 0.000000 0.000000 

-0.000000 -0.000000 0.000000 
0.000000 0.000000 0.000000 
0.000000 0.000000 0.000000 

-0.000000 -0.000000 0.000000 
0.000000 0.000000 0.000000 
0.000000 0.000000 0.000000 

-0.000000 -0.000000 0.000000 
0.000000 0.000000 0.000000 
0.000000 0.000000 0.000000 

0.000000 -0.000000 0.000000 
0.000000 0.000000 0.000000 
0.000000 0.000000 0.000000 

0.000000 -0.000000 0.000000 
0.000000 0.000000 0.000000 
0.000000 0.000000 0.000000 

0.000000 -0.000000 0.000000 
0.000000 0.000000 0.000000 
0.000000 0.000000 0.000000 

-0.000000 0.000000 0.000000 
0.000000 -0.000000 0.000000 
0.000000 0.000000 0.000000 

0.000000 -0.000000 0.000000 
0.000000 -0.000000 0.000000 
0.000000 0.000000 0.000000 

0.000000 -0.000000 0.000000 
0.000000 0.000000 0.000000 
0.000000 0.000000 0.000000 

0.000000 -0.000000 0.000000 
0.000000 0.000000 0.000000 
0.000000 0.000000 0.000000 

-0.000000 -0.000000 0.000000 
0.000000 0.000000 0.000000 
0.000000 0.000000 0.000000 

-0.000000 0.000000 0.000000 
0.000000 -0.000000 0.000000 
0.000000 0.000000 0.000000 

-0.000000 0.000000 0.000000 
0.000000 -0.000000 0.000000 
0.000000 0.000000 0.000000 

-0.000000 -0.000000 0.000000 
0.000000 0.000000 0.000000 
0.000000 0.000000 0.000000 

-0.000000 -0.000000 0.000000 
0.000000 -0.000000 0.000000 
0.000000 0.000000 0.000000 

0.000000 0.000000 0.000000 
0.000000 -0.000000 0.000000 
0.000000 0.000000 0.000000 

0.000000 0.000000 0.000000 
0.000000 0.000000 0.000000 
0.000000 0.000000 0.000000 

0.000000 0.000000 0.000000 
0.000000 -0.000000 0.000000 
0.000000 0.000000 0.000000 

0.000000 0.000000 0.000000 
0.000000 0.000000 0.000000 
0.000000 0.000000 0.000000 

-0.000000 -0.000000 0.000000 
0.000000 0.000000 0.000000 
0.000000 0.000000 0.000000 

-0.000000 -0.000000 0.000000 
0.000000 0.000000 0.000000 
0.000000 0.000000 0.000000 

0.000000 0.000000 0.000000 
0.000000 0.000000 0.000000 
0.000000 0.000000 0.000000 

0.000000 -0.000000 0.000000 
0.000000 0.000000 0.000000 
0.000000 0.000000 0.000000 

-0.000000 0.000000 0.000000 
0.000000 -0.000000 0.000000 
0.000000 0.000000 0.000000 

0.000000 0.000000 0.000000 
0.000000 0.000000 0.000000 
0.000000 0.000000 0.000000 

0.000000 0.000000 0.000000 
0.000000 0.000000 0.000000 
0.000000 0.000000 0.000000 

-0.000000 -0.000000 0.000000 
0.000000 -0.000000 0.000000 
0.000000 0.000000 0.000000 

-0.000000 0.000000 0.000000 
0.000000 0.000000 0.000000 
0.000000 0.000000 0.000000 

0.000000 0.000000 0.000000 
0.000000 0.000000 0.000000 
0.000000 0.000000 0.000000 

0.000000 0.000000 0.000000 
0.000000 0.000000 0.000000 
0.000000 0.000000 0.000000 

0.000000 -0.000000 0.000000 
0.000000 0.000000 0.000000 
0.000000 0.000000 0.000000 

0.000000 0.000000 0.000000 
0.000000 0.000000 0.000000 
0.000000 0.000000 0.000000 

0.000000 0.000000 0.000000 
0.000000 0.000000 0.000000 
0.000000 0.000000 0.000000 

0.000000 0.000000 0.000000 
0.000000 0.000000 0.000000 
0.000000 0.000000 0.000000 

0.000000 -0.000000 0.000000 
0.000000 0.000000 0.000000 
0.000000 0.000000 0.000000 

-0.000000 -0.000000 0.000000 
0.000000 -0.000000 0.000000 
0.000000 0.000000 0.000000 

-0.000000 0.000000 0.000000 
0.000000 -0.000000 0.000000 
0.000000 0.000000 0.000000 

0.000000 0.000000 0.000000 
0.000000 0.000000 0.000000 
0.000000 0.000000 0.000000 

-0.000000 0.000000 0.000000 
0.000000 -0.000000 0.000000 
0.000000 0.000000 0.000000 

-0.000000 -0.000000 0.000000 
0.000000 0.000000 0.000000 
0.000000 0.000000 0.000000 

-0.000000 0.000000 0.000000 
0.000000 0.000000 0.000000 
0.000000 0.000000 0.000000 

-0.000000 -0.000000 0.000000 
0.000000 -0.000000 0.000000 
0.000000 0.000000 0.000000 

-0.000000 -0.000000 0.000000 
0.000000 -0.000000 0.000000 
0.000000 0.000000 0.000000 

0.000000 -0.000000 0.000000 
0.000000 0.000000 0.000000 
0.000000 0.000000 0.000000 

0.000000 -0.000000 0.000000 
0.000000 0.000000 0.000000 
0.000000 0.000000 0.000000 

-0.000000 -0.000000 0.000000 
0.000000 -0.000000 0.000000 
0.000000 0.000000 0.000000 

0.000000 -0.000000 0.000000 
0.000000 -0.000000 0.000000 
0.000000 0.000000 0.000000 

-0.000000 0.000000 0.000000 
0.000000 -0.000000 0.000000 
0.000000 0.000000 0.000000 

-0.000000 -0.000000 0.000000 
0.000000 -0.000000 0.000000 
0.000000 0.000000 0.000000 

0.000000 -0.000000 0.000000 
0.000000 0.000000 0.000000 
0.000000 0.000000 0.000000 

0.000000 -0.000000 0.000000 
0.000000 0.000000 0.000000 
0.000000 0.000000 0.000000 

0.000000 0.000000 0.000000 
0.000000 -0.000000 0.000000 
0.000000 0.000000 0.000000 

0.000000 -0.000000 0.000000 
0.000000 0.000000 0.000000 
0.000000 0.000000 0.000000 

0.000000 -0.000000 0.000000 
0.000000 0.000000 0.000000 
0.000000 0.000000 0.000000 

-0.000000 -0.000000 0.000000 
0.000000 -0.000000 0.000000 
0.000000 0.000000 0.000000 

-0.000000 -0.000000 0.000000 
0.000000 -0.000000 0.000000 
0.000000 0.000000 0.000000 

-0.000000 -0.000000 0.000000 
0.000000 -0.000000 0.000000 
0.000000 0.000000 0.000000 

0.000000 -0.000000 0.000000 
0.000000 -0.000000 0.000000 
0.000000 0.000000 0.000000 

0.000000 -0.000000 0.000000 
0.000000 0.000000 0.000000 
0.000000 0.000000 0.000000 

0.000000 -0.000000 0.000000 
0.000000 0.000000 0.000000 
0.000000 0.000000 0.000000 

0.000000 0.000000 0.000000 
0.000000 -0.000000 0.000000 
0.000000 0.000000 0.000000 

-0.000000 -0.000000 0.000000 
0.000000 0.000000 0.000000 
0.000000 0.000000 0.000000 

-0.000000 -0.000000 0.000000 
0.000000 0.000000 0.000000 
0.000000 0.000000 0.000000 

-0.000000 0.000000 0.000000 
0.000000 -0.000000 0.000000 
0.000000 0.000000 0.000000 

0.000000 -0.000000 0.000000 
0.000000 -0.000000 0.000000 
0.000000 0.000000 0.000000 

0.000000 -0.000000 0.000000 
0.000000 0.000000 0.000000 
0.000000 0.000000 0.000000 

-0.000000 -0.000000 0.000000 
0.000000 -0.000000 0.000000 
0.000000 0.000000 0.000000 

0.000000 0.000000 0.000000 
0.000000 0.000000 0.000000 
0.000000 0.000000 0.000000 

0.000000 -0.000000 0.000000 
0.000000 0.000000 0.000000 
0.000000 0.000000 0.000000 

-0.000000 -0.000000 0.000000 
0.000000 -0.000000 0.000000 
0.000000 0.000000 0.000000 

TENSORS STRAIN float 
-0.000000 -0.000000 0.000000 
0.000000 -0.000000 0.000000 
0.000000 0.000000 0.000000 

-0.000000 0.000000 0.000000 
0.000000 0.000000 0.000000 
0.000000 0.000000 0.000000 

0.000000 -0.000000 0.000000 
0.000000 -0.000000 0.000000 
0.000000 0.000000 0.000000 

0.000000 -0.000000 0.000000 
0.000000 -0.000000 0.000000 
0.000000 0.000000 0.000000 

-0.000000 0.000000 0.000000 
0.000000 -0.000000 0.000000 
0.000000 0.000000 0.000000 

-0.000000 0.000000 0.000000 
0.000000 0.000000 0.000000 
0.000000 0.000000 0.000000 

-0.000000 0.000000 0.000000 
0.000000 0.000000 0.000000 
0.000000 0.000000 0.000000 

0.000000 -0.000000 0.000000 
0.000000 -0.000000 0.000000 
0.000000 0.000000 0.000000 

0.000000 -0.000000 0.000000 
0.000000 -0.000000 0.000000 
0.000000 0.000000 0.000000 

0.000000 0.000000 0.000000 
0.000000 0.000000 0.000000 
0.000000 0.000000 0.000000 

-0.000000 -0.000000 0.000000 
0.000000 0.000000 0.000000 
0.000000 0.000000 0.000000 

-0.000000 -0.000000 0.000000 
0.000000 0.000000 0.000000 
0.000000 0.000000 0.000000 

-0.000000 0.000000 0.000000 
0.000000 0.000000 0.000000 
0.000000 0.000000 0.000000 

0.000000 -0.000000 0.000000 
0.000000 -0.000000 0.000000 
0.000000 0.000000 0.000000 

-0.000000 -0.000000 0.000000 
0.000000 -0.000000 0.000000 
0.000000 0.000000 0.000000 

-0.000000 -0.000000 0.000000 
0.000000 -0.000000 0.000000 
0.000000 0.000000 0.000000 

0.000000 0.000000 0.000000 
0.000000 0.000000 0.000000 
0.000000 0.000000 0.000000 

0.000000 0.000000 0.000000 
0.000000 0.000000 0.000000 
0.000000 0.000000 0.000000 

0.000000 0.000000 0.000000 
0.000000 0.000000 0.000000 
0.000000 0.000000 0.000000 

0.000000 0.000000 0.000000 
0.000000 -0.000000 0.000000 
0.000000 0.000000 0.000000 

0.000000 0.000000 0.000000 
0.000000 0.000000 0.000000 
0.000000 0.000000 0.000000 

-0.000000 0.000000 0.000000 
0.000000 -0.000000 0.000000 
0.000000 0.000000 0.000000 

0.000000 -0.000000 0.000000 
0.000000 0.000000 0.000000 
0.000000 0.000000 0.000000 

-0.000000 -0.000000 0.000000 
0.000000 0.000000 0.000000 
0.000000 0.000000 0.000000 

-0.000000 -0.000000 0.000000 
0.000000 -0.000000 0.000000 
0.000000 0.000000 0.000000 

-0.000000 -0.000000 0.000000 
0.000000 0.000000 0.000000 
0.000000 0.000000 0.000000 

0.000000 0.000000 0.000000 
0.000000 0.000000 0.000000 
0.000000 0.000000 0.000000 

0.000000 -0.000000 0.000000 
0.000000 0.000000 0.000000 
0.000000 0.000000 0.000000 

0.000000 -0.000000 0.000000 
0.000000 -0.000000 0.000000 
0.000000 0.000000 0.000000 

-0.000000 -0.000000 0.000000 
0.000000 -0.000000 0.000000 
0.000000 0.000000 0.000000 

0.000000 0.000000 0.000000 
0.000000 0.000000 0.000000 
0.000000 0.000000 0.000000 

0.000000 0.000000 0.000000 
0.000000 -0.000000 0.000000 
0.000000 0.000000 0.000000 

0.000000 -0.000000 0.000000 
0.000000 -0.000000 0.000000 
0.000000 0.000000 0.000000 

-0.000000 -0.000000 0.000000 
0.000000 -0.000000 0.000000 
0.000000 0.000000 0.000000 

-0.000000 -0.000000 0.000000 
0.000000 -0.000000 0.000000 
0.000000 0.000000 0.000000 

-0.000000 0.000000 0.000000 
0.000000 0.000000 0.000000 
0.000000 0.000000 0.000000 

0.000000 -0.000000 0.000000 
0.000000 -0.000000 0.000000 
0.000000 0.000000 0.000000 

0.000000 0.000000 0.000000 
0.000000 -0.000000 0.000000 
0.000000 0.000000 0.000000 

0.000000 0.000000 0.000000 
0.000000 -0.000000 0.000000 
0.000000 0.000000 0.000000 

0.000000 0.000000 0.000000 
0.000000 -0.000000 0.000000 
0.000000 0.000000 0.000000 

0.000000 -0.000000 0.000000 
0.000000 0.000000 0.000000 
0.000000 0.000000 0.000000 

0.000000 0.000000 0.000000 
0.000000 -0.000000 0.000000 
0.000000 0.000000 0.000000 

0.000000 0.000000 0.000000 
0.000000 -0.000000 0.000000 
0.000000 0.000000 0.000000 

0.000000 0.000000 0.000000 
0.000000 -0.000000 0.000000 
0.000000 0.000000 0.000000 

0.000000 0.000000 0.000000 
0.000000 -0.000000 0.000000 
0.000000 0.000000 0.000000 

0.000000 0.000000 0.000000 
0.000000 -0.000000 0.000000 
0.000000 0.000000 0.000000 

0.000000 0.000000 0.000000 
0.000000 -0.000000 0.000000 
0.000000 0.000000 0.000000 

0.000000 -0.000000 0.000000 
0.000000 -0.000000 0.000000 
0.000000 0.000000 0.000000 

0.000000 -0.000000 0.000000 
0.000000 0.000000 0.000000 
0.000000 0.000000 0.000000 

0.000000 0.000000 0.000000 
0.000000 -0.000000 0.000000 
0.000000 0.000000 0.000000 

-0.000000 0.000000 0.000000 
0.000000 0.000000 0.000000 
0.000000 0.000000 0.000000 

-0.000000 0.000000 0.000000 
0.000000 -0.000000 0.000000 
0.000000 0.000000 0.000000 

0.000000 -0.000000 0.000000 
0.000000 0.000000 0.000000 
0.000000 0.000000 0.000000 

0.000000 0.000000 0.000000 
0.000000 0.000000 0.000000 
0.000000 0.000000 0.000000 

0.000000 -0.000000 0.000000 
0.000000 0.000000 0.000000 
0.000000 0.000000 0.000000 

-0.000000 -0.000000 0.000000 
0.000000 0.000000 0.000000 
0.000000 0.000000 0.000000 

-0.000000 -0.000000 0.000000 
0.000000 0.000000 0.000000 
0.000000 0.000000 0.000000 

0.000000 0.000000 0.000000 
0.000000 -0.000000 0.000000 
0.000000 0.000000 0.000000 

-0.000000 -0.000000 0.000000 
0.000000 -0.000000 0.000000 
0.000000 0.000000 0.000000 

-0.000000 -0.000000 0.000000 
0.000000 -0.000000 0.000000 
0.000000 0.000000 0.000000 

0.000000 -0.000000 0.000000 
0.000000 0.000000 0.000000 
0.000000 0.000000 0.000000 

-0.000000 0.000000 0.000000 
0.000000 -0.000000 0.000000 
0.000000 0.000000 0.000000 

-0.000000 0.000000 0.000000 
0.000000 0.000000 0.000000 
0.000000 0.000000 0.000000 

-0.000000 0.000000 0.000000 
0.000000 0.000000 0.000000 
0.000000 0.000000 0.000000 

-0.000000 0.000000 0.000000 
0.000000 0.000000 0.000000 
0.000000 0.000000 0.000000 

-0.000000 0.000000 0.000000 
0.000000 0.000000 0.000000 
0.000000 0.000000 0.000000 

-0.000000 0.000000 0.000000 
0.000000 0.000000 0.000000 
0.000000 0.000000 0.000000 

0.000000 -0.000000 0.000000 
0.000000 -0.000000 0.000000 
0.000000 0.000000 0.000000 

0.000000 -0.000000 0.000000 
0.000000 -0.000000 0.000000 
0.000000 0.000000 0.000000 

0.000000 -0.000000 0.000000 
0.000000 0.000000 0.000000 
0.000000 0.000000 0.000000 

0.000000 0.000000 0.000000 
0.000000 -0.000000 0.000000 
0.000000 0.000000 0.000000 

-0.000000 -0.000000 0.000000 
0.000000 0.000000 0.000000 
0.000000 0.000000 0.000000 

-0.000000 -0.000000 0.000000 
0.000000 0.000000 0.000000 
0.000000 0.000000 0.000000 

-0.000000 -0.000000 0.000000 
0.000000 0.000000 0.000000 
0.000000 0.000000 0.000000 

-0.000000 -0.000000 0.000000 
0.000000 -0.000000 0.000000 
0.000000 0.000000 0.000000 

-0.000000 0.000000 0.000000 
0.000000 -0.000000 0.000000 
0.000000 0.000000 0.000000 

0.000000 -0.000000 0.000000 
0.000000 -0.000000 0.000000 
0.000000 0.000000 0.000000 

0.000000 -0.000000 0.000000 
0.000000 0.000000 0.000000 
0.000000 0.000000 0.000000 

0.000000 -0.000000 0.000000 
0.000000 0.000000 0.000000 
0.000000 0.000000 0.000000 

-0.000000 -0.000000 0.000000 
0.000000 0.000000 0.000000 
0.000000 0.000000 0.000000 

-0.000000 -0.000000 0.000000 
0.000000 0.000000 0.000000 
0.000000 0.000000 0.000000 

0.000000 -0.000000 0.000000 
0.000000 -0.000000 0.000000 
0.000000 0.000000 0.000000 

-0.000000 -0.000000 0.000000 
0.000000 0.000000 0.000000 
0.000000 0.000000 0.000000 

-0.000000 -0.000000 0.000000 
0.000000 0.000000 0.000000 
0.000000 0.000000 0.000000 

-0.000000 -0.000000 0.000000 
0.000000 0.000000 0.000000 
0.000000 0.000000 0.000000 

-0.000000 -0.000000 0.000000 
0.000000 -0.000000 0.000000 
0.000000 0.000000 0.000000 

0.000000 -0.000000 0.000000 
0.000000 -0.000000 0.000000 
0.000000 0.000000 0.000000 

0.000000 -0.000000 0.000000 
0.000000 -0.000000 0.000000 
0.000000 0.000000 0.000000 

0.000000 0.000000 0.000000 
0.000000 0.000000 0.000000 
0.000000 0.000000 0.000000 

-0.000000 0.000000 0.000000 
0.000000 -0.000000 0.000000 
0.000000 0.000000 0.000000 

-0.000000 -0.000000 0.000000 
0.000000 0.000000 0.000000 
0.000000 0.000000 0.000000 

-0.000000 -0.000000 0.000000 
0.000000 0.000000 0.000000 
0.000000 0.000000 0.000000 

-0.000000 0.000000 0.000000 
0.000000 -0.000000 0.000000 
0.000000 0.000000 0.000000 

0.000000 -0.000000 0.000000 
0.000000 -0.000000 0.000000 
0.000000 0.000000 0.000000 

0.000000 0.000000 0.000000 
0.000000 -0.000000 0.000000 
0.000000 0.000000 0.000000 

0.000000 0.000000 0.000000 
0.000000 -0.000000 0.000000 
0.000000 0.000000 0.000000 

0.000000 0.000000 0.000000 
0.000000 -0.000000 0.000000 
0.000000 0.000000 0.000000 

-0.000000 -0.000000 0.000000 
0.000000 -0.000000 0.000000 
0.000000 0.000000 0.000000 

-0.000000 -0.000000 0.000000 
0.000000 0.000000 0.000000 
0.000000 0.000000 0.000000 

-0.000000 0.000000 0.000000 
0.000000 0.000000 0.000000 
0.000000 0.000000 0.000000 

-0.000000 -0.000000 0.000000 
0.000000 0.000000 0.000000 
0.000000 0.000000 0.000000 

-0.000000 -0.000000 0.000000 
0.000000 0.000000 0.000000 
0.000000 0.000000 0.000000 

-0.000000 0.000000 0.000000 
0.000000 0.000000 0.000000 
0.000000 0.000000 0.000000 

-0.000000 -0.000000 0.000000 
0.000000 0.000000 0.000000 
0.000000 0.000000 0.000000 

0.000000 0.000000 0.000000 
0.000000 -0.000000 0.000000 
0.000000 0.000000 0.000000 

-0.000000 -0.000000 0.000000 
0.000000 0.000000 0.000000 
0.000000 0.000000 0.000000 

-0.000000 -0.000000 0.000000 
0.000000 0.000000 0.000000 
0.000000 0.000000 0.000000 

-0.000000 -0.000000 0.000000 
0.000000 0.000000 0.000000 
0.000000 0.000000 0.000000 

-0.000000 -0.000000 0.000000 
0.000000 0.000000 0.000000 
0.000000 0.000000 0.000000 

0.000000 -0.000000 0.000000 
0.000000 0.000000 0.000000 
0.000000 0.000000 0.000000 

0.000000 -0.000000 0.000000 
0.000000 0.000000 0.000000 
0.000000 0.000000 0.000000 

0.000000 0.000000 0.000000 
0.000000 -0.000000 0.000000 
0.000000 0.000000 0.000000 

0.000000 -0.000000 0.000000 
0.000000 -0.000000 0.000000 
0.000000 0.000000 0.000000 

0.000000 -0.000000 0.000000 
0.000000 0.000000 0.000000 
0.000000 0.000000 0.000000 

-0.000000 -0.000000 0.000000 
0.000000 0.000000 0.000000 
0.000000 0.000000 0.000000 

-0.000000 -0.000000 0.000000 
0.000000 0.000000 0.000000 
0.000000 0.000000 0.000000 

-0.000000 0.000000 0.000000 
0.000000 -0.000000 0.000000 
0.000000 0.000000 0.000000 

-0.000000 0.000000 0.000000 
0.000000 -0.000000 0.000000 
0.000000 0.000000 0.000000 

-0.000000 -0.000000 0.000000 
0.000000 0.000000 0.000000 
0.000000 0.000000 0.000000 

0.000000 -0.000000 0.000000 
0.000000 -0.000000 0.000000 
0.000000 0.000000 0.000000 

0.000000 0.000000 0.000000 
0.000000 -0.000000 0.000000 
0.000000 0.000000 0.000000 

0.000000 0.000000 0.000000 
0.000000 0.000000 0.000000 
0.000000 0.000000 0.000000 

0.000000 0.000000 0.000000 
0.000000 -0.000000 0.000000 
0.000000 0.000000 0.000000 

0.000000 0.000000 0.000000 
0.000000 0.000000 0.000000 
0.000000 0.000000 0.000000 

-0.000000 -0.000000 0.000000 
0.000000 0.000000 0.000000 
0.000000 0.000000 0.000000 

-0.000000 -0.000000 0.000000 
0.000000 0.000000 0.000000 
0.000000 0.000000 0.000000 

-0.000000 0.000000 0.000000 
0.000000 0.000000 0.000000 
0.000000 0.000000 0.000000 

0.000000 -0.000000 0.000000 
0.000000 0.000000 0.000000 
0.000000 0.000000 0.000000 

-0.000000 0.000000 0.000000 
0.000000 -0.000000 0.000000 
0.000000 0.000000 0.000000 

0.000000 0.000000 0.000000 
0.000000 0.000000 0.000000 
0.000000 0.000000 0.000000 

-0.000000 0.000000 0.000000 
0.000000 0.000000 0.000000 
0.000000 0.000000 0.000000 

0.000000 -0.000000 0.000000 
0.000000 -0.000000 0.000000 
0.000000 0.000000 0.000000 

-0.000000 0.000000 0.000000 
0.000000 0.000000 0.000000 
0.000000 0.000000 0.000000 

0.000000 0.000000 0.000000 
0.000000 0.000000 0.000000 
0.000000 0.000000 0.000000 

-0.000000 0.000000 0.000000 
0.000000 0.000000 0.000000 
0.000000 0.000000 0.000000 

0.000000 -0.000000 0.000000 
0.000000 0.000000 0.000000 
0.000000 0.000000 0.000000 

0.000000 0.000000 0.000000 
0.000000 0.000000 0.000000 
0.000000 0.000000 0.000000 

0.000000 0.000000 0.000000 
0.000000 0.000000 0.000000 
0.000000 0.000000 0.000000 

0.000000 0.000000 0.000000 
0.000000 0.000000 0.000000 
0.000000 0.000000 0.000000 

0.000000 -0.000000 0.000000 
0.000000 0.000000 0.000000 
0.000000 0.000000 0.000000 

0.000000 -0.000000 0.000000 
0.000000 -0.000000 0.000000 
0.000000 0.000000 0.000000 

0.000000 0.000000 0.000000 
0.000000 -0.000000 0.000000 
0.000000 0.000000 0.000000 

-0.000000 0.000000 0.000000 
0.000000 0.000000 0.000000 
0.000000 0.000000 0.000000 

-0.000000 0.000000 0.000000 
0.000000 -0.000000 0.000000 
0.000000 0.000000 0.000000 

-0.000000 -0.000000 0.000000 
0.000000 0.000000 0.000000 
0.000000 0.000000 0.000000 

-0.000000 0.000000 0.000000 
0.000000 0.000000 0.000000 
0.000000 0.000000 0.000000 

-0.000000 -0.000000 0.000000 
0.000000 0.000000 0.000000 
0.000000 0.000000 0.000000 

-0.000000 -0.000000 0.000000 
0.000000 -0.000000 0.000000 
0.000000 0.000000 0.000000 

0.000000 -0.000000 0.000000 
0.000000 -0.000000 0.000000 
0.000000 0.000000 0.000000 

0.000000 -0.000000 0.000000 
0.000000 0.000000 0.000000 
0.000000 0.000000 0.000000 

-0.000000 -0.000000 0.000000 
0.000000 -0.000000 0.000000 
0.000000 0.000000 0.000000 

0.000000 -0.000000 0.000000 
0.000000 -0.000000 0.000000 
0.000000 0.000000 0.000000 

0.000000 0.000000 0.000000 
0.000000 -0.000000 0.000000 
0.000000 0.000000 0.000000 

0.000000 -0.000000 0.000000 
0.000000 -0.000000 0.000000 
0.000000 0.000000 0.000000 

0.000000 -0.000000 0.000000 
0.000000 0.000000 0.000000 
0.000000 0.000000 0.000000 

0.000000 -0.000000 0.000000 
0.000000 0.000000 0.000000 
0.000000 0.000000 0.000000 

0.000000 0.000000 0.000000 
0.000000 -0.000000 0.000000 
0.000000 0.000000 0.000000 

-0.000000 -0.000000 0.000000 
0.000000 0.000000 0.000000 
0.000000 0.000000 0.000000 

-0.000000 -0.000000 0.000000 
0.000000 0.000000 0.000000 
0.000000 0.000000 0.000000 

-0.000000 -0.000000 0.000000 
0.000000 -0.000000 0.000000 
0.000000 0.000000 0.000000 

-0.000000 -0.000000 0.000000 
0.000000 -0.000000 0.000000 
0.000000 0.000000 0.000000 

0.000000 -0.000000 0.000000 
0.000000 -0.000000 0.000000 
0.000000 0.000000 0.000000 

0.000000 -0.000000 0.000000 
0.000000 -0.000000 0.000000 
0.000000 0.000000 0.000000 

0.000000 -0.000000 0.000000 
0.000000 0.000000 0.000000 
0.000000 0.000000 0.000000 

0.000000 -0.000000 0.000000 
0.000000 0.000000 0.000000 
0.000000 0.000000 0.000000 

0.000000 0.000000 0.000000 
0.000000 -0.000000 0.000000 
0.000000 0.000000 0.000000 

-0.000000 -0.000000 0.000000 
0.000000 0.000000 0.000000 
0.000000 0.000000 0.000000 

-0.000000 -0.000000 0.000000 
0.000000 0.000000 0.000000 
0.000000 0.000000 0.000000 

0.000000 0.000000 0.000000 
0.000000 -0.000000 0.000000 
0.000000 0.000000 0.000000 

0.000000 -0.000000 0.000000 
0.000000 -0.000000 0.000000 
0.000000 0.000000 0.000000 

0.000000 -0.000000 0.000000 
0.000000 0.000000 0.000000 
0.000000 0.000000 0.000000 

0.000000 -0.000000 0.000000 
0.000000 -0.000000 0.000000 
0.000000 0.000000 0.000000 

0.000000 0.000000 0.000000 
0.000000 0.000000 0.000000 
0.000000 0.000000 0.000000 

-0.000000 -0.000000 0.000000 
0.000000 0.000000 0.000000 
0.000000 0.000000 0.000000 

-0.000000 -0.000000 0.000000 
0.000000 0.000000 0.000000 
0.000000 0.000000 0.000000 

