# vtk DataFile Version 3.0 
vtk output 
ASCII 
DATASET UNSTRUCTURED_GRID 
POINTS 175 float 
-0.026061 -1.043274 0.000000 
-0.106992 -0.975219 0.000000 
-0.054870 -0.983452 0.000000 
-0.028809 -0.937568 0.000000 
-0.186430 -0.911143 0.000000 
-0.137056 -0.913670 0.000000 
-0.114311 -0.860022 0.000000 
-0.058186 -0.875688 0.000000 
-0.029377 -0.835511 0.000000 
-0.265318 -0.847988 0.000000 
-0.217198 -0.848787 0.000000 
-0.196633 -0.791491 0.000000 
-0.143120 -0.800200 0.000000 
-0.116563 -0.752931 0.000000 
-0.058945 -0.772577 0.000000 
-0.029568 -0.734457 0.000000 
-0.344206 -0.784832 0.000000 
-0.296791 -0.784825 0.000000 
-0.278030 -0.724882 0.000000 
-0.225992 -0.730748 0.000000 
-0.201664 -0.678631 0.000000 
-0.145749 -0.692105 0.000000 
-0.117890 -0.647763 0.000000 
-0.059328 -0.670468 0.000000 
-0.029759 -0.633402 0.000000 
-0.058559 -1.084025 0.000000 
-0.162226 -1.104868 0.000000 
-0.123292 -1.069250 0.000000 
-0.142917 -1.020267 0.000000 
-0.261851 -1.127024 0.000000 
-0.229092 -1.089997 0.000000 
-0.256854 -1.038766 0.000000 
-0.209613 -1.004653 0.000000 
-0.223062 -0.957079 0.000000 
-0.360414 -1.149324 0.000000 
-0.329787 -1.112201 0.000000 
-0.361761 -1.060399 0.000000 
-0.321587 -1.023991 0.000000 
-0.341985 -0.973757 0.000000 
-0.290702 -0.940958 0.000000 
-0.302189 -0.894222 0.000000 
-0.458977 -1.171624 0.000000 
-0.429420 -1.134550 0.000000 
-0.464588 -1.082508 0.000000 
-0.427556 -1.045481 0.000000 
-0.453135 -0.993966 0.000000 
-0.407738 -0.958650 0.000000 
-0.425037 -0.909222 0.000000 
-0.370772 -0.877593 0.000000 
-0.381315 -0.831366 0.000000 
-0.046960 -1.134840 0.000000 
-0.095301 -1.228886 0.000000 
-0.098873 -1.176239 0.000000 
-0.149405 -1.161041 0.000000 
-0.140093 -1.320590 0.000000 
-0.148617 -1.271892 0.000000 
-0.205981 -1.261655 0.000000 
-0.203197 -1.203451 0.000000 
-0.248777 -1.184305 0.000000 
-0.184111 -1.411554 0.000000 
-0.194039 -1.364463 0.000000 
-0.254475 -1.357163 0.000000 
-0.257893 -1.303053 0.000000 
-0.309886 -1.287681 0.000000 
-0.303554 -1.227136 0.000000 
-0.347255 -1.206978 0.000000 
-0.228129 -1.502518 0.000000 
-0.238687 -1.456293 0.000000 
-0.301302 -1.451341 0.000000 
-0.307162 -1.399302 0.000000 
-0.363386 -1.387181 0.000000 
-0.362692 -1.329670 0.000000 
-0.412122 -1.312377 0.000000 
-0.403017 -1.250230 0.000000 
-0.445733 -1.229651 0.000000 
-0.000000 -1.157455 0.000000 
0.043388 -1.253886 0.000000 
-0.000000 -1.223854 0.000000 
-0.043388 -1.253886 0.000000 
0.087158 -1.346083 0.000000 
0.043769 -1.322384 0.000000 
-0.000000 -1.360850 0.000000 
-0.043769 -1.322384 0.000000 
-0.087158 -1.346083 0.000000 
0.130831 -1.437212 0.000000 
0.087824 -1.415613 0.000000 
0.044436 -1.458313 0.000000 
-0.000000 -1.427248 0.000000 
-0.044436 -1.458313 0.000000 
-0.087824 -1.415613 0.000000 
-0.130831 -1.437212 0.000000 
0.174505 -1.528342 0.000000 
0.131782 -1.507776 0.000000 
0.088871 -1.553642 0.000000 
0.044532 -1.525778 0.000000 
-0.000000 -1.562179 0.000000 
-0.044532 -1.525778 0.000000 
-0.088871 -1.553642 0.000000 
-0.131782 -1.507776 0.000000 
-0.174505 -1.528342 0.000000 
0.046960 -1.134840 0.000000 
0.149405 -1.161041 0.000000 
0.098873 -1.176239 0.000000 
0.095301 -1.228886 0.000000 
0.248777 -1.184305 0.000000 
0.203197 -1.203451 0.000000 
0.205981 -1.261655 0.000000 
0.148617 -1.271892 0.000000 
0.140093 -1.320590 0.000000 
0.347255 -1.206978 0.000000 
0.303554 -1.227136 0.000000 
0.309886 -1.287681 0.000000 
0.257893 -1.303053 0.000000 
0.254475 -1.357163 0.000000 
0.194039 -1.364463 0.000000 
0.184111 -1.411554 0.000000 
0.445733 -1.229651 0.000000 
0.403017 -1.250230 0.000000 
0.412122 -1.312377 0.000000 
0.362692 -1.329670 0.000000 
0.363386 -1.387181 0.000000 
0.307162 -1.399302 0.000000 
0.301302 -1.451341 0.000000 
0.238687 -1.456293 0.000000 
0.228129 -1.502518 0.000000 
0.058559 -1.084025 0.000000 
0.142917 -1.020267 0.000000 
0.123292 -1.069250 0.000000 
0.162226 -1.104868 0.000000 
0.223062 -0.957079 0.000000 
0.209613 -1.004653 0.000000 
0.256854 -1.038766 0.000000 
0.229092 -1.089997 0.000000 
0.261851 -1.127024 0.000000 
0.302189 -0.894222 0.000000 
0.290702 -0.940958 0.000000 
0.341985 -0.973757 0.000000 
0.321587 -1.023991 0.000000 
0.361761 -1.060399 0.000000 
0.329787 -1.112201 0.000000 
0.360414 -1.149324 0.000000 
0.381315 -0.831366 0.000000 
0.370772 -0.877593 0.000000 
0.425037 -0.909222 0.000000 
0.407738 -0.958650 0.000000 
0.453135 -0.993966 0.000000 
0.427556 -1.045481 0.000000 
0.464588 -1.082508 0.000000 
0.429420 -1.134550 0.000000 
0.458977 -1.171624 0.000000 
0.026061 -1.043274 0.000000 
0.028809 -0.937568 0.000000 
0.054870 -0.983452 0.000000 
0.106992 -0.975219 0.000000 
0.029377 -0.835511 0.000000 
0.058186 -0.875688 0.000000 
0.114311 -0.860022 0.000000 
0.137056 -0.913670 0.000000 
0.186430 -0.911143 0.000000 
0.029568 -0.734457 0.000000 
0.058945 -0.772577 0.000000 
0.116563 -0.752931 0.000000 
0.143120 -0.800200 0.000000 
0.196633 -0.791491 0.000000 
0.217198 -0.848787 0.000000 
0.265318 -0.847988 0.000000 
0.029759 -0.633402 0.000000 
0.059328 -0.670468 0.000000 
0.117890 -0.647763 0.000000 
0.145749 -0.692105 0.000000 
0.201664 -0.678631 0.000000 
0.225992 -0.730748 0.000000 
0.278030 -0.724882 0.000000 
0.296791 -0.784825 0.000000 
0.344206 -0.784832 0.000000 
CELLS 175 350 
1 0 
1 1 
1 2 
1 3 
1 4 
1 5 
1 6 
1 7 
1 8 
1 9 
1 10 
1 11 
1 12 
1 13 
1 14 
1 15 
1 16 
1 17 
1 18 
1 19 
1 20 
1 21 
1 22 
1 23 
1 24 
1 25 
1 26 
1 27 
1 28 
1 29 
1 30 
1 31 
1 32 
1 33 
1 34 
1 35 
1 36 
1 37 
1 38 
1 39 
1 40 
1 41 
1 42 
1 43 
1 44 
1 45 
1 46 
1 47 
1 48 
1 49 
1 50 
1 51 
1 52 
1 53 
1 54 
1 55 
1 56 
1 57 
1 58 
1 59 
1 60 
1 61 
1 62 
1 63 
1 64 
1 65 
1 66 
1 67 
1 68 
1 69 
1 70 
1 71 
1 72 
1 73 
1 74 
1 75 
1 76 
1 77 
1 78 
1 79 
1 80 
1 81 
1 82 
1 83 
1 84 
1 85 
1 86 
1 87 
1 88 
1 89 
1 90 
1 91 
1 92 
1 93 
1 94 
1 95 
1 96 
1 97 
1 98 
1 99 
1 100 
1 101 
1 102 
1 103 
1 104 
1 105 
1 106 
1 107 
1 108 
1 109 
1 110 
1 111 
1 112 
1 113 
1 114 
1 115 
1 116 
1 117 
1 118 
1 119 
1 120 
1 121 
1 122 
1 123 
1 124 
1 125 
1 126 
1 127 
1 128 
1 129 
1 130 
1 131 
1 132 
1 133 
1 134 
1 135 
1 136 
1 137 
1 138 
1 139 
1 140 
1 141 
1 142 
1 143 
1 144 
1 145 
1 146 
1 147 
1 148 
1 149 
1 150 
1 151 
1 152 
1 153 
1 154 
1 155 
1 156 
1 157 
1 158 
1 159 
1 160 
1 161 
1 162 
1 163 
1 164 
1 165 
1 166 
1 167 
1 168 
1 169 
1 170 
1 171 
1 172 
1 173 
1 174 
CELL_TYPES 175 
1 
1 
1 
1 
1 
1 
1 
1 
1 
1 
1 
1 
1 
1 
1 
1 
1 
1 
1 
1 
1 
1 
1 
1 
1 
1 
1 
1 
1 
1 
1 
1 
1 
1 
1 
1 
1 
1 
1 
1 
1 
1 
1 
1 
1 
1 
1 
1 
1 
1 
1 
1 
1 
1 
1 
1 
1 
1 
1 
1 
1 
1 
1 
1 
1 
1 
1 
1 
1 
1 
1 
1 
1 
1 
1 
1 
1 
1 
1 
1 
1 
1 
1 
1 
1 
1 
1 
1 
1 
1 
1 
1 
1 
1 
1 
1 
1 
1 
1 
1 
1 
1 
1 
1 
1 
1 
1 
1 
1 
1 
1 
1 
1 
1 
1 
1 
1 
1 
1 
1 
1 
1 
1 
1 
1 
1 
1 
1 
1 
1 
1 
1 
1 
1 
1 
1 
1 
1 
1 
1 
1 
1 
1 
1 
1 
1 
1 
1 
1 
1 
1 
1 
1 
1 
1 
1 
1 
1 
1 
1 
1 
1 
1 
1 
1 
1 
1 
1 
1 
1 
1 
1 
1 
1 
1 
POINT_DATA 175 
VECTORS X_GC float 
-0.026061 -1.043274 0.000000 
-0.106992 -0.975219 0.000000 
-0.054870 -0.983452 0.000000 
-0.028809 -0.937568 0.000000 
-0.186430 -0.911143 0.000000 
-0.137056 -0.913670 0.000000 
-0.114311 -0.860022 0.000000 
-0.058186 -0.875688 0.000000 
-0.029377 -0.835511 0.000000 
-0.265318 -0.847988 0.000000 
-0.217198 -0.848787 0.000000 
-0.196633 -0.791491 0.000000 
-0.143120 -0.800200 0.000000 
-0.116563 -0.752931 0.000000 
-0.058945 -0.772577 0.000000 
-0.029568 -0.734457 0.000000 
-0.344206 -0.784832 0.000000 
-0.296791 -0.784825 0.000000 
-0.278030 -0.724882 0.000000 
-0.225992 -0.730748 0.000000 
-0.201664 -0.678631 0.000000 
-0.145749 -0.692105 0.000000 
-0.117890 -0.647763 0.000000 
-0.059328 -0.670468 0.000000 
-0.029759 -0.633402 0.000000 
-0.058559 -1.084025 0.000000 
-0.162226 -1.104868 0.000000 
-0.123292 -1.069250 0.000000 
-0.142917 -1.020267 0.000000 
-0.261851 -1.127024 0.000000 
-0.229092 -1.089997 0.000000 
-0.256854 -1.038766 0.000000 
-0.209613 -1.004653 0.000000 
-0.223062 -0.957079 0.000000 
-0.360414 -1.149324 0.000000 
-0.329787 -1.112201 0.000000 
-0.361761 -1.060399 0.000000 
-0.321587 -1.023991 0.000000 
-0.341985 -0.973757 0.000000 
-0.290702 -0.940958 0.000000 
-0.302189 -0.894222 0.000000 
-0.458977 -1.171624 0.000000 
-0.429420 -1.134550 0.000000 
-0.464588 -1.082508 0.000000 
-0.427556 -1.045481 0.000000 
-0.453135 -0.993966 0.000000 
-0.407738 -0.958650 0.000000 
-0.425037 -0.909222 0.000000 
-0.370772 -0.877593 0.000000 
-0.381315 -0.831366 0.000000 
-0.046960 -1.134840 0.000000 
-0.095301 -1.228886 0.000000 
-0.098873 -1.176239 0.000000 
-0.149405 -1.161041 0.000000 
-0.140093 -1.320590 0.000000 
-0.148617 -1.271892 0.000000 
-0.205981 -1.261655 0.000000 
-0.203197 -1.203451 0.000000 
-0.248777 -1.184305 0.000000 
-0.184111 -1.411554 0.000000 
-0.194039 -1.364463 0.000000 
-0.254475 -1.357163 0.000000 
-0.257893 -1.303053 0.000000 
-0.309886 -1.287681 0.000000 
-0.303554 -1.227136 0.000000 
-0.347255 -1.206978 0.000000 
-0.228129 -1.502518 0.000000 
-0.238687 -1.456293 0.000000 
-0.301302 -1.451341 0.000000 
-0.307162 -1.399302 0.000000 
-0.363386 -1.387181 0.000000 
-0.362692 -1.329670 0.000000 
-0.412122 -1.312377 0.000000 
-0.403017 -1.250230 0.000000 
-0.445733 -1.229651 0.000000 
-0.000000 -1.157455 0.000000 
0.043388 -1.253886 0.000000 
-0.000000 -1.223854 0.000000 
-0.043388 -1.253886 0.000000 
0.087158 -1.346083 0.000000 
0.043769 -1.322384 0.000000 
-0.000000 -1.360850 0.000000 
-0.043769 -1.322384 0.000000 
-0.087158 -1.346083 0.000000 
0.130831 -1.437212 0.000000 
0.087824 -1.415613 0.000000 
0.044436 -1.458313 0.000000 
-0.000000 -1.427248 0.000000 
-0.044436 -1.458313 0.000000 
-0.087824 -1.415613 0.000000 
-0.130831 -1.437212 0.000000 
0.174505 -1.528342 0.000000 
0.131782 -1.507776 0.000000 
0.088871 -1.553642 0.000000 
0.044532 -1.525778 0.000000 
-0.000000 -1.562179 0.000000 
-0.044532 -1.525778 0.000000 
-0.088871 -1.553642 0.000000 
-0.131782 -1.507776 0.000000 
-0.174505 -1.528342 0.000000 
0.046960 -1.134840 0.000000 
0.149405 -1.161041 0.000000 
0.098873 -1.176239 0.000000 
0.095301 -1.228886 0.000000 
0.248777 -1.184305 0.000000 
0.203197 -1.203451 0.000000 
0.205981 -1.261655 0.000000 
0.148617 -1.271892 0.000000 
0.140093 -1.320590 0.000000 
0.347255 -1.206978 0.000000 
0.303554 -1.227136 0.000000 
0.309886 -1.287681 0.000000 
0.257893 -1.303053 0.000000 
0.254475 -1.357163 0.000000 
0.194039 -1.364463 0.000000 
0.184111 -1.411554 0.000000 
0.445733 -1.229651 0.000000 
0.403017 -1.250230 0.000000 
0.412122 -1.312377 0.000000 
0.362692 -1.329670 0.000000 
0.363386 -1.387181 0.000000 
0.307162 -1.399302 0.000000 
0.301302 -1.451341 0.000000 
0.238687 -1.456293 0.000000 
0.228129 -1.502518 0.000000 
0.058559 -1.084025 0.000000 
0.142917 -1.020267 0.000000 
0.123292 -1.069250 0.000000 
0.162226 -1.104868 0.000000 
0.223062 -0.957079 0.000000 
0.209613 -1.004653 0.000000 
0.256854 -1.038766 0.000000 
0.229092 -1.089997 0.000000 
0.261851 -1.127024 0.000000 
0.302189 -0.894222 0.000000 
0.290702 -0.940958 0.000000 
0.341985 -0.973757 0.000000 
0.321587 -1.023991 0.000000 
0.361761 -1.060399 0.000000 
0.329787 -1.112201 0.000000 
0.360414 -1.149324 0.000000 
0.381315 -0.831366 0.000000 
0.370772 -0.877593 0.000000 
0.425037 -0.909222 0.000000 
0.407738 -0.958650 0.000000 
0.453135 -0.993966 0.000000 
0.427556 -1.045481 0.000000 
0.464588 -1.082508 0.000000 
0.429420 -1.134550 0.000000 
0.458977 -1.171624 0.000000 
0.026061 -1.043274 0.000000 
0.028809 -0.937568 0.000000 
0.054870 -0.983452 0.000000 
0.106992 -0.975219 0.000000 
0.029377 -0.835511 0.000000 
0.058186 -0.875688 0.000000 
0.114311 -0.860022 0.000000 
0.137056 -0.913670 0.000000 
0.186430 -0.911143 0.000000 
0.029568 -0.734457 0.000000 
0.058945 -0.772577 0.000000 
0.116563 -0.752931 0.000000 
0.143120 -0.800200 0.000000 
0.196633 -0.791491 0.000000 
0.217198 -0.848787 0.000000 
0.265318 -0.847988 0.000000 
0.029759 -0.633402 0.000000 
0.059328 -0.670468 0.000000 
0.117890 -0.647763 0.000000 
0.145749 -0.692105 0.000000 
0.201664 -0.678631 0.000000 
0.225992 -0.730748 0.000000 
0.278030 -0.724882 0.000000 
0.296791 -0.784825 0.000000 
0.344206 -0.784832 0.000000 
VECTORS X_EC float 
0.338794 0.584205 0.000000 
-0.609100 -0.334544 0.000000 
0.713312 -0.223403 0.000000 
0.374519 -0.842833 0.000000 
0.423588 0.800437 0.000000 
-0.218274 0.834540 0.000000 
-0.513962 0.110302 0.000000 
0.756418 0.321788 0.000000 
0.381900 -0.220605 0.000000 
-0.550868 -0.052166 0.000000 
0.823577 -0.041371 0.000000 
0.556234 -0.814875 0.000000 
-0.139443 -0.697306 0.000000 
-0.484677 0.664569 0.000000 
0.766286 0.929785 0.000000 
0.384386 0.415164 0.000000 
0.474677 -0.904770 0.000000 
-0.141715 -0.904866 0.000000 
-0.385608 0.285906 0.000000 
0.937896 0.365101 0.000000 
0.621631 -0.338479 0.000000 
-0.105264 -0.156579 0.000000 
-0.467428 -0.755206 0.000000 
0.771260 -0.448677 0.000000 
0.386873 -0.949067 0.000000 
0.761262 -0.865661 0.000000 
0.108942 -0.584284 0.000000 
-0.397202 0.934876 0.000000 
-0.142083 0.273601 0.000000 
-0.595936 -0.285174 0.000000 
0.978194 -0.785040 0.000000 
-0.660903 0.523335 0.000000 
0.724964 0.062815 0.000000 
0.899809 -0.579433 0.000000 
0.685384 0.015878 0.000000 
0.287229 -0.485280 0.000000 
0.702895 0.815392 0.000000 
0.180633 0.323873 0.000000 
0.445811 -0.354287 0.000000 
-0.220880 -0.797073 0.000000 
-0.071546 0.572002 0.000000 
-0.033296 0.316931 0.000000 
-0.417537 -0.183579 0.000000 
0.039645 -0.886141 0.000000 
-0.441768 0.613987 0.000000 
-0.109248 -0.081463 0.000000 
-0.699407 -0.558219 0.000000 
-0.474522 0.774502 0.000000 
0.820030 0.347508 0.000000 
0.957100 -0.276563 0.000000 
0.610485 -0.179655 0.000000 
-0.761092 -0.910035 0.000000 
-0.714655 0.379227 0.000000 
-0.057734 0.174060 0.000000 
-0.178789 0.327969 0.000000 
-0.067979 -0.329457 0.000000 
0.677748 -0.467661 0.000000 
0.641556 0.746594 0.000000 
-0.765897 0.488116 0.000000 
0.393446 -0.444022 0.000000 
0.522510 0.920248 0.000000 
-0.691820 0.821704 0.000000 
-0.647393 0.091221 0.000000 
0.028512 -0.116305 0.000000 
-0.053800 -0.933666 0.000000 
0.514316 0.794203 0.000000 
0.965681 0.783987 0.000000 
-0.897068 0.159958 0.000000 
-0.083078 0.093105 0.000000 
-0.006893 -0.609419 0.000000 
0.724017 -0.773052 0.000000 
0.714996 0.450544 0.000000 
-0.642413 0.217087 0.000000 
-0.760780 -0.621894 0.000000 
-0.205471 -0.899709 0.000000 
0.000000 0.125647 0.000000 
-0.564049 -0.572540 0.000000 
0.000000 -0.977976 0.000000 
0.564049 -0.572540 0.000000 
0.866949 0.672115 0.000000 
-0.569003 0.352184 0.000000 
0.000000 0.871472 0.000000 
0.569003 0.352184 0.000000 
-0.866949 0.672115 0.000000 
0.299194 -0.097635 0.000000 
0.858290 -0.389219 0.000000 
-0.577662 0.187227 0.000000 
0.000000 -0.232151 0.000000 
0.577662 0.187227 0.000000 
-0.858290 -0.389219 0.000000 
-0.299194 -0.097635 0.000000 
-0.268560 -0.867385 0.000000 
0.286830 0.854974 0.000000 
0.844677 -0.525828 0.000000 
-0.578910 -0.901991 0.000000 
0.000000 -0.410587 0.000000 
0.578910 -0.901991 0.000000 
-0.844677 -0.525828 0.000000 
-0.286830 0.854974 0.000000 
0.268560 -0.867385 0.000000 
-0.610485 -0.179655 0.000000 
0.057734 0.174060 0.000000 
0.714655 0.379227 0.000000 
0.761092 -0.910035 0.000000 
0.765897 0.488116 0.000000 
-0.641556 0.746594 0.000000 
-0.677748 -0.467661 0.000000 
0.067979 -0.329457 0.000000 
0.178789 0.327969 0.000000 
-0.514316 0.794203 0.000000 
0.053800 -0.933666 0.000000 
-0.028512 -0.116305 0.000000 
0.647393 0.091221 0.000000 
0.691820 0.821704 0.000000 
-0.522510 0.920248 0.000000 
-0.393446 -0.444022 0.000000 
0.205471 -0.899709 0.000000 
0.760780 -0.621894 0.000000 
0.642413 0.217087 0.000000 
-0.714996 0.450544 0.000000 
-0.724017 -0.773052 0.000000 
0.006894 -0.609419 0.000000 
0.083078 0.093105 0.000000 
0.897068 0.159958 0.000000 
-0.965681 0.783987 0.000000 
-0.761262 -0.865661 0.000000 
0.142083 0.273601 0.000000 
0.397202 0.934876 0.000000 
-0.108942 -0.584284 0.000000 
-0.899809 -0.579433 0.000000 
-0.724964 0.062815 0.000000 
0.660903 0.523335 0.000000 
-0.978194 -0.785040 0.000000 
0.595936 -0.285174 0.000000 
0.071546 0.572002 0.000000 
0.220880 -0.797073 0.000000 
-0.445811 -0.354287 0.000000 
-0.180633 0.323873 0.000000 
-0.702895 0.815392 0.000000 
-0.287229 -0.485280 0.000000 
-0.685384 0.015878 0.000000 
-0.957100 -0.276563 0.000000 
-0.820030 0.347508 0.000000 
0.474522 0.774502 0.000000 
0.699407 -0.558219 0.000000 
0.109248 -0.081463 0.000000 
0.441768 0.613987 0.000000 
-0.039645 -0.886141 0.000000 
0.417537 -0.183579 0.000000 
0.033296 0.316931 0.000000 
-0.338794 0.584205 0.000000 
-0.374519 -0.842833 0.000000 
-0.713312 -0.223403 0.000000 
0.609100 -0.334544 0.000000 
-0.381900 -0.220605 0.000000 
-0.756418 0.321788 0.000000 
0.513962 0.110302 0.000000 
0.218274 0.834540 0.000000 
-0.423588 0.800437 0.000000 
-0.384386 0.415164 0.000000 
-0.766286 0.929785 0.000000 
0.484677 0.664569 0.000000 
0.139443 -0.697306 0.000000 
-0.556234 -0.814875 0.000000 
-0.823577 -0.041371 0.000000 
0.550868 -0.052166 0.000000 
-0.386873 -0.949067 0.000000 
-0.771260 -0.448677 0.000000 
0.467428 -0.755206 0.000000 
0.105264 -0.156579 0.000000 
-0.621631 -0.338479 0.000000 
-0.937896 0.365101 0.000000 
0.385608 0.285906 0.000000 
0.141715 -0.904866 0.000000 
-0.474677 -0.904770 0.000000 
CELL_DATA 175 
SCALARS MASS float 
LOOKUP_TABLE default 
0.078183 
0.086427 
0.094672 
0.086427 
0.088131 
0.092111 
0.085854 
0.092111 
0.088131 
0.088705 
0.091000 
0.086983 
0.091556 
0.086983 
0.091000 
0.088705 
0.089278 
0.091574 
0.089278 
0.092722 
0.089278 
0.092722 
0.089278 
0.091574 
0.089278 
0.078183 
0.086427 
0.094672 
0.086427 
0.088131 
0.092111 
0.085854 
0.092111 
0.088131 
0.088705 
0.091000 
0.086983 
0.091556 
0.086983 
0.091000 
0.088705 
0.089278 
0.091574 
0.089278 
0.092722 
0.089278 
0.092722 
0.089278 
0.091574 
0.089278 
0.078183 
0.086427 
0.094672 
0.086427 
0.088131 
0.092111 
0.085854 
0.092111 
0.088131 
0.088705 
0.091000 
0.086983 
0.091556 
0.086983 
0.091000 
0.088705 
0.089278 
0.091574 
0.089278 
0.092722 
0.089278 
0.092722 
0.089278 
0.091574 
0.089278 
0.078183 
0.086427 
0.094672 
0.086427 
0.088131 
0.092111 
0.085854 
0.092111 
0.088131 
0.088705 
0.091000 
0.086983 
0.091556 
0.086983 
0.091000 
0.088705 
0.089278 
0.091574 
0.089278 
0.092722 
0.089278 
0.092722 
0.089278 
0.091574 
0.089278 
0.078183 
0.086427 
0.094672 
0.086427 
0.088131 
0.092111 
0.085854 
0.092111 
0.088131 
0.088705 
0.091000 
0.086983 
0.091556 
0.086983 
0.091000 
0.088705 
0.089278 
0.091574 
0.089278 
0.092722 
0.089278 
0.092722 
0.089278 
0.091574 
0.089278 
0.078183 
0.086427 
0.094672 
0.086427 
0.088131 
0.092111 
0.085854 
0.092111 
0.088131 
0.088705 
0.091000 
0.086983 
0.091556 
0.086983 
0.091000 
0.088705 
0.089278 
0.091574 
0.089278 
0.092722 
0.089278 
0.092722 
0.089278 
0.091574 
0.089278 
0.078183 
0.086427 
0.094672 
0.086427 
0.088131 
0.092111 
0.085854 
0.092111 
0.088131 
0.088705 
0.091000 
0.086983 
0.091556 
0.086983 
0.091000 
0.088705 
0.089278 
0.091574 
0.089278 
0.092722 
0.089278 
0.092722 
0.089278 
0.091574 
0.089278 
SCALARS MASS float 
LOOKUP_TABLE default 
0.078183 
0.086427 
0.094672 
0.086427 
0.088131 
0.092111 
0.085854 
0.092111 
0.088131 
0.088705 
0.091000 
0.086983 
0.091556 
0.086983 
0.091000 
0.088705 
0.089278 
0.091574 
0.089278 
0.092722 
0.089278 
0.092722 
0.089278 
0.091574 
0.089278 
0.078183 
0.086427 
0.094672 
0.086427 
0.088131 
0.092111 
0.085854 
0.092111 
0.088131 
0.088705 
0.091000 
0.086983 
0.091556 
0.086983 
0.091000 
0.088705 
0.089278 
0.091574 
0.089278 
0.092722 
0.089278 
0.092722 
0.089278 
0.091574 
0.089278 
0.078183 
0.086427 
0.094672 
0.086427 
0.088131 
0.092111 
0.085854 
0.092111 
0.088131 
0.088705 
0.091000 
0.086983 
0.091556 
0.086983 
0.091000 
0.088705 
0.089278 
0.091574 
0.089278 
0.092722 
0.089278 
0.092722 
0.089278 
0.091574 
0.089278 
0.078183 
0.086427 
0.094672 
0.086427 
0.088131 
0.092111 
0.085854 
0.092111 
0.088131 
0.088705 
0.091000 
0.086983 
0.091556 
0.086983 
0.091000 
0.088705 
0.089278 
0.091574 
0.089278 
0.092722 
0.089278 
0.092722 
0.089278 
0.091574 
0.089278 
0.078183 
0.086427 
0.094672 
0.086427 
0.088131 
0.092111 
0.085854 
0.092111 
0.088131 
0.088705 
0.091000 
0.086983 
0.091556 
0.086983 
0.091000 
0.088705 
0.089278 
0.091574 
0.089278 
0.092722 
0.089278 
0.092722 
0.089278 
0.091574 
0.089278 
0.078183 
0.086427 
0.094672 
0.086427 
0.088131 
0.092111 
0.085854 
0.092111 
0.088131 
0.088705 
0.091000 
0.086983 
0.091556 
0.086983 
0.091000 
0.088705 
0.089278 
0.091574 
0.089278 
0.092722 
0.089278 
0.092722 
0.089278 
0.091574 
0.089278 
0.078183 
0.086427 
0.094672 
0.086427 
0.088131 
0.092111 
0.085854 
0.092111 
0.088131 
0.088705 
0.091000 
0.086983 
0.091556 
0.086983 
0.091000 
0.088705 
0.089278 
0.091574 
0.089278 
0.092722 
0.089278 
0.092722 
0.089278 
0.091574 
0.089278 
SCALARS DENSITY float 
LOOKUP_TABLE default 
20.000000 
20.000000 
20.000000 
20.000000 
20.000000 
20.000000 
20.000000 
20.000000 
20.000000 
20.000000 
20.000000 
20.000000 
20.000000 
20.000000 
20.000000 
20.000000 
20.000000 
20.000000 
20.000000 
20.000000 
20.000000 
20.000000 
20.000000 
20.000000 
20.000000 
20.000000 
20.000000 
20.000000 
20.000000 
20.000000 
20.000000 
20.000000 
20.000000 
20.000000 
20.000000 
20.000000 
20.000000 
20.000000 
20.000000 
20.000000 
20.000000 
20.000000 
20.000000 
20.000000 
20.000000 
20.000000 
20.000000 
20.000000 
20.000000 
20.000000 
20.000000 
20.000000 
20.000000 
20.000000 
20.000000 
20.000000 
20.000000 
20.000000 
20.000000 
20.000000 
20.000000 
20.000000 
20.000000 
20.000000 
20.000000 
20.000000 
20.000000 
20.000000 
20.000000 
20.000000 
20.000000 
20.000000 
20.000000 
20.000000 
20.000000 
20.000000 
20.000000 
20.000000 
20.000000 
20.000000 
20.000000 
20.000000 
20.000000 
20.000000 
20.000000 
20.000000 
20.000000 
20.000000 
20.000000 
20.000000 
20.000000 
20.000000 
20.000000 
20.000000 
20.000000 
20.000000 
20.000000 
20.000000 
20.000000 
20.000000 
20.000000 
20.000000 
20.000000 
20.000000 
20.000000 
20.000000 
20.000000 
20.000000 
20.000000 
20.000000 
20.000000 
20.000000 
20.000000 
20.000000 
20.000000 
20.000000 
20.000000 
20.000000 
20.000000 
20.000000 
20.000000 
20.000000 
20.000000 
20.000000 
20.000000 
20.000000 
20.000000 
20.000000 
20.000000 
20.000000 
20.000000 
20.000000 
20.000000 
20.000000 
20.000000 
20.000000 
20.000000 
20.000000 
20.000000 
20.000000 
20.000000 
20.000000 
20.000000 
20.000000 
20.000000 
20.000000 
20.000000 
20.000000 
20.000000 
20.000000 
20.000000 
20.000000 
20.000000 
20.000000 
20.000000 
20.000000 
20.000000 
20.000000 
20.000000 
20.000000 
20.000000 
20.000000 
20.000000 
20.000000 
20.000000 
20.000000 
20.000000 
20.000000 
20.000000 
20.000000 
20.000000 
20.000000 
20.000000 
20.000000 
20.000000 
SCALARS ELEM_i float 
LOOKUP_TABLE default 
175 
202 
175 
175 
203 
203 
203 
176 
176 
230 
203 
203 
203 
204 
177 
177 
230 
230 
231 
204 
204 
204 
204 
177 
177 
174 
201 
202 
202 
228 
201 
229 
202 
202 
228 
228 
229 
229 
229 
229 
230 
255 
255 
255 
256 
256 
256 
257 
230 
230 
174 
200 
201 
201 
200 
200 
200 
201 
228 
199 
200 
227 
227 
227 
227 
228 
199 
226 
226 
226 
226 
227 
254 
254 
254 
174 
173 
173 
173 
146 
173 
173 
173 
200 
145 
145 
172 
172 
172 
199 
199 
144 
145 
144 
171 
171 
171 
198 
199 
198 
174 
147 
147 
146 
120 
147 
146 
146 
146 
120 
119 
119 
119 
119 
146 
145 
92 
92 
92 
119 
118 
118 
118 
118 
145 
174 
148 
148 
147 
148 
148 
121 
147 
120 
122 
121 
121 
121 
121 
120 
120 
122 
122 
95 
94 
94 
94 
93 
93 
93 
175 
175 
175 
148 
176 
176 
149 
149 
149 
177 
177 
150 
149 
149 
149 
122 
177 
177 
150 
150 
150 
150 
123 
122 
122 
VECTORS VELOCITY float 
0.000000 -4.639738 0.000000 
0.000000 -4.639738 0.000000 
-0.000000 -4.639738 0.000000 
0.000000 -4.639738 0.000000 
0.000000 -4.639738 0.000000 
0.000000 -4.639738 0.000000 
0.000000 -4.639738 0.000000 
0.000000 -4.639738 0.000000 
0.000000 -4.639738 0.000000 
-0.000000 -4.639738 0.000000 
-0.000000 -4.639738 0.000000 
-0.000000 -4.639738 0.000000 
0.000000 -4.639738 0.000000 
-0.000000 -4.639738 0.000000 
0.000000 -4.639738 0.000000 
-0.000000 -4.639738 0.000000 
-0.000000 -4.639738 0.000000 
-0.000000 -4.639738 0.000000 
-0.000000 -4.639738 0.000000 
0.000000 -4.639738 0.000000 
0.000000 -4.639738 0.000000 
0.000000 -4.639738 0.000000 
-0.000000 -4.639738 0.000000 
-0.000000 -4.639738 0.000000 
-0.000000 -4.639738 0.000000 
0.000000 -4.639738 0.000000 
0.000000 -4.639738 0.000000 
0.000000 -4.639738 0.000000 
0.000000 -4.639738 0.000000 
0.000000 -4.639738 0.000000 
0.000000 -4.639738 0.000000 
0.000000 -4.639738 0.000000 
0.000000 -4.639738 0.000000 
0.000000 -4.639738 0.000000 
0.000000 -4.639738 0.000000 
-0.000000 -4.639738 0.000000 
-0.000000 -4.639738 0.000000 
-0.000000 -4.639738 0.000000 
0.000000 -4.639738 0.000000 
0.000000 -4.639738 0.000000 
0.000000 -4.639738 0.000000 
-0.000000 -4.639738 0.000000 
-0.000000 -4.639738 0.000000 
-0.000000 -4.639738 0.000000 
0.000000 -4.639738 0.000000 
0.000000 -4.639738 0.000000 
0.000000 -4.639738 0.000000 
0.000000 -4.639738 0.000000 
-0.000000 -4.639738 0.000000 
-0.000000 -4.639738 0.000000 
-0.000000 -4.639738 0.000000 
-0.000000 -4.639738 0.000000 
-0.000000 -4.639738 0.000000 
-0.000000 -4.639738 0.000000 
-0.000000 -4.639738 0.000000 
0.000000 -4.639738 0.000000 
-0.000000 -4.639738 0.000000 
-0.000000 -4.639738 0.000000 
-0.000000 -4.639738 0.000000 
-0.000000 -4.639738 0.000000 
0.000000 -4.639738 0.000000 
0.000000 -4.639738 0.000000 
0.000000 -4.639738 0.000000 
-0.000000 -4.639738 0.000000 
-0.000000 -4.639738 0.000000 
0.000000 -4.639738 0.000000 
-0.000000 -4.639738 0.000000 
-0.000000 -4.639738 0.000000 
0.000000 -4.639738 0.000000 
-0.000000 -4.639738 0.000000 
-0.000000 -4.639738 0.000000 
-0.000000 -4.639738 0.000000 
0.000000 -4.639738 0.000000 
0.000000 -4.639738 0.000000 
0.000000 -4.639738 0.000000 
-0.000000 -4.639738 0.000000 
-0.000000 -4.639738 0.000000 
-0.000000 -4.639738 0.000000 
-0.000000 -4.639738 0.000000 
-0.000000 -4.639738 0.000000 
-0.000000 -4.639738 0.000000 
-0.000000 -4.639738 0.000000 
-0.000000 -4.639738 0.000000 
0.000000 -4.639738 0.000000 
-0.000000 -4.639738 0.000000 
-0.000000 -4.639738 0.000000 
-0.000000 -4.639738 0.000000 
-0.000000 -4.639738 0.000000 
-0.000000 -4.639738 0.000000 
-0.000000 -4.639738 0.000000 
-0.000000 -4.639738 0.000000 
0.000000 -4.639738 0.000000 
-0.000000 -4.639738 0.000000 
-0.000000 -4.639738 0.000000 
0.000000 -4.639738 0.000000 
-0.000000 -4.639738 0.000000 
-0.000000 -4.639738 0.000000 
-0.000000 -4.639738 0.000000 
-0.000000 -4.639738 0.000000 
-0.000000 -4.639738 0.000000 
0.000000 -4.639738 0.000000 
0.000000 -4.639738 0.000000 
0.000000 -4.639738 0.000000 
0.000000 -4.639738 0.000000 
0.000000 -4.639738 0.000000 
0.000000 -4.639738 0.000000 
0.000000 -4.639738 0.000000 
0.000000 -4.639738 0.000000 
-0.000000 -4.639738 0.000000 
-0.000000 -4.639738 0.000000 
0.000000 -4.639738 0.000000 
-0.000000 -4.639738 0.000000 
0.000000 -4.639738 0.000000 
-0.000000 -4.639738 0.000000 
-0.000000 -4.639738 0.000000 
0.000000 -4.639738 0.000000 
0.000000 -4.639738 0.000000 
0.000000 -4.639738 0.000000 
0.000000 -4.639738 0.000000 
-0.000000 -4.639738 0.000000 
0.000000 -4.639738 0.000000 
0.000000 -4.639738 0.000000 
-0.000000 -4.639738 0.000000 
0.000000 -4.639738 0.000000 
0.000000 -4.639738 0.000000 
0.000000 -4.639738 0.000000 
-0.000000 -4.639738 0.000000 
0.000000 -4.639738 0.000000 
0.000000 -4.639738 0.000000 
-0.000000 -4.639738 0.000000 
-0.000000 -4.639738 0.000000 
-0.000000 -4.639738 0.000000 
-0.000000 -4.639738 0.000000 
0.000000 -4.639738 0.000000 
0.000000 -4.639738 0.000000 
-0.000000 -4.639738 0.000000 
0.000000 -4.639738 0.000000 
-0.000000 -4.639738 0.000000 
-0.000000 -4.639738 0.000000 
-0.000000 -4.639738 0.000000 
-0.000000 -4.639738 0.000000 
-0.000000 -4.639738 0.000000 
-0.000000 -4.639738 0.000000 
-0.000000 -4.639738 0.000000 
0.000000 -4.639738 0.000000 
0.000000 -4.639738 0.000000 
0.000000 -4.639738 0.000000 
0.000000 -4.639738 0.000000 
-0.000000 -4.639738 0.000000 
0.000000 -4.639738 0.000000 
0.000000 -4.639738 0.000000 
-0.000000 -4.639738 0.000000 
-0.000000 -4.639738 0.000000 
-0.000000 -4.639738 0.000000 
0.000000 -4.639738 0.000000 
0.000000 -4.639738 0.000000 
0.000000 -4.639738 0.000000 
-0.000000 -4.639738 0.000000 
0.000000 -4.639738 0.000000 
-0.000000 -4.639738 0.000000 
0.000000 -4.639738 0.000000 
-0.000000 -4.639738 0.000000 
0.000000 -4.639738 0.000000 
0.000000 -4.639738 0.000000 
0.000000 -4.639738 0.000000 
0.000000 -4.639738 0.000000 
0.000000 -4.639738 0.000000 
0.000000 -4.639738 0.000000 
0.000000 -4.639738 0.000000 
0.000000 -4.639738 0.000000 
0.000000 -4.639738 0.000000 
0.000000 -4.639738 0.000000 
0.000000 -4.639738 0.000000 
0.000000 -4.639738 0.000000 
-0.000000 -4.639738 0.000000 
TENSORS STRESS float 
0.000000 0.000000 0.000000 
0.000000 -0.000000 0.000000 
0.000000 0.000000 0.000000 

0.000000 -0.000000 0.000000 
0.000000 0.000000 0.000000 
0.000000 0.000000 0.000000 

0.000000 -0.000000 0.000000 
0.000000 -0.000000 0.000000 
0.000000 0.000000 0.000000 

0.000000 -0.000000 0.000000 
0.000000 -0.000000 0.000000 
0.000000 0.000000 0.000000 

-0.000000 -0.000000 0.000000 
0.000000 -0.000000 0.000000 
0.000000 0.000000 0.000000 

0.000000 -0.000000 0.000000 
0.000000 0.000000 0.000000 
0.000000 0.000000 0.000000 

0.000000 -0.000000 0.000000 
0.000000 0.000000 0.000000 
0.000000 0.000000 0.000000 

-0.000000 -0.000000 0.000000 
0.000000 -0.000000 0.000000 
0.000000 0.000000 0.000000 

-0.000000 0.000000 0.000000 
0.000000 -0.000000 0.000000 
0.000000 0.000000 0.000000 

-0.000000 -0.000000 0.000000 
0.000000 -0.000000 0.000000 
0.000000 0.000000 0.000000 

-0.000000 -0.000000 0.000000 
0.000000 -0.000000 0.000000 
0.000000 0.000000 0.000000 

0.000000 0.000000 0.000000 
0.000000 0.000000 0.000000 
0.000000 0.000000 0.000000 

0.000000 -0.000000 0.000000 
0.000000 -0.000000 0.000000 
0.000000 0.000000 0.000000 

0.000000 -0.000000 0.000000 
0.000000 0.000000 0.000000 
0.000000 0.000000 0.000000 

-0.000000 -0.000000 0.000000 
0.000000 -0.000000 0.000000 
0.000000 0.000000 0.000000 

0.000000 -0.000000 0.000000 
0.000000 0.000000 0.000000 
0.000000 0.000000 0.000000 

0.000000 0.000000 0.000000 
0.000000 0.000000 0.000000 
0.000000 0.000000 0.000000 

0.000000 0.000000 0.000000 
0.000000 0.000000 0.000000 
0.000000 0.000000 0.000000 

-0.000000 0.000000 0.000000 
0.000000 -0.000000 0.000000 
0.000000 0.000000 0.000000 

-0.000000 -0.000000 0.000000 
0.000000 -0.000000 0.000000 
0.000000 0.000000 0.000000 

0.000000 0.000000 0.000000 
0.000000 0.000000 0.000000 
0.000000 0.000000 0.000000 

0.000000 -0.000000 0.000000 
0.000000 0.000000 0.000000 
0.000000 0.000000 0.000000 

0.000000 0.000000 0.000000 
0.000000 0.000000 0.000000 
0.000000 0.000000 0.000000 

0.000000 -0.000000 0.000000 
0.000000 0.000000 0.000000 
0.000000 0.000000 0.000000 

0.000000 0.000000 0.000000 
0.000000 -0.000000 0.000000 
0.000000 0.000000 0.000000 

0.000000 0.000000 0.000000 
0.000000 0.000000 0.000000 
0.000000 0.000000 0.000000 

-0.000000 -0.000000 0.000000 
0.000000 -0.000000 0.000000 
0.000000 0.000000 0.000000 

0.000000 0.000000 0.000000 
0.000000 0.000000 0.000000 
0.000000 0.000000 0.000000 

-0.000000 0.000000 0.000000 
0.000000 -0.000000 0.000000 
0.000000 0.000000 0.000000 

-0.000000 0.000000 0.000000 
0.000000 -0.000000 0.000000 
0.000000 0.000000 0.000000 

0.000000 0.000000 0.000000 
0.000000 0.000000 0.000000 
0.000000 0.000000 0.000000 

0.000000 -0.000000 0.000000 
0.000000 -0.000000 0.000000 
0.000000 0.000000 0.000000 

0.000000 -0.000000 0.000000 
0.000000 0.000000 0.000000 
0.000000 0.000000 0.000000 

0.000000 -0.000000 0.000000 
0.000000 0.000000 0.000000 
0.000000 0.000000 0.000000 

-0.000000 -0.000000 0.000000 
0.000000 -0.000000 0.000000 
0.000000 0.000000 0.000000 

0.000000 0.000000 0.000000 
0.000000 0.000000 0.000000 
0.000000 0.000000 0.000000 

0.000000 -0.000000 0.000000 
0.000000 -0.000000 0.000000 
0.000000 0.000000 0.000000 

0.000000 0.000000 0.000000 
0.000000 -0.000000 0.000000 
0.000000 0.000000 0.000000 

0.000000 -0.000000 0.000000 
0.000000 0.000000 0.000000 
0.000000 0.000000 0.000000 

0.000000 0.000000 0.000000 
0.000000 -0.000000 0.000000 
0.000000 0.000000 0.000000 

-0.000000 0.000000 0.000000 
0.000000 0.000000 0.000000 
0.000000 0.000000 0.000000 

0.000000 0.000000 0.000000 
0.000000 -0.000000 0.000000 
0.000000 0.000000 0.000000 

0.000000 0.000000 0.000000 
0.000000 0.000000 0.000000 
0.000000 0.000000 0.000000 

0.000000 -0.000000 0.000000 
0.000000 -0.000000 0.000000 
0.000000 0.000000 0.000000 

0.000000 0.000000 0.000000 
0.000000 0.000000 0.000000 
0.000000 0.000000 0.000000 

-0.000000 0.000000 0.000000 
0.000000 -0.000000 0.000000 
0.000000 0.000000 0.000000 

-0.000000 0.000000 0.000000 
0.000000 -0.000000 0.000000 
0.000000 0.000000 0.000000 

0.000000 0.000000 0.000000 
0.000000 0.000000 0.000000 
0.000000 0.000000 0.000000 

-0.000000 -0.000000 0.000000 
0.000000 -0.000000 0.000000 
0.000000 0.000000 0.000000 

-0.000000 -0.000000 0.000000 
0.000000 -0.000000 0.000000 
0.000000 0.000000 0.000000 

0.000000 -0.000000 0.000000 
0.000000 0.000000 0.000000 
0.000000 0.000000 0.000000 

-0.000000 -0.000000 0.000000 
0.000000 -0.000000 0.000000 
0.000000 0.000000 0.000000 

0.000000 -0.000000 0.000000 
0.000000 0.000000 0.000000 
0.000000 0.000000 0.000000 

0.000000 0.000000 0.000000 
0.000000 0.000000 0.000000 
0.000000 0.000000 0.000000 

-0.000000 -0.000000 0.000000 
0.000000 -0.000000 0.000000 
0.000000 0.000000 0.000000 

-0.000000 0.000000 0.000000 
0.000000 -0.000000 0.000000 
0.000000 0.000000 0.000000 

0.000000 0.000000 0.000000 
0.000000 0.000000 0.000000 
0.000000 0.000000 0.000000 

0.000000 0.000000 0.000000 
0.000000 -0.000000 0.000000 
0.000000 0.000000 0.000000 

0.000000 -0.000000 0.000000 
0.000000 0.000000 0.000000 
0.000000 0.000000 0.000000 

0.000000 -0.000000 0.000000 
0.000000 0.000000 0.000000 
0.000000 0.000000 0.000000 

0.000000 0.000000 0.000000 
0.000000 0.000000 0.000000 
0.000000 0.000000 0.000000 

0.000000 0.000000 0.000000 
0.000000 0.000000 0.000000 
0.000000 0.000000 0.000000 

-0.000000 0.000000 0.000000 
0.000000 -0.000000 0.000000 
0.000000 0.000000 0.000000 

-0.000000 -0.000000 0.000000 
0.000000 0.000000 0.000000 
0.000000 0.000000 0.000000 

-0.000000 -0.000000 0.000000 
0.000000 -0.000000 0.000000 
0.000000 0.000000 0.000000 

-0.000000 -0.000000 0.000000 
0.000000 -0.000000 0.000000 
0.000000 0.000000 0.000000 

-0.000000 -0.000000 0.000000 
0.000000 -0.000000 0.000000 
0.000000 0.000000 0.000000 

0.000000 0.000000 0.000000 
0.000000 -0.000000 0.000000 
0.000000 0.000000 0.000000 

0.000000 0.000000 0.000000 
0.000000 0.000000 0.000000 
0.000000 0.000000 0.000000 

0.000000 -0.000000 0.000000 
0.000000 0.000000 0.000000 
0.000000 0.000000 0.000000 

0.000000 0.000000 0.000000 
0.000000 0.000000 0.000000 
0.000000 0.000000 0.000000 

-0.000000 -0.000000 0.000000 
0.000000 -0.000000 0.000000 
0.000000 0.000000 0.000000 

-0.000000 -0.000000 0.000000 
0.000000 -0.000000 0.000000 
0.000000 0.000000 0.000000 

0.000000 -0.000000 0.000000 
0.000000 -0.000000 0.000000 
0.000000 0.000000 0.000000 

0.000000 0.000000 0.000000 
0.000000 0.000000 0.000000 
0.000000 0.000000 0.000000 

-0.000000 -0.000000 0.000000 
0.000000 -0.000000 0.000000 
0.000000 0.000000 0.000000 

-0.000000 -0.000000 0.000000 
0.000000 -0.000000 0.000000 
0.000000 0.000000 0.000000 

-0.000000 -0.000000 0.000000 
0.000000 -0.000000 0.000000 
0.000000 0.000000 0.000000 

0.000000 -0.000000 0.000000 
0.000000 0.000000 0.000000 
0.000000 0.000000 0.000000 

-0.000000 -0.000000 0.000000 
0.000000 -0.000000 0.000000 
0.000000 0.000000 0.000000 

-0.000000 -0.000000 0.000000 
0.000000 -0.000000 0.000000 
0.000000 0.000000 0.000000 

-0.000000 0.000000 0.000000 
0.000000 -0.000000 0.000000 
0.000000 0.000000 0.000000 

-0.000000 -0.000000 0.000000 
0.000000 -0.000000 0.000000 
0.000000 0.000000 0.000000 

0.000000 -0.000000 0.000000 
0.000000 -0.000000 0.000000 
0.000000 0.000000 0.000000 

-0.000000 0.000000 0.000000 
0.000000 -0.000000 0.000000 
0.000000 0.000000 0.000000 

0.000000 0.000000 0.000000 
0.000000 -0.000000 0.000000 
0.000000 0.000000 0.000000 

0.000000 -0.000000 0.000000 
0.000000 0.000000 0.000000 
0.000000 0.000000 0.000000 

-0.000000 -0.000000 0.000000 
0.000000 -0.000000 0.000000 
0.000000 0.000000 0.000000 

-0.000000 0.000000 0.000000 
0.000000 -0.000000 0.000000 
0.000000 0.000000 0.000000 

0.000000 -0.000000 0.000000 
0.000000 -0.000000 0.000000 
0.000000 0.000000 0.000000 

0.000000 -0.000000 0.000000 
0.000000 0.000000 0.000000 
0.000000 0.000000 0.000000 

-0.000000 -0.000000 0.000000 
0.000000 -0.000000 0.000000 
0.000000 0.000000 0.000000 

-0.000000 -0.000000 0.000000 
0.000000 -0.000000 0.000000 
0.000000 0.000000 0.000000 

-0.000000 0.000000 0.000000 
0.000000 -0.000000 0.000000 
0.000000 0.000000 0.000000 

0.000000 0.000000 0.000000 
0.000000 -0.000000 0.000000 
0.000000 0.000000 0.000000 

0.000000 0.000000 0.000000 
0.000000 0.000000 0.000000 
0.000000 0.000000 0.000000 

0.000000 0.000000 0.000000 
0.000000 -0.000000 0.000000 
0.000000 0.000000 0.000000 

0.000000 0.000000 0.000000 
0.000000 0.000000 0.000000 
0.000000 0.000000 0.000000 

-0.000000 -0.000000 0.000000 
0.000000 -0.000000 0.000000 
0.000000 0.000000 0.000000 

0.000000 0.000000 0.000000 
0.000000 0.000000 0.000000 
0.000000 0.000000 0.000000 

0.000000 -0.000000 0.000000 
0.000000 0.000000 0.000000 
0.000000 0.000000 0.000000 

0.000000 0.000000 0.000000 
0.000000 -0.000000 0.000000 
0.000000 0.000000 0.000000 

0.000000 0.000000 0.000000 
0.000000 -0.000000 0.000000 
0.000000 0.000000 0.000000 

0.000000 -0.000000 0.000000 
0.000000 0.000000 0.000000 
0.000000 0.000000 0.000000 

0.000000 -0.000000 0.000000 
0.000000 0.000000 0.000000 
0.000000 0.000000 0.000000 

0.000000 -0.000000 0.000000 
0.000000 0.000000 0.000000 
0.000000 0.000000 0.000000 

0.000000 -0.000000 0.000000 
0.000000 0.000000 0.000000 
0.000000 0.000000 0.000000 

-0.000000 -0.000000 0.000000 
0.000000 -0.000000 0.000000 
0.000000 0.000000 0.000000 

-0.000000 -0.000000 0.000000 
0.000000 -0.000000 0.000000 
0.000000 0.000000 0.000000 

-0.000000 0.000000 0.000000 
0.000000 -0.000000 0.000000 
0.000000 0.000000 0.000000 

0.000000 -0.000000 0.000000 
0.000000 0.000000 0.000000 
0.000000 0.000000 0.000000 

-0.000000 0.000000 0.000000 
0.000000 -0.000000 0.000000 
0.000000 0.000000 0.000000 

-0.000000 0.000000 0.000000 
0.000000 -0.000000 0.000000 
0.000000 0.000000 0.000000 

-0.000000 -0.000000 0.000000 
0.000000 -0.000000 0.000000 
0.000000 0.000000 0.000000 

0.000000 -0.000000 0.000000 
0.000000 -0.000000 0.000000 
0.000000 0.000000 0.000000 

0.000000 0.000000 0.000000 
0.000000 -0.000000 0.000000 
0.000000 0.000000 0.000000 

-0.000000 0.000000 0.000000 
0.000000 -0.000000 0.000000 
0.000000 0.000000 0.000000 

-0.000000 0.000000 0.000000 
0.000000 -0.000000 0.000000 
0.000000 0.000000 0.000000 

0.000000 0.000000 0.000000 
0.000000 0.000000 0.000000 
0.000000 0.000000 0.000000 

-0.000000 -0.000000 0.000000 
0.000000 -0.000000 0.000000 
0.000000 0.000000 0.000000 

-0.000000 0.000000 0.000000 
0.000000 -0.000000 0.000000 
0.000000 0.000000 0.000000 

0.000000 0.000000 0.000000 
0.000000 0.000000 0.000000 
0.000000 0.000000 0.000000 

-0.000000 0.000000 0.000000 
0.000000 -0.000000 0.000000 
0.000000 0.000000 0.000000 

-0.000000 -0.000000 0.000000 
0.000000 0.000000 0.000000 
0.000000 0.000000 0.000000 

-0.000000 0.000000 0.000000 
0.000000 -0.000000 0.000000 
0.000000 0.000000 0.000000 

0.000000 -0.000000 0.000000 
0.000000 -0.000000 0.000000 
0.000000 0.000000 0.000000 

0.000000 0.000000 0.000000 
0.000000 -0.000000 0.000000 
0.000000 0.000000 0.000000 

0.000000 0.000000 0.000000 
0.000000 0.000000 0.000000 
0.000000 0.000000 0.000000 

-0.000000 -0.000000 0.000000 
0.000000 -0.000000 0.000000 
0.000000 0.000000 0.000000 

0.000000 0.000000 0.000000 
0.000000 0.000000 0.000000 
0.000000 0.000000 0.000000 

0.000000 0.000000 0.000000 
0.000000 0.000000 0.000000 
0.000000 0.000000 0.000000 

0.000000 0.000000 0.000000 
0.000000 -0.000000 0.000000 
0.000000 0.000000 0.000000 

0.000000 -0.000000 0.000000 
0.000000 0.000000 0.000000 
0.000000 0.000000 0.000000 

0.000000 0.000000 0.000000 
0.000000 -0.000000 0.000000 
0.000000 0.000000 0.000000 

0.000000 -0.000000 0.000000 
0.000000 0.000000 0.000000 
0.000000 0.000000 0.000000 

0.000000 -0.000000 0.000000 
0.000000 -0.000000 0.000000 
0.000000 0.000000 0.000000 

0.000000 0.000000 0.000000 
0.000000 0.000000 0.000000 
0.000000 0.000000 0.000000 

0.000000 0.000000 0.000000 
0.000000 0.000000 0.000000 
0.000000 0.000000 0.000000 

0.000000 -0.000000 0.000000 
0.000000 0.000000 0.000000 
0.000000 0.000000 0.000000 

0.000000 -0.000000 0.000000 
0.000000 0.000000 0.000000 
0.000000 0.000000 0.000000 

0.000000 0.000000 0.000000 
0.000000 0.000000 0.000000 
0.000000 0.000000 0.000000 

0.000000 0.000000 0.000000 
0.000000 0.000000 0.000000 
0.000000 0.000000 0.000000 

0.000000 -0.000000 0.000000 
0.000000 0.000000 0.000000 
0.000000 0.000000 0.000000 

0.000000 0.000000 0.000000 
0.000000 0.000000 0.000000 
0.000000 0.000000 0.000000 

-0.000000 -0.000000 0.000000 
0.000000 0.000000 0.000000 
0.000000 0.000000 0.000000 

-0.000000 -0.000000 0.000000 
0.000000 -0.000000 0.000000 
0.000000 0.000000 0.000000 

-0.000000 -0.000000 0.000000 
0.000000 0.000000 0.000000 
0.000000 0.000000 0.000000 

-0.000000 0.000000 0.000000 
0.000000 -0.000000 0.000000 
0.000000 0.000000 0.000000 

-0.000000 0.000000 0.000000 
0.000000 0.000000 0.000000 
0.000000 0.000000 0.000000 

-0.000000 0.000000 0.000000 
0.000000 -0.000000 0.000000 
0.000000 0.000000 0.000000 

0.000000 0.000000 0.000000 
0.000000 -0.000000 0.000000 
0.000000 0.000000 0.000000 

0.000000 -0.000000 0.000000 
0.000000 0.000000 0.000000 
0.000000 0.000000 0.000000 

0.000000 -0.000000 0.000000 
0.000000 0.000000 0.000000 
0.000000 0.000000 0.000000 

0.000000 0.000000 0.000000 
0.000000 -0.000000 0.000000 
0.000000 0.000000 0.000000 

-0.000000 -0.000000 0.000000 
0.000000 -0.000000 0.000000 
0.000000 0.000000 0.000000 

0.000000 -0.000000 0.000000 
0.000000 0.000000 0.000000 
0.000000 0.000000 0.000000 

0.000000 0.000000 0.000000 
0.000000 0.000000 0.000000 
0.000000 0.000000 0.000000 

0.000000 0.000000 0.000000 
0.000000 0.000000 0.000000 
0.000000 0.000000 0.000000 

0.000000 0.000000 0.000000 
0.000000 0.000000 0.000000 
0.000000 0.000000 0.000000 

0.000000 0.000000 0.000000 
0.000000 0.000000 0.000000 
0.000000 0.000000 0.000000 

0.000000 0.000000 0.000000 
0.000000 0.000000 0.000000 
0.000000 0.000000 0.000000 

0.000000 -0.000000 0.000000 
0.000000 0.000000 0.000000 
0.000000 0.000000 0.000000 

0.000000 -0.000000 0.000000 
0.000000 0.000000 0.000000 
0.000000 0.000000 0.000000 

0.000000 0.000000 0.000000 
0.000000 0.000000 0.000000 
0.000000 0.000000 0.000000 

0.000000 -0.000000 0.000000 
0.000000 0.000000 0.000000 
0.000000 0.000000 0.000000 

-0.000000 -0.000000 0.000000 
0.000000 -0.000000 0.000000 
0.000000 0.000000 0.000000 

0.000000 -0.000000 0.000000 
0.000000 0.000000 0.000000 
0.000000 0.000000 0.000000 

0.000000 -0.000000 0.000000 
0.000000 0.000000 0.000000 
0.000000 0.000000 0.000000 

0.000000 0.000000 0.000000 
0.000000 -0.000000 0.000000 
0.000000 0.000000 0.000000 

0.000000 0.000000 0.000000 
0.000000 -0.000000 0.000000 
0.000000 0.000000 0.000000 

0.000000 -0.000000 0.000000 
0.000000 0.000000 0.000000 
0.000000 0.000000 0.000000 

0.000000 -0.000000 0.000000 
0.000000 -0.000000 0.000000 
0.000000 0.000000 0.000000 

-0.000000 0.000000 0.000000 
0.000000 0.000000 0.000000 
0.000000 0.000000 0.000000 

-0.000000 0.000000 0.000000 
0.000000 0.000000 0.000000 
0.000000 0.000000 0.000000 

-0.000000 -0.000000 0.000000 
0.000000 0.000000 0.000000 
0.000000 0.000000 0.000000 

TENSORS STRAIN float 
0.000000 0.000000 0.000000 
0.000000 -0.000000 0.000000 
0.000000 0.000000 0.000000 

-0.000000 -0.000000 0.000000 
0.000000 0.000000 0.000000 
0.000000 0.000000 0.000000 

0.000000 -0.000000 0.000000 
0.000000 -0.000000 0.000000 
0.000000 0.000000 0.000000 

0.000000 -0.000000 0.000000 
0.000000 -0.000000 0.000000 
0.000000 0.000000 0.000000 

0.000000 -0.000000 0.000000 
0.000000 -0.000000 0.000000 
0.000000 0.000000 0.000000 

0.000000 -0.000000 0.000000 
0.000000 0.000000 0.000000 
0.000000 0.000000 0.000000 

0.000000 -0.000000 0.000000 
0.000000 0.000000 0.000000 
0.000000 0.000000 0.000000 

0.000000 -0.000000 0.000000 
0.000000 -0.000000 0.000000 
0.000000 0.000000 0.000000 

0.000000 0.000000 0.000000 
0.000000 -0.000000 0.000000 
0.000000 0.000000 0.000000 

-0.000000 -0.000000 0.000000 
0.000000 -0.000000 0.000000 
0.000000 0.000000 0.000000 

0.000000 -0.000000 0.000000 
0.000000 -0.000000 0.000000 
0.000000 0.000000 0.000000 

0.000000 0.000000 0.000000 
0.000000 0.000000 0.000000 
0.000000 0.000000 0.000000 

0.000000 -0.000000 0.000000 
0.000000 -0.000000 0.000000 
0.000000 0.000000 0.000000 

0.000000 -0.000000 0.000000 
0.000000 0.000000 0.000000 
0.000000 0.000000 0.000000 

-0.000000 -0.000000 0.000000 
0.000000 -0.000000 0.000000 
0.000000 0.000000 0.000000 

0.000000 -0.000000 0.000000 
0.000000 0.000000 0.000000 
0.000000 0.000000 0.000000 

0.000000 0.000000 0.000000 
0.000000 0.000000 0.000000 
0.000000 0.000000 0.000000 

0.000000 0.000000 0.000000 
0.000000 0.000000 0.000000 
0.000000 0.000000 0.000000 

-0.000000 0.000000 0.000000 
0.000000 -0.000000 0.000000 
0.000000 0.000000 0.000000 

0.000000 -0.000000 0.000000 
0.000000 -0.000000 0.000000 
0.000000 0.000000 0.000000 

-0.000000 0.000000 0.000000 
0.000000 0.000000 0.000000 
0.000000 0.000000 0.000000 

-0.000000 -0.000000 0.000000 
0.000000 0.000000 0.000000 
0.000000 0.000000 0.000000 

-0.000000 0.000000 0.000000 
0.000000 0.000000 0.000000 
0.000000 0.000000 0.000000 

0.000000 -0.000000 0.000000 
0.000000 0.000000 0.000000 
0.000000 0.000000 0.000000 

0.000000 0.000000 0.000000 
0.000000 -0.000000 0.000000 
0.000000 0.000000 0.000000 

0.000000 0.000000 0.000000 
0.000000 -0.000000 0.000000 
0.000000 0.000000 0.000000 

-0.000000 -0.000000 0.000000 
0.000000 -0.000000 0.000000 
0.000000 0.000000 0.000000 

0.000000 0.000000 0.000000 
0.000000 0.000000 0.000000 
0.000000 0.000000 0.000000 

-0.000000 0.000000 0.000000 
0.000000 -0.000000 0.000000 
0.000000 0.000000 0.000000 

-0.000000 0.000000 0.000000 
0.000000 -0.000000 0.000000 
0.000000 0.000000 0.000000 

-0.000000 0.000000 0.000000 
0.000000 0.000000 0.000000 
0.000000 0.000000 0.000000 

0.000000 -0.000000 0.000000 
0.000000 -0.000000 0.000000 
0.000000 0.000000 0.000000 

0.000000 -0.000000 0.000000 
0.000000 0.000000 0.000000 
0.000000 0.000000 0.000000 

-0.000000 -0.000000 0.000000 
0.000000 0.000000 0.000000 
0.000000 0.000000 0.000000 

-0.000000 -0.000000 0.000000 
0.000000 -0.000000 0.000000 
0.000000 0.000000 0.000000 

-0.000000 0.000000 0.000000 
0.000000 0.000000 0.000000 
0.000000 0.000000 0.000000 

0.000000 -0.000000 0.000000 
0.000000 -0.000000 0.000000 
0.000000 0.000000 0.000000 

0.000000 0.000000 0.000000 
0.000000 -0.000000 0.000000 
0.000000 0.000000 0.000000 

0.000000 -0.000000 0.000000 
0.000000 0.000000 0.000000 
0.000000 0.000000 0.000000 

0.000000 0.000000 0.000000 
0.000000 -0.000000 0.000000 
0.000000 0.000000 0.000000 

-0.000000 0.000000 0.000000 
0.000000 0.000000 0.000000 
0.000000 0.000000 0.000000 

0.000000 0.000000 0.000000 
0.000000 -0.000000 0.000000 
0.000000 0.000000 0.000000 

0.000000 0.000000 0.000000 
0.000000 0.000000 0.000000 
0.000000 0.000000 0.000000 

0.000000 -0.000000 0.000000 
0.000000 -0.000000 0.000000 
0.000000 0.000000 0.000000 

0.000000 0.000000 0.000000 
0.000000 0.000000 0.000000 
0.000000 0.000000 0.000000 

-0.000000 0.000000 0.000000 
0.000000 -0.000000 0.000000 
0.000000 0.000000 0.000000 

-0.000000 0.000000 0.000000 
0.000000 -0.000000 0.000000 
0.000000 0.000000 0.000000 

0.000000 0.000000 0.000000 
0.000000 0.000000 0.000000 
0.000000 0.000000 0.000000 

-0.000000 -0.000000 0.000000 
0.000000 -0.000000 0.000000 
0.000000 0.000000 0.000000 

0.000000 -0.000000 0.000000 
0.000000 -0.000000 0.000000 
0.000000 0.000000 0.000000 

0.000000 -0.000000 0.000000 
0.000000 0.000000 0.000000 
0.000000 0.000000 0.000000 

0.000000 -0.000000 0.000000 
0.000000 -0.000000 0.000000 
0.000000 0.000000 0.000000 

0.000000 -0.000000 0.000000 
0.000000 -0.000000 0.000000 
0.000000 0.000000 0.000000 

0.000000 0.000000 0.000000 
0.000000 0.000000 0.000000 
0.000000 0.000000 0.000000 

0.000000 -0.000000 0.000000 
0.000000 -0.000000 0.000000 
0.000000 0.000000 0.000000 

0.000000 0.000000 0.000000 
0.000000 -0.000000 0.000000 
0.000000 0.000000 0.000000 

0.000000 0.000000 0.000000 
0.000000 -0.000000 0.000000 
0.000000 0.000000 0.000000 

0.000000 0.000000 0.000000 
0.000000 -0.000000 0.000000 
0.000000 0.000000 0.000000 

0.000000 -0.000000 0.000000 
0.000000 0.000000 0.000000 
0.000000 0.000000 0.000000 

0.000000 -0.000000 0.000000 
0.000000 -0.000000 0.000000 
0.000000 0.000000 0.000000 

0.000000 0.000000 0.000000 
0.000000 0.000000 0.000000 
0.000000 0.000000 0.000000 

0.000000 0.000000 0.000000 
0.000000 0.000000 0.000000 
0.000000 0.000000 0.000000 

-0.000000 0.000000 0.000000 
0.000000 -0.000000 0.000000 
0.000000 0.000000 0.000000 

-0.000000 -0.000000 0.000000 
0.000000 0.000000 0.000000 
0.000000 0.000000 0.000000 

0.000000 -0.000000 0.000000 
0.000000 -0.000000 0.000000 
0.000000 0.000000 0.000000 

-0.000000 -0.000000 0.000000 
0.000000 -0.000000 0.000000 
0.000000 0.000000 0.000000 

0.000000 -0.000000 0.000000 
0.000000 -0.000000 0.000000 
0.000000 0.000000 0.000000 

0.000000 0.000000 0.000000 
0.000000 -0.000000 0.000000 
0.000000 0.000000 0.000000 

0.000000 0.000000 0.000000 
0.000000 -0.000000 0.000000 
0.000000 0.000000 0.000000 

0.000000 -0.000000 0.000000 
0.000000 0.000000 0.000000 
0.000000 0.000000 0.000000 

0.000000 0.000000 0.000000 
0.000000 -0.000000 0.000000 
0.000000 0.000000 0.000000 

-0.000000 -0.000000 0.000000 
0.000000 -0.000000 0.000000 
0.000000 0.000000 0.000000 

0.000000 -0.000000 0.000000 
0.000000 -0.000000 0.000000 
0.000000 0.000000 0.000000 

0.000000 -0.000000 0.000000 
0.000000 -0.000000 0.000000 
0.000000 0.000000 0.000000 

0.000000 0.000000 0.000000 
0.000000 0.000000 0.000000 
0.000000 0.000000 0.000000 

0.000000 -0.000000 0.000000 
0.000000 -0.000000 0.000000 
0.000000 0.000000 0.000000 

0.000000 -0.000000 0.000000 
0.000000 -0.000000 0.000000 
0.000000 0.000000 0.000000 

0.000000 -0.000000 0.000000 
0.000000 -0.000000 0.000000 
0.000000 0.000000 0.000000 

0.000000 -0.000000 0.000000 
0.000000 0.000000 0.000000 
0.000000 0.000000 0.000000 

0.000000 -0.000000 0.000000 
0.000000 -0.000000 0.000000 
0.000000 0.000000 0.000000 

0.000000 -0.000000 0.000000 
0.000000 -0.000000 0.000000 
0.000000 0.000000 0.000000 

-0.000000 0.000000 0.000000 
0.000000 -0.000000 0.000000 
0.000000 0.000000 0.000000 

0.000000 -0.000000 0.000000 
0.000000 -0.000000 0.000000 
0.000000 0.000000 0.000000 

0.000000 -0.000000 0.000000 
0.000000 -0.000000 0.000000 
0.000000 0.000000 0.000000 

-0.000000 0.000000 0.000000 
0.000000 -0.000000 0.000000 
0.000000 0.000000 0.000000 

0.000000 0.000000 0.000000 
0.000000 -0.000000 0.000000 
0.000000 0.000000 0.000000 

-0.000000 -0.000000 0.000000 
0.000000 0.000000 0.000000 
0.000000 0.000000 0.000000 

-0.000000 -0.000000 0.000000 
0.000000 -0.000000 0.000000 
0.000000 0.000000 0.000000 

-0.000000 0.000000 0.000000 
0.000000 0.000000 0.000000 
0.000000 0.000000 0.000000 

0.000000 -0.000000 0.000000 
0.000000 -0.000000 0.000000 
0.000000 0.000000 0.000000 

0.000000 -0.000000 0.000000 
0.000000 0.000000 0.000000 
0.000000 0.000000 0.000000 

-0.000000 -0.000000 0.000000 
0.000000 -0.000000 0.000000 
0.000000 0.000000 0.000000 

-0.000000 -0.000000 0.000000 
0.000000 -0.000000 0.000000 
0.000000 0.000000 0.000000 

-0.000000 0.000000 0.000000 
0.000000 -0.000000 0.000000 
0.000000 0.000000 0.000000 

0.000000 0.000000 0.000000 
0.000000 -0.000000 0.000000 
0.000000 0.000000 0.000000 

0.000000 0.000000 0.000000 
0.000000 0.000000 0.000000 
0.000000 0.000000 0.000000 

0.000000 0.000000 0.000000 
0.000000 -0.000000 0.000000 
0.000000 0.000000 0.000000 

0.000000 0.000000 0.000000 
0.000000 -0.000000 0.000000 
0.000000 0.000000 0.000000 

0.000000 -0.000000 0.000000 
0.000000 -0.000000 0.000000 
0.000000 0.000000 0.000000 

0.000000 0.000000 0.000000 
0.000000 0.000000 0.000000 
0.000000 0.000000 0.000000 

0.000000 -0.000000 0.000000 
0.000000 0.000000 0.000000 
0.000000 0.000000 0.000000 

0.000000 0.000000 0.000000 
0.000000 -0.000000 0.000000 
0.000000 0.000000 0.000000 

0.000000 0.000000 0.000000 
0.000000 -0.000000 0.000000 
0.000000 0.000000 0.000000 

0.000000 -0.000000 0.000000 
0.000000 0.000000 0.000000 
0.000000 0.000000 0.000000 

0.000000 -0.000000 0.000000 
0.000000 0.000000 0.000000 
0.000000 0.000000 0.000000 

0.000000 -0.000000 0.000000 
0.000000 0.000000 0.000000 
0.000000 0.000000 0.000000 

0.000000 -0.000000 0.000000 
0.000000 0.000000 0.000000 
0.000000 0.000000 0.000000 

-0.000000 -0.000000 0.000000 
0.000000 -0.000000 0.000000 
0.000000 0.000000 0.000000 

0.000000 -0.000000 0.000000 
0.000000 -0.000000 0.000000 
0.000000 0.000000 0.000000 

0.000000 0.000000 0.000000 
0.000000 -0.000000 0.000000 
0.000000 0.000000 0.000000 

-0.000000 -0.000000 0.000000 
0.000000 0.000000 0.000000 
0.000000 0.000000 0.000000 

-0.000000 0.000000 0.000000 
0.000000 -0.000000 0.000000 
0.000000 0.000000 0.000000 

-0.000000 0.000000 0.000000 
0.000000 0.000000 0.000000 
0.000000 0.000000 0.000000 

0.000000 -0.000000 0.000000 
0.000000 -0.000000 0.000000 
0.000000 0.000000 0.000000 

0.000000 -0.000000 0.000000 
0.000000 -0.000000 0.000000 
0.000000 0.000000 0.000000 

0.000000 0.000000 0.000000 
0.000000 -0.000000 0.000000 
0.000000 0.000000 0.000000 

-0.000000 0.000000 0.000000 
0.000000 -0.000000 0.000000 
0.000000 0.000000 0.000000 

0.000000 0.000000 0.000000 
0.000000 -0.000000 0.000000 
0.000000 0.000000 0.000000 

-0.000000 0.000000 0.000000 
0.000000 0.000000 0.000000 
0.000000 0.000000 0.000000 

-0.000000 -0.000000 0.000000 
0.000000 -0.000000 0.000000 
0.000000 0.000000 0.000000 

0.000000 0.000000 0.000000 
0.000000 -0.000000 0.000000 
0.000000 0.000000 0.000000 

0.000000 0.000000 0.000000 
0.000000 0.000000 0.000000 
0.000000 0.000000 0.000000 

-0.000000 0.000000 0.000000 
0.000000 -0.000000 0.000000 
0.000000 0.000000 0.000000 

-0.000000 -0.000000 0.000000 
0.000000 0.000000 0.000000 
0.000000 0.000000 0.000000 

-0.000000 0.000000 0.000000 
0.000000 -0.000000 0.000000 
0.000000 0.000000 0.000000 

0.000000 -0.000000 0.000000 
0.000000 -0.000000 0.000000 
0.000000 0.000000 0.000000 

0.000000 0.000000 0.000000 
0.000000 -0.000000 0.000000 
0.000000 0.000000 0.000000 

0.000000 0.000000 0.000000 
0.000000 0.000000 0.000000 
0.000000 0.000000 0.000000 

0.000000 -0.000000 0.000000 
0.000000 -0.000000 0.000000 
0.000000 0.000000 0.000000 

0.000000 0.000000 0.000000 
0.000000 0.000000 0.000000 
0.000000 0.000000 0.000000 

0.000000 0.000000 0.000000 
0.000000 0.000000 0.000000 
0.000000 0.000000 0.000000 

0.000000 0.000000 0.000000 
0.000000 -0.000000 0.000000 
0.000000 0.000000 0.000000 

0.000000 -0.000000 0.000000 
0.000000 0.000000 0.000000 
0.000000 0.000000 0.000000 

0.000000 0.000000 0.000000 
0.000000 -0.000000 0.000000 
0.000000 0.000000 0.000000 

0.000000 -0.000000 0.000000 
0.000000 0.000000 0.000000 
0.000000 0.000000 0.000000 

0.000000 -0.000000 0.000000 
0.000000 -0.000000 0.000000 
0.000000 0.000000 0.000000 

0.000000 0.000000 0.000000 
0.000000 -0.000000 0.000000 
0.000000 0.000000 0.000000 

0.000000 0.000000 0.000000 
0.000000 0.000000 0.000000 
0.000000 0.000000 0.000000 

0.000000 -0.000000 0.000000 
0.000000 0.000000 0.000000 
0.000000 0.000000 0.000000 

0.000000 -0.000000 0.000000 
0.000000 -0.000000 0.000000 
0.000000 0.000000 0.000000 

0.000000 0.000000 0.000000 
0.000000 0.000000 0.000000 
0.000000 0.000000 0.000000 

0.000000 0.000000 0.000000 
0.000000 0.000000 0.000000 
0.000000 0.000000 0.000000 

0.000000 -0.000000 0.000000 
0.000000 0.000000 0.000000 
0.000000 0.000000 0.000000 

-0.000000 0.000000 0.000000 
0.000000 0.000000 0.000000 
0.000000 0.000000 0.000000 

-0.000000 -0.000000 0.000000 
0.000000 0.000000 0.000000 
0.000000 0.000000 0.000000 

-0.000000 -0.000000 0.000000 
0.000000 -0.000000 0.000000 
0.000000 0.000000 0.000000 

-0.000000 -0.000000 0.000000 
0.000000 0.000000 0.000000 
0.000000 0.000000 0.000000 

-0.000000 0.000000 0.000000 
0.000000 -0.000000 0.000000 
0.000000 0.000000 0.000000 

-0.000000 0.000000 0.000000 
0.000000 0.000000 0.000000 
0.000000 0.000000 0.000000 

-0.000000 0.000000 0.000000 
0.000000 -0.000000 0.000000 
0.000000 0.000000 0.000000 

0.000000 0.000000 0.000000 
0.000000 -0.000000 0.000000 
0.000000 0.000000 0.000000 

0.000000 -0.000000 0.000000 
0.000000 0.000000 0.000000 
0.000000 0.000000 0.000000 

0.000000 -0.000000 0.000000 
0.000000 -0.000000 0.000000 
0.000000 0.000000 0.000000 

0.000000 0.000000 0.000000 
0.000000 -0.000000 0.000000 
0.000000 0.000000 0.000000 

0.000000 -0.000000 0.000000 
0.000000 -0.000000 0.000000 
0.000000 0.000000 0.000000 

0.000000 -0.000000 0.000000 
0.000000 0.000000 0.000000 
0.000000 0.000000 0.000000 

0.000000 0.000000 0.000000 
0.000000 0.000000 0.000000 
0.000000 0.000000 0.000000 

0.000000 0.000000 0.000000 
0.000000 0.000000 0.000000 
0.000000 0.000000 0.000000 

0.000000 0.000000 0.000000 
0.000000 0.000000 0.000000 
0.000000 0.000000 0.000000 

0.000000 0.000000 0.000000 
0.000000 0.000000 0.000000 
0.000000 0.000000 0.000000 

-0.000000 0.000000 0.000000 
0.000000 0.000000 0.000000 
0.000000 0.000000 0.000000 

0.000000 -0.000000 0.000000 
0.000000 0.000000 0.000000 
0.000000 0.000000 0.000000 

0.000000 -0.000000 0.000000 
0.000000 0.000000 0.000000 
0.000000 0.000000 0.000000 

0.000000 0.000000 0.000000 
0.000000 0.000000 0.000000 
0.000000 0.000000 0.000000 

0.000000 -0.000000 0.000000 
0.000000 -0.000000 0.000000 
0.000000 0.000000 0.000000 

0.000000 -0.000000 0.000000 
0.000000 -0.000000 0.000000 
0.000000 0.000000 0.000000 

0.000000 -0.000000 0.000000 
0.000000 -0.000000 0.000000 
0.000000 0.000000 0.000000 

0.000000 -0.000000 0.000000 
0.000000 0.000000 0.000000 
0.000000 0.000000 0.000000 

0.000000 0.000000 0.000000 
0.000000 -0.000000 0.000000 
0.000000 0.000000 0.000000 

0.000000 0.000000 0.000000 
0.000000 -0.000000 0.000000 
0.000000 0.000000 0.000000 

0.000000 -0.000000 0.000000 
0.000000 0.000000 0.000000 
0.000000 0.000000 0.000000 

0.000000 -0.000000 0.000000 
0.000000 -0.000000 0.000000 
0.000000 0.000000 0.000000 

-0.000000 0.000000 0.000000 
0.000000 0.000000 0.000000 
0.000000 0.000000 0.000000 

-0.000000 0.000000 0.000000 
0.000000 0.000000 0.000000 
0.000000 0.000000 0.000000 

-0.000000 -0.000000 0.000000 
0.000000 0.000000 0.000000 
0.000000 0.000000 0.000000 

