# vtk DataFile Version 3.0 
vtk output 
ASCII 
DATASET UNSTRUCTURED_GRID 
POINTS 175 float 
-0.026061 0.048618 0.000000 
-0.106992 0.116674 0.000000 
-0.054870 0.108441 0.000000 
-0.028809 0.154325 0.000000 
-0.186430 0.180749 0.000000 
-0.137056 0.178223 0.000000 
-0.114311 0.231870 0.000000 
-0.058186 0.216205 0.000000 
-0.029377 0.256382 0.000000 
-0.265318 0.243905 0.000000 
-0.217198 0.243105 0.000000 
-0.196633 0.300402 0.000000 
-0.143120 0.291693 0.000000 
-0.116563 0.338962 0.000000 
-0.058945 0.319316 0.000000 
-0.029568 0.357436 0.000000 
-0.344206 0.307061 0.000000 
-0.296791 0.307068 0.000000 
-0.278030 0.367011 0.000000 
-0.225992 0.361144 0.000000 
-0.201664 0.413261 0.000000 
-0.145749 0.399787 0.000000 
-0.117890 0.444130 0.000000 
-0.059328 0.421424 0.000000 
-0.029759 0.458490 0.000000 
-0.058559 0.007868 0.000000 
-0.162226 -0.012975 0.000000 
-0.123292 0.022643 0.000000 
-0.142917 0.071626 0.000000 
-0.261851 -0.035131 0.000000 
-0.229092 0.001896 0.000000 
-0.256854 0.053127 0.000000 
-0.209613 0.087240 0.000000 
-0.223062 0.134814 0.000000 
-0.360414 -0.057432 0.000000 
-0.329787 -0.020309 0.000000 
-0.361761 0.031493 0.000000 
-0.321587 0.067902 0.000000 
-0.341985 0.118136 0.000000 
-0.290702 0.150935 0.000000 
-0.302189 0.197670 0.000000 
-0.458977 -0.079732 0.000000 
-0.429420 -0.042657 0.000000 
-0.464588 0.009385 0.000000 
-0.427556 0.046412 0.000000 
-0.453135 0.097927 0.000000 
-0.407738 0.133242 0.000000 
-0.425037 0.182670 0.000000 
-0.370772 0.214299 0.000000 
-0.381315 0.260527 0.000000 
-0.046960 -0.042948 0.000000 
-0.095301 -0.136994 0.000000 
-0.098873 -0.084346 0.000000 
-0.149405 -0.069149 0.000000 
-0.140093 -0.228698 0.000000 
-0.148617 -0.179999 0.000000 
-0.205981 -0.169762 0.000000 
-0.203197 -0.111559 0.000000 
-0.248777 -0.092412 0.000000 
-0.184111 -0.319661 0.000000 
-0.194039 -0.272570 0.000000 
-0.254475 -0.265271 0.000000 
-0.257893 -0.211161 0.000000 
-0.309886 -0.195788 0.000000 
-0.303554 -0.135243 0.000000 
-0.347255 -0.115085 0.000000 
-0.228129 -0.410625 0.000000 
-0.238687 -0.364401 0.000000 
-0.301302 -0.359448 0.000000 
-0.307162 -0.307410 0.000000 
-0.363386 -0.295289 0.000000 
-0.362692 -0.237777 0.000000 
-0.412122 -0.220484 0.000000 
-0.403017 -0.158337 0.000000 
-0.445733 -0.137759 0.000000 
-0.000000 -0.065563 0.000000 
0.043388 -0.161993 0.000000 
-0.000000 -0.131961 0.000000 
-0.043388 -0.161993 0.000000 
0.087158 -0.254190 0.000000 
0.043769 -0.230491 0.000000 
-0.000000 -0.268957 0.000000 
-0.043769 -0.230491 0.000000 
-0.087158 -0.254190 0.000000 
0.130831 -0.345320 0.000000 
0.087824 -0.323721 0.000000 
0.044436 -0.366420 0.000000 
-0.000000 -0.335355 0.000000 
-0.044436 -0.366420 0.000000 
-0.087824 -0.323721 0.000000 
-0.130831 -0.345320 0.000000 
0.174505 -0.436449 0.000000 
0.131782 -0.415883 0.000000 
0.088871 -0.461750 0.000000 
0.044532 -0.433886 0.000000 
-0.000000 -0.470286 0.000000 
-0.044532 -0.433886 0.000000 
-0.088871 -0.461750 0.000000 
-0.131782 -0.415883 0.000000 
-0.174505 -0.436449 0.000000 
0.046960 -0.042948 0.000000 
0.149405 -0.069149 0.000000 
0.098873 -0.084346 0.000000 
0.095301 -0.136994 0.000000 
0.248777 -0.092412 0.000000 
0.203197 -0.111559 0.000000 
0.205981 -0.169762 0.000000 
0.148617 -0.179999 0.000000 
0.140093 -0.228698 0.000000 
0.347255 -0.115085 0.000000 
0.303554 -0.135243 0.000000 
0.309886 -0.195788 0.000000 
0.257893 -0.211161 0.000000 
0.254475 -0.265271 0.000000 
0.194039 -0.272570 0.000000 
0.184111 -0.319661 0.000000 
0.445733 -0.137759 0.000000 
0.403017 -0.158337 0.000000 
0.412122 -0.220484 0.000000 
0.362692 -0.237777 0.000000 
0.363386 -0.295289 0.000000 
0.307162 -0.307410 0.000000 
0.301302 -0.359448 0.000000 
0.238687 -0.364401 0.000000 
0.228129 -0.410625 0.000000 
0.058559 0.007868 0.000000 
0.142917 0.071626 0.000000 
0.123292 0.022643 0.000000 
0.162226 -0.012975 0.000000 
0.223062 0.134814 0.000000 
0.209613 0.087240 0.000000 
0.256854 0.053127 0.000000 
0.229092 0.001896 0.000000 
0.261851 -0.035131 0.000000 
0.302189 0.197670 0.000000 
0.290702 0.150935 0.000000 
0.341985 0.118136 0.000000 
0.321587 0.067902 0.000000 
0.361761 0.031493 0.000000 
0.329787 -0.020309 0.000000 
0.360414 -0.057432 0.000000 
0.381315 0.260527 0.000000 
0.370772 0.214299 0.000000 
0.425037 0.182670 0.000000 
0.407738 0.133242 0.000000 
0.453135 0.097927 0.000000 
0.427556 0.046412 0.000000 
0.464588 0.009385 0.000000 
0.429420 -0.042657 0.000000 
0.458977 -0.079732 0.000000 
0.026061 0.048618 0.000000 
0.028809 0.154325 0.000000 
0.054870 0.108441 0.000000 
0.106992 0.116674 0.000000 
0.029377 0.256382 0.000000 
0.058186 0.216205 0.000000 
0.114311 0.231870 0.000000 
0.137056 0.178223 0.000000 
0.186430 0.180749 0.000000 
0.029568 0.357436 0.000000 
0.058945 0.319316 0.000000 
0.116563 0.338962 0.000000 
0.143120 0.291693 0.000000 
0.196633 0.300402 0.000000 
0.217198 0.243105 0.000000 
0.265318 0.243905 0.000000 
0.029759 0.458490 0.000000 
0.059328 0.421424 0.000000 
0.117890 0.444130 0.000000 
0.145749 0.399787 0.000000 
0.201664 0.413261 0.000000 
0.225992 0.361144 0.000000 
0.278030 0.367011 0.000000 
0.296791 0.307068 0.000000 
0.344206 0.307061 0.000000 
CELLS 175 350 
1 0 
1 1 
1 2 
1 3 
1 4 
1 5 
1 6 
1 7 
1 8 
1 9 
1 10 
1 11 
1 12 
1 13 
1 14 
1 15 
1 16 
1 17 
1 18 
1 19 
1 20 
1 21 
1 22 
1 23 
1 24 
1 25 
1 26 
1 27 
1 28 
1 29 
1 30 
1 31 
1 32 
1 33 
1 34 
1 35 
1 36 
1 37 
1 38 
1 39 
1 40 
1 41 
1 42 
1 43 
1 44 
1 45 
1 46 
1 47 
1 48 
1 49 
1 50 
1 51 
1 52 
1 53 
1 54 
1 55 
1 56 
1 57 
1 58 
1 59 
1 60 
1 61 
1 62 
1 63 
1 64 
1 65 
1 66 
1 67 
1 68 
1 69 
1 70 
1 71 
1 72 
1 73 
1 74 
1 75 
1 76 
1 77 
1 78 
1 79 
1 80 
1 81 
1 82 
1 83 
1 84 
1 85 
1 86 
1 87 
1 88 
1 89 
1 90 
1 91 
1 92 
1 93 
1 94 
1 95 
1 96 
1 97 
1 98 
1 99 
1 100 
1 101 
1 102 
1 103 
1 104 
1 105 
1 106 
1 107 
1 108 
1 109 
1 110 
1 111 
1 112 
1 113 
1 114 
1 115 
1 116 
1 117 
1 118 
1 119 
1 120 
1 121 
1 122 
1 123 
1 124 
1 125 
1 126 
1 127 
1 128 
1 129 
1 130 
1 131 
1 132 
1 133 
1 134 
1 135 
1 136 
1 137 
1 138 
1 139 
1 140 
1 141 
1 142 
1 143 
1 144 
1 145 
1 146 
1 147 
1 148 
1 149 
1 150 
1 151 
1 152 
1 153 
1 154 
1 155 
1 156 
1 157 
1 158 
1 159 
1 160 
1 161 
1 162 
1 163 
1 164 
1 165 
1 166 
1 167 
1 168 
1 169 
1 170 
1 171 
1 172 
1 173 
1 174 
CELL_TYPES 175 
1 
1 
1 
1 
1 
1 
1 
1 
1 
1 
1 
1 
1 
1 
1 
1 
1 
1 
1 
1 
1 
1 
1 
1 
1 
1 
1 
1 
1 
1 
1 
1 
1 
1 
1 
1 
1 
1 
1 
1 
1 
1 
1 
1 
1 
1 
1 
1 
1 
1 
1 
1 
1 
1 
1 
1 
1 
1 
1 
1 
1 
1 
1 
1 
1 
1 
1 
1 
1 
1 
1 
1 
1 
1 
1 
1 
1 
1 
1 
1 
1 
1 
1 
1 
1 
1 
1 
1 
1 
1 
1 
1 
1 
1 
1 
1 
1 
1 
1 
1 
1 
1 
1 
1 
1 
1 
1 
1 
1 
1 
1 
1 
1 
1 
1 
1 
1 
1 
1 
1 
1 
1 
1 
1 
1 
1 
1 
1 
1 
1 
1 
1 
1 
1 
1 
1 
1 
1 
1 
1 
1 
1 
1 
1 
1 
1 
1 
1 
1 
1 
1 
1 
1 
1 
1 
1 
1 
1 
1 
1 
1 
1 
1 
1 
1 
1 
1 
1 
1 
1 
1 
1 
1 
1 
1 
POINT_DATA 175 
VECTORS X_GC float 
-0.026061 0.048618 0.000000 
-0.106992 0.116674 0.000000 
-0.054870 0.108441 0.000000 
-0.028809 0.154325 0.000000 
-0.186430 0.180749 0.000000 
-0.137056 0.178223 0.000000 
-0.114311 0.231870 0.000000 
-0.058186 0.216205 0.000000 
-0.029377 0.256382 0.000000 
-0.265318 0.243905 0.000000 
-0.217198 0.243105 0.000000 
-0.196633 0.300402 0.000000 
-0.143120 0.291693 0.000000 
-0.116563 0.338962 0.000000 
-0.058945 0.319316 0.000000 
-0.029568 0.357436 0.000000 
-0.344206 0.307061 0.000000 
-0.296791 0.307068 0.000000 
-0.278030 0.367011 0.000000 
-0.225992 0.361144 0.000000 
-0.201664 0.413261 0.000000 
-0.145749 0.399787 0.000000 
-0.117890 0.444130 0.000000 
-0.059328 0.421424 0.000000 
-0.029759 0.458490 0.000000 
-0.058559 0.007868 0.000000 
-0.162226 -0.012975 0.000000 
-0.123292 0.022643 0.000000 
-0.142917 0.071626 0.000000 
-0.261851 -0.035131 0.000000 
-0.229092 0.001896 0.000000 
-0.256854 0.053127 0.000000 
-0.209613 0.087240 0.000000 
-0.223062 0.134814 0.000000 
-0.360414 -0.057432 0.000000 
-0.329787 -0.020309 0.000000 
-0.361761 0.031493 0.000000 
-0.321587 0.067902 0.000000 
-0.341985 0.118136 0.000000 
-0.290702 0.150935 0.000000 
-0.302189 0.197670 0.000000 
-0.458977 -0.079732 0.000000 
-0.429420 -0.042657 0.000000 
-0.464588 0.009385 0.000000 
-0.427556 0.046412 0.000000 
-0.453135 0.097927 0.000000 
-0.407738 0.133242 0.000000 
-0.425037 0.182670 0.000000 
-0.370772 0.214299 0.000000 
-0.381315 0.260527 0.000000 
-0.046960 -0.042948 0.000000 
-0.095301 -0.136994 0.000000 
-0.098873 -0.084346 0.000000 
-0.149405 -0.069149 0.000000 
-0.140093 -0.228698 0.000000 
-0.148617 -0.179999 0.000000 
-0.205981 -0.169762 0.000000 
-0.203197 -0.111559 0.000000 
-0.248777 -0.092412 0.000000 
-0.184111 -0.319661 0.000000 
-0.194039 -0.272570 0.000000 
-0.254475 -0.265271 0.000000 
-0.257893 -0.211161 0.000000 
-0.309886 -0.195788 0.000000 
-0.303554 -0.135243 0.000000 
-0.347255 -0.115085 0.000000 
-0.228129 -0.410625 0.000000 
-0.238687 -0.364401 0.000000 
-0.301302 -0.359448 0.000000 
-0.307162 -0.307410 0.000000 
-0.363386 -0.295289 0.000000 
-0.362692 -0.237777 0.000000 
-0.412122 -0.220484 0.000000 
-0.403017 -0.158337 0.000000 
-0.445733 -0.137759 0.000000 
-0.000000 -0.065563 0.000000 
0.043388 -0.161993 0.000000 
-0.000000 -0.131961 0.000000 
-0.043388 -0.161993 0.000000 
0.087158 -0.254190 0.000000 
0.043769 -0.230491 0.000000 
-0.000000 -0.268957 0.000000 
-0.043769 -0.230491 0.000000 
-0.087158 -0.254190 0.000000 
0.130831 -0.345320 0.000000 
0.087824 -0.323721 0.000000 
0.044436 -0.366420 0.000000 
-0.000000 -0.335355 0.000000 
-0.044436 -0.366420 0.000000 
-0.087824 -0.323721 0.000000 
-0.130831 -0.345320 0.000000 
0.174505 -0.436449 0.000000 
0.131782 -0.415883 0.000000 
0.088871 -0.461750 0.000000 
0.044532 -0.433886 0.000000 
-0.000000 -0.470286 0.000000 
-0.044532 -0.433886 0.000000 
-0.088871 -0.461750 0.000000 
-0.131782 -0.415883 0.000000 
-0.174505 -0.436449 0.000000 
0.046960 -0.042948 0.000000 
0.149405 -0.069149 0.000000 
0.098873 -0.084346 0.000000 
0.095301 -0.136994 0.000000 
0.248777 -0.092412 0.000000 
0.203197 -0.111559 0.000000 
0.205981 -0.169762 0.000000 
0.148617 -0.179999 0.000000 
0.140093 -0.228698 0.000000 
0.347255 -0.115085 0.000000 
0.303554 -0.135243 0.000000 
0.309886 -0.195788 0.000000 
0.257893 -0.211161 0.000000 
0.254475 -0.265271 0.000000 
0.194039 -0.272570 0.000000 
0.184111 -0.319661 0.000000 
0.445733 -0.137759 0.000000 
0.403017 -0.158337 0.000000 
0.412122 -0.220484 0.000000 
0.362692 -0.237777 0.000000 
0.363386 -0.295289 0.000000 
0.307162 -0.307410 0.000000 
0.301302 -0.359448 0.000000 
0.238687 -0.364401 0.000000 
0.228129 -0.410625 0.000000 
0.058559 0.007868 0.000000 
0.142917 0.071626 0.000000 
0.123292 0.022643 0.000000 
0.162226 -0.012975 0.000000 
0.223062 0.134814 0.000000 
0.209613 0.087240 0.000000 
0.256854 0.053127 0.000000 
0.229092 0.001896 0.000000 
0.261851 -0.035131 0.000000 
0.302189 0.197670 0.000000 
0.290702 0.150935 0.000000 
0.341985 0.118136 0.000000 
0.321587 0.067902 0.000000 
0.361761 0.031493 0.000000 
0.329787 -0.020309 0.000000 
0.360414 -0.057432 0.000000 
0.381315 0.260527 0.000000 
0.370772 0.214299 0.000000 
0.425037 0.182670 0.000000 
0.407738 0.133242 0.000000 
0.453135 0.097927 0.000000 
0.427556 0.046412 0.000000 
0.464588 0.009385 0.000000 
0.429420 -0.042657 0.000000 
0.458977 -0.079732 0.000000 
0.026061 0.048618 0.000000 
0.028809 0.154325 0.000000 
0.054870 0.108441 0.000000 
0.106992 0.116674 0.000000 
0.029377 0.256382 0.000000 
0.058186 0.216205 0.000000 
0.114311 0.231870 0.000000 
0.137056 0.178223 0.000000 
0.186430 0.180749 0.000000 
0.029568 0.357436 0.000000 
0.058945 0.319316 0.000000 
0.116563 0.338962 0.000000 
0.143120 0.291693 0.000000 
0.196633 0.300402 0.000000 
0.217198 0.243105 0.000000 
0.265318 0.243905 0.000000 
0.029759 0.458490 0.000000 
0.059328 0.421424 0.000000 
0.117890 0.444130 0.000000 
0.145749 0.399787 0.000000 
0.201664 0.413261 0.000000 
0.225992 0.361144 0.000000 
0.278030 0.367011 0.000000 
0.296791 0.307068 0.000000 
0.344206 0.307061 0.000000 
VECTORS X_EC float 
0.338794 -0.156347 0.000000 
-0.609100 0.924905 0.000000 
0.713312 -0.963954 0.000000 
0.374519 0.416616 0.000000 
0.423588 0.059886 0.000000 
-0.218274 0.093989 0.000000 
-0.513962 -0.630250 0.000000 
0.756418 -0.418764 0.000000 
0.381900 -0.961156 0.000000 
-0.550868 -0.792718 0.000000 
0.823577 -0.781922 0.000000 
0.556234 0.444574 0.000000 
-0.139443 0.562143 0.000000 
-0.484677 -0.075982 0.000000 
0.766286 0.189233 0.000000 
0.384386 -0.325387 0.000000 
0.474677 0.354679 0.000000 
-0.141715 0.354583 0.000000 
-0.385608 -0.454645 0.000000 
0.937896 -0.375450 0.000000 
0.621631 0.920970 0.000000 
-0.105264 -0.897131 0.000000 
-0.467428 0.504243 0.000000 
0.771260 0.810772 0.000000 
0.386873 0.310382 0.000000 
0.761262 0.393788 0.000000 
0.108942 0.675164 0.000000 
-0.397202 0.194325 0.000000 
-0.142083 -0.466950 0.000000 
-0.595936 0.974275 0.000000 
0.978194 0.474409 0.000000 
-0.660903 -0.217216 0.000000 
0.724964 -0.677736 0.000000 
0.899809 0.680016 0.000000 
0.685384 -0.724673 0.000000 
0.287229 0.774169 0.000000 
0.702895 0.074840 0.000000 
0.180633 -0.416678 0.000000 
0.445811 0.905162 0.000000 
-0.220880 0.462376 0.000000 
-0.071546 -0.168549 0.000000 
-0.033296 -0.423621 0.000000 
-0.417537 -0.924130 0.000000 
0.039645 0.373307 0.000000 
-0.441768 -0.126564 0.000000 
-0.109248 -0.822015 0.000000 
-0.699407 0.701230 0.000000 
-0.474522 0.033951 0.000000 
0.820030 -0.393043 0.000000 
0.957100 0.982886 0.000000 
0.610485 -0.920206 0.000000 
-0.761092 0.349414 0.000000 
-0.714655 -0.361324 0.000000 
-0.057734 -0.566491 0.000000 
-0.178789 -0.412582 0.000000 
-0.067979 0.929992 0.000000 
0.677748 0.791788 0.000000 
0.641556 0.006043 0.000000 
-0.765897 -0.252436 0.000000 
0.393446 0.815427 0.000000 
0.522510 0.179697 0.000000 
-0.691820 0.081153 0.000000 
-0.647393 -0.649330 0.000000 
0.028512 -0.856857 0.000000 
-0.053800 0.325783 0.000000 
0.514316 0.053652 0.000000 
0.965681 0.043436 0.000000 
-0.897068 -0.580593 0.000000 
-0.083078 -0.647446 0.000000 
-0.006893 0.650030 0.000000 
0.724017 0.486397 0.000000 
0.714996 -0.290007 0.000000 
-0.642413 -0.523464 0.000000 
-0.760780 0.637555 0.000000 
-0.205471 0.359740 0.000000 
0.000000 -0.614904 0.000000 
-0.564049 0.686909 0.000000 
0.000000 0.281473 0.000000 
0.564049 0.686909 0.000000 
0.866949 -0.068436 0.000000 
-0.569003 -0.388367 0.000000 
0.000000 0.130921 0.000000 
0.569003 -0.388367 0.000000 
-0.866949 -0.068436 0.000000 
0.299194 -0.838186 0.000000 
0.858290 0.870230 0.000000 
-0.577662 -0.553324 0.000000 
0.000000 -0.972702 0.000000 
0.577662 -0.553324 0.000000 
-0.858290 0.870230 0.000000 
-0.299194 -0.838186 0.000000 
-0.268560 0.392064 0.000000 
0.286830 0.114422 0.000000 
0.844677 0.733621 0.000000 
-0.578910 0.357458 0.000000 
0.000000 0.848862 0.000000 
0.578910 0.357458 0.000000 
-0.844677 0.733621 0.000000 
-0.286830 0.114422 0.000000 
0.268560 0.392064 0.000000 
-0.610485 -0.920206 0.000000 
0.057734 -0.566491 0.000000 
0.714655 -0.361324 0.000000 
0.761092 0.349414 0.000000 
0.765897 -0.252436 0.000000 
-0.641556 0.006043 0.000000 
-0.677748 0.791788 0.000000 
0.067979 0.929992 0.000000 
0.178789 -0.412582 0.000000 
-0.514316 0.053652 0.000000 
0.053800 0.325783 0.000000 
-0.028512 -0.856857 0.000000 
0.647393 -0.649330 0.000000 
0.691820 0.081153 0.000000 
-0.522510 0.179697 0.000000 
-0.393446 0.815427 0.000000 
0.205471 0.359740 0.000000 
0.760780 0.637555 0.000000 
0.642413 -0.523464 0.000000 
-0.714996 -0.290007 0.000000 
-0.724017 0.486397 0.000000 
0.006894 0.650030 0.000000 
0.083078 -0.647446 0.000000 
0.897068 -0.580593 0.000000 
-0.965681 0.043436 0.000000 
-0.761262 0.393788 0.000000 
0.142083 -0.466950 0.000000 
0.397202 0.194325 0.000000 
-0.108942 0.675164 0.000000 
-0.899809 0.680016 0.000000 
-0.724964 -0.677736 0.000000 
0.660903 -0.217216 0.000000 
-0.978194 0.474409 0.000000 
0.595936 0.974275 0.000000 
0.071546 -0.168549 0.000000 
0.220880 0.462376 0.000000 
-0.445811 0.905162 0.000000 
-0.180633 -0.416678 0.000000 
-0.702895 0.074840 0.000000 
-0.287229 0.774169 0.000000 
-0.685384 -0.724673 0.000000 
-0.957100 0.982886 0.000000 
-0.820030 -0.393043 0.000000 
0.474522 0.033951 0.000000 
0.699407 0.701230 0.000000 
0.109248 -0.822015 0.000000 
0.441768 -0.126564 0.000000 
-0.039645 0.373307 0.000000 
0.417537 -0.924130 0.000000 
0.033296 -0.423621 0.000000 
-0.338794 -0.156347 0.000000 
-0.374519 0.416616 0.000000 
-0.713312 -0.963954 0.000000 
0.609100 0.924905 0.000000 
-0.381900 -0.961156 0.000000 
-0.756418 -0.418764 0.000000 
0.513962 -0.630250 0.000000 
0.218274 0.093989 0.000000 
-0.423588 0.059886 0.000000 
-0.384386 -0.325387 0.000000 
-0.766286 0.189233 0.000000 
0.484677 -0.075982 0.000000 
0.139443 0.562143 0.000000 
-0.556234 0.444574 0.000000 
-0.823577 -0.781922 0.000000 
0.550868 -0.792718 0.000000 
-0.386873 0.310382 0.000000 
-0.771260 0.810772 0.000000 
0.467428 0.504243 0.000000 
0.105264 -0.897131 0.000000 
-0.621631 0.920970 0.000000 
-0.937896 -0.375450 0.000000 
0.385608 -0.454645 0.000000 
0.141715 0.354583 0.000000 
-0.474677 0.354679 0.000000 
CELL_DATA 175 
SCALARS MASS float 
LOOKUP_TABLE default 
0.078183 
0.086427 
0.094672 
0.086427 
0.088131 
0.092111 
0.085854 
0.092111 
0.088131 
0.088705 
0.091000 
0.086983 
0.091556 
0.086983 
0.091000 
0.088705 
0.089278 
0.091574 
0.089278 
0.092722 
0.089278 
0.092722 
0.089278 
0.091574 
0.089278 
0.078183 
0.086427 
0.094672 
0.086427 
0.088131 
0.092111 
0.085854 
0.092111 
0.088131 
0.088705 
0.091000 
0.086983 
0.091556 
0.086983 
0.091000 
0.088705 
0.089278 
0.091574 
0.089278 
0.092722 
0.089278 
0.092722 
0.089278 
0.091574 
0.089278 
0.078183 
0.086427 
0.094672 
0.086427 
0.088131 
0.092111 
0.085854 
0.092111 
0.088131 
0.088705 
0.091000 
0.086983 
0.091556 
0.086983 
0.091000 
0.088705 
0.089278 
0.091574 
0.089278 
0.092722 
0.089278 
0.092722 
0.089278 
0.091574 
0.089278 
0.078183 
0.086427 
0.094672 
0.086427 
0.088131 
0.092111 
0.085854 
0.092111 
0.088131 
0.088705 
0.091000 
0.086983 
0.091556 
0.086983 
0.091000 
0.088705 
0.089278 
0.091574 
0.089278 
0.092722 
0.089278 
0.092722 
0.089278 
0.091574 
0.089278 
0.078183 
0.086427 
0.094672 
0.086427 
0.088131 
0.092111 
0.085854 
0.092111 
0.088131 
0.088705 
0.091000 
0.086983 
0.091556 
0.086983 
0.091000 
0.088705 
0.089278 
0.091574 
0.089278 
0.092722 
0.089278 
0.092722 
0.089278 
0.091574 
0.089278 
0.078183 
0.086427 
0.094672 
0.086427 
0.088131 
0.092111 
0.085854 
0.092111 
0.088131 
0.088705 
0.091000 
0.086983 
0.091556 
0.086983 
0.091000 
0.088705 
0.089278 
0.091574 
0.089278 
0.092722 
0.089278 
0.092722 
0.089278 
0.091574 
0.089278 
0.078183 
0.086427 
0.094672 
0.086427 
0.088131 
0.092111 
0.085854 
0.092111 
0.088131 
0.088705 
0.091000 
0.086983 
0.091556 
0.086983 
0.091000 
0.088705 
0.089278 
0.091574 
0.089278 
0.092722 
0.089278 
0.092722 
0.089278 
0.091574 
0.089278 
SCALARS MASS float 
LOOKUP_TABLE default 
0.078183 
0.086427 
0.094672 
0.086427 
0.088131 
0.092111 
0.085854 
0.092111 
0.088131 
0.088705 
0.091000 
0.086983 
0.091556 
0.086983 
0.091000 
0.088705 
0.089278 
0.091574 
0.089278 
0.092722 
0.089278 
0.092722 
0.089278 
0.091574 
0.089278 
0.078183 
0.086427 
0.094672 
0.086427 
0.088131 
0.092111 
0.085854 
0.092111 
0.088131 
0.088705 
0.091000 
0.086983 
0.091556 
0.086983 
0.091000 
0.088705 
0.089278 
0.091574 
0.089278 
0.092722 
0.089278 
0.092722 
0.089278 
0.091574 
0.089278 
0.078183 
0.086427 
0.094672 
0.086427 
0.088131 
0.092111 
0.085854 
0.092111 
0.088131 
0.088705 
0.091000 
0.086983 
0.091556 
0.086983 
0.091000 
0.088705 
0.089278 
0.091574 
0.089278 
0.092722 
0.089278 
0.092722 
0.089278 
0.091574 
0.089278 
0.078183 
0.086427 
0.094672 
0.086427 
0.088131 
0.092111 
0.085854 
0.092111 
0.088131 
0.088705 
0.091000 
0.086983 
0.091556 
0.086983 
0.091000 
0.088705 
0.089278 
0.091574 
0.089278 
0.092722 
0.089278 
0.092722 
0.089278 
0.091574 
0.089278 
0.078183 
0.086427 
0.094672 
0.086427 
0.088131 
0.092111 
0.085854 
0.092111 
0.088131 
0.088705 
0.091000 
0.086983 
0.091556 
0.086983 
0.091000 
0.088705 
0.089278 
0.091574 
0.089278 
0.092722 
0.089278 
0.092722 
0.089278 
0.091574 
0.089278 
0.078183 
0.086427 
0.094672 
0.086427 
0.088131 
0.092111 
0.085854 
0.092111 
0.088131 
0.088705 
0.091000 
0.086983 
0.091556 
0.086983 
0.091000 
0.088705 
0.089278 
0.091574 
0.089278 
0.092722 
0.089278 
0.092722 
0.089278 
0.091574 
0.089278 
0.078183 
0.086427 
0.094672 
0.086427 
0.088131 
0.092111 
0.085854 
0.092111 
0.088131 
0.088705 
0.091000 
0.086983 
0.091556 
0.086983 
0.091000 
0.088705 
0.089278 
0.091574 
0.089278 
0.092722 
0.089278 
0.092722 
0.089278 
0.091574 
0.089278 
SCALARS DENSITY float 
LOOKUP_TABLE default 
20.000000 
20.000000 
20.000000 
20.000000 
20.000000 
20.000000 
20.000000 
20.000000 
20.000000 
20.000000 
20.000000 
20.000000 
20.000000 
20.000000 
20.000000 
20.000000 
20.000000 
20.000000 
20.000000 
20.000000 
20.000000 
20.000000 
20.000000 
20.000000 
20.000000 
20.000000 
20.000000 
20.000000 
20.000000 
20.000000 
20.000000 
20.000000 
20.000000 
20.000000 
20.000000 
20.000000 
20.000000 
20.000000 
20.000000 
20.000000 
20.000000 
20.000000 
20.000000 
20.000000 
20.000000 
20.000000 
20.000000 
20.000000 
20.000000 
20.000000 
20.000000 
20.000000 
20.000000 
20.000000 
20.000000 
20.000000 
20.000000 
20.000000 
20.000000 
20.000000 
20.000000 
20.000000 
20.000000 
20.000000 
20.000000 
20.000000 
20.000000 
20.000000 
20.000000 
20.000000 
20.000000 
20.000000 
20.000000 
20.000000 
20.000000 
20.000000 
20.000000 
20.000000 
20.000000 
20.000000 
20.000000 
20.000000 
20.000000 
20.000000 
20.000000 
20.000000 
20.000000 
20.000000 
20.000000 
20.000000 
20.000000 
20.000000 
20.000000 
20.000000 
20.000000 
20.000000 
20.000000 
20.000000 
20.000000 
20.000000 
20.000000 
20.000000 
20.000000 
20.000000 
20.000000 
20.000000 
20.000000 
20.000000 
20.000000 
20.000000 
20.000000 
20.000000 
20.000000 
20.000000 
20.000000 
20.000000 
20.000000 
20.000000 
20.000000 
20.000000 
20.000000 
20.000000 
20.000000 
20.000000 
20.000000 
20.000000 
20.000000 
20.000000 
20.000000 
20.000000 
20.000000 
20.000000 
20.000000 
20.000000 
20.000000 
20.000000 
20.000000 
20.000000 
20.000000 
20.000000 
20.000000 
20.000000 
20.000000 
20.000000 
20.000000 
20.000000 
20.000000 
20.000000 
20.000000 
20.000000 
20.000000 
20.000000 
20.000000 
20.000000 
20.000000 
20.000000 
20.000000 
20.000000 
20.000000 
20.000000 
20.000000 
20.000000 
20.000000 
20.000000 
20.000000 
20.000000 
20.000000 
20.000000 
20.000000 
20.000000 
20.000000 
20.000000 
20.000000 
20.000000 
20.000000 
SCALARS ELEM_i float 
LOOKUP_TABLE default 
182 
210 
182 
183 
210 
210 
210 
183 
183 
237 
210 
211 
211 
211 
184 
184 
238 
238 
238 
211 
212 
211 
212 
185 
185 
182 
209 
209 
209 
236 
209 
236 
209 
210 
235 
236 
236 
236 
237 
237 
237 
262 
262 
263 
263 
263 
264 
264 
237 
238 
181 
208 
208 
208 
207 
208 
208 
208 
235 
207 
207 
234 
234 
234 
235 
235 
206 
233 
233 
234 
234 
234 
261 
262 
262 
181 
181 
181 
181 
153 
180 
180 
180 
207 
152 
153 
179 
179 
179 
207 
206 
152 
152 
152 
179 
179 
179 
206 
206 
206 
181 
154 
154 
154 
127 
154 
154 
154 
153 
127 
127 
126 
126 
126 
153 
153 
100 
100 
99 
126 
126 
126 
125 
125 
152 
182 
155 
155 
155 
156 
155 
128 
155 
128 
129 
129 
129 
128 
128 
128 
127 
130 
129 
102 
102 
101 
101 
101 
100 
100 
182 
183 
182 
156 
183 
183 
156 
156 
156 
184 
184 
157 
157 
157 
156 
129 
185 
185 
158 
157 
158 
157 
130 
130 
130 
VECTORS VELOCITY float 
0.000000 -0.328046 0.000000 
0.000000 -0.328046 0.000000 
0.000000 -0.328046 0.000000 
0.000000 -0.328046 0.000000 
-0.000000 -0.328046 0.000000 
-0.000000 -0.328046 0.000000 
-0.000000 -0.328046 0.000000 
-0.000000 -0.328046 0.000000 
-0.000000 -0.328046 0.000000 
-0.000000 -0.328046 0.000000 
-0.000000 -0.328046 0.000000 
-0.000000 -0.328046 0.000000 
-0.000000 -0.328046 0.000000 
-0.000000 -0.328046 0.000000 
-0.000000 -0.328046 0.000000 
-0.000000 -0.328046 0.000000 
0.000000 -0.328046 0.000000 
-0.000000 -0.328046 0.000000 
-0.000000 -0.328046 0.000000 
-0.000000 -0.328046 0.000000 
0.000000 -0.328046 0.000000 
-0.000000 -0.328046 0.000000 
0.000000 -0.328046 0.000000 
-0.000000 -0.328046 0.000000 
-0.000000 -0.328046 0.000000 
-0.000000 -0.328046 0.000000 
0.000000 -0.328046 0.000000 
0.000000 -0.328046 0.000000 
0.000000 -0.328046 0.000000 
0.000000 -0.328046 0.000000 
0.000000 -0.328046 0.000000 
0.000000 -0.328046 0.000000 
0.000000 -0.328046 0.000000 
0.000000 -0.328046 0.000000 
0.000000 -0.328046 0.000000 
0.000000 -0.328046 0.000000 
0.000000 -0.328046 0.000000 
0.000000 -0.328046 0.000000 
-0.000000 -0.328046 0.000000 
0.000000 -0.328046 0.000000 
0.000000 -0.328046 0.000000 
-0.000000 -0.328046 0.000000 
0.000000 -0.328046 0.000000 
-0.000000 -0.328046 0.000000 
-0.000000 -0.328046 0.000000 
-0.000000 -0.328046 0.000000 
-0.000000 -0.328046 0.000000 
0.000000 -0.328046 0.000000 
0.000000 -0.328046 0.000000 
0.000000 -0.328046 0.000000 
-0.000000 -0.328046 0.000000 
0.000000 -0.328046 0.000000 
-0.000000 -0.328046 0.000000 
-0.000000 -0.328046 0.000000 
-0.000000 -0.328046 0.000000 
-0.000000 -0.328046 0.000000 
-0.000000 -0.328046 0.000000 
-0.000000 -0.328046 0.000000 
0.000000 -0.328046 0.000000 
-0.000000 -0.328046 0.000000 
-0.000000 -0.328046 0.000000 
-0.000000 -0.328046 0.000000 
-0.000000 -0.328046 0.000000 
-0.000000 -0.328046 0.000000 
0.000000 -0.328046 0.000000 
0.000000 -0.328046 0.000000 
0.000000 -0.328046 0.000000 
-0.000000 -0.328046 0.000000 
-0.000000 -0.328046 0.000000 
-0.000000 -0.328046 0.000000 
-0.000000 -0.328046 0.000000 
-0.000000 -0.328046 0.000000 
-0.000000 -0.328046 0.000000 
0.000000 -0.328046 0.000000 
-0.000000 -0.328046 0.000000 
-0.000000 -0.328046 0.000000 
0.000000 -0.328046 0.000000 
0.000000 -0.328046 0.000000 
0.000000 -0.328046 0.000000 
0.000000 -0.328046 0.000000 
0.000000 -0.328046 0.000000 
0.000000 -0.328046 0.000000 
0.000000 -0.328046 0.000000 
0.000000 -0.328046 0.000000 
0.000000 -0.328046 0.000000 
0.000000 -0.328046 0.000000 
0.000000 -0.328046 0.000000 
0.000000 -0.328046 0.000000 
0.000000 -0.328046 0.000000 
0.000000 -0.328046 0.000000 
-0.000000 -0.328046 0.000000 
-0.000000 -0.328046 0.000000 
0.000000 -0.328046 0.000000 
0.000000 -0.328046 0.000000 
0.000000 -0.328046 0.000000 
0.000000 -0.328046 0.000000 
0.000000 -0.328046 0.000000 
0.000000 -0.328046 0.000000 
0.000000 -0.328046 0.000000 
0.000000 -0.328046 0.000000 
-0.000000 -0.328046 0.000000 
-0.000000 -0.328046 0.000000 
-0.000000 -0.328046 0.000000 
0.000000 -0.328046 0.000000 
-0.000000 -0.328046 0.000000 
-0.000000 -0.328046 0.000000 
0.000000 -0.328046 0.000000 
0.000000 -0.328046 0.000000 
0.000000 -0.328046 0.000000 
-0.000000 -0.328046 0.000000 
-0.000000 -0.328046 0.000000 
-0.000000 -0.328046 0.000000 
-0.000000 -0.328046 0.000000 
0.000000 -0.328046 0.000000 
0.000000 -0.328046 0.000000 
0.000000 -0.328046 0.000000 
0.000000 -0.328046 0.000000 
-0.000000 -0.328046 0.000000 
0.000000 -0.328046 0.000000 
-0.000000 -0.328046 0.000000 
0.000000 -0.328046 0.000000 
0.000000 -0.328046 0.000000 
0.000000 -0.328046 0.000000 
0.000000 -0.328046 0.000000 
-0.000000 -0.328046 0.000000 
-0.000000 -0.328046 0.000000 
0.000000 -0.328046 0.000000 
-0.000000 -0.328046 0.000000 
-0.000000 -0.328046 0.000000 
0.000000 -0.328046 0.000000 
0.000000 -0.328046 0.000000 
0.000000 -0.328046 0.000000 
-0.000000 -0.328046 0.000000 
-0.000000 -0.328046 0.000000 
-0.000000 -0.328046 0.000000 
0.000000 -0.328046 0.000000 
0.000000 -0.328046 0.000000 
0.000000 -0.328046 0.000000 
0.000000 -0.328046 0.000000 
0.000000 -0.328046 0.000000 
0.000000 -0.328046 0.000000 
-0.000000 -0.328046 0.000000 
-0.000000 -0.328046 0.000000 
-0.000000 -0.328046 0.000000 
0.000000 -0.328046 0.000000 
0.000000 -0.328046 0.000000 
0.000000 -0.328046 0.000000 
0.000000 -0.328046 0.000000 
0.000000 -0.328046 0.000000 
0.000000 -0.328046 0.000000 
0.000000 -0.328046 0.000000 
0.000000 -0.328046 0.000000 
0.000000 -0.328046 0.000000 
0.000000 -0.328046 0.000000 
-0.000000 -0.328046 0.000000 
-0.000000 -0.328046 0.000000 
-0.000000 -0.328046 0.000000 
-0.000000 -0.328046 0.000000 
-0.000000 -0.328046 0.000000 
-0.000000 -0.328046 0.000000 
-0.000000 -0.328046 0.000000 
-0.000000 -0.328046 0.000000 
-0.000000 -0.328046 0.000000 
-0.000000 -0.328046 0.000000 
-0.000000 -0.328046 0.000000 
-0.000000 -0.328046 0.000000 
-0.000000 -0.328046 0.000000 
-0.000000 -0.328046 0.000000 
-0.000000 -0.328046 0.000000 
-0.000000 -0.328046 0.000000 
-0.000000 -0.328046 0.000000 
-0.000000 -0.328046 0.000000 
-0.000000 -0.328046 0.000000 
-0.000000 -0.328046 0.000000 
-0.000000 -0.328046 0.000000 
TENSORS STRESS float 
-0.000000 -0.000000 0.000000 
0.000000 0.000000 0.000000 
0.000000 0.000000 0.000000 

-0.000000 0.000000 0.000000 
0.000000 -0.000000 0.000000 
0.000000 0.000000 0.000000 

0.000000 -0.000000 0.000000 
0.000000 0.000000 0.000000 
0.000000 0.000000 0.000000 

-0.000000 -0.000000 0.000000 
0.000000 -0.000000 0.000000 
0.000000 0.000000 0.000000 

0.000000 0.000000 0.000000 
0.000000 -0.000000 0.000000 
0.000000 0.000000 0.000000 

0.000000 0.000000 0.000000 
0.000000 0.000000 0.000000 
0.000000 0.000000 0.000000 

0.000000 0.000000 0.000000 
0.000000 -0.000000 0.000000 
0.000000 0.000000 0.000000 

-0.000000 0.000000 0.000000 
0.000000 -0.000000 0.000000 
0.000000 0.000000 0.000000 

-0.000000 0.000000 0.000000 
0.000000 -0.000000 0.000000 
0.000000 0.000000 0.000000 

0.000000 -0.000000 0.000000 
0.000000 0.000000 0.000000 
0.000000 0.000000 0.000000 

-0.000000 0.000000 0.000000 
0.000000 -0.000000 0.000000 
0.000000 0.000000 0.000000 

0.000000 -0.000000 0.000000 
0.000000 0.000000 0.000000 
0.000000 0.000000 0.000000 

0.000000 -0.000000 0.000000 
0.000000 -0.000000 0.000000 
0.000000 0.000000 0.000000 

-0.000000 -0.000000 0.000000 
0.000000 0.000000 0.000000 
0.000000 0.000000 0.000000 

-0.000000 -0.000000 0.000000 
0.000000 -0.000000 0.000000 
0.000000 0.000000 0.000000 

0.000000 0.000000 0.000000 
0.000000 -0.000000 0.000000 
0.000000 0.000000 0.000000 

-0.000000 -0.000000 0.000000 
0.000000 -0.000000 0.000000 
0.000000 0.000000 0.000000 

0.000000 0.000000 0.000000 
0.000000 -0.000000 0.000000 
0.000000 0.000000 0.000000 

0.000000 0.000000 0.000000 
0.000000 0.000000 0.000000 
0.000000 0.000000 0.000000 

-0.000000 0.000000 0.000000 
0.000000 0.000000 0.000000 
0.000000 0.000000 0.000000 

-0.000000 -0.000000 0.000000 
0.000000 0.000000 0.000000 
0.000000 0.000000 0.000000 

-0.000000 -0.000000 0.000000 
0.000000 -0.000000 0.000000 
0.000000 0.000000 0.000000 

-0.000000 -0.000000 0.000000 
0.000000 -0.000000 0.000000 
0.000000 0.000000 0.000000 

0.000000 -0.000000 0.000000 
0.000000 0.000000 0.000000 
0.000000 0.000000 0.000000 

0.000000 -0.000000 0.000000 
0.000000 -0.000000 0.000000 
0.000000 0.000000 0.000000 

-0.000000 -0.000000 0.000000 
0.000000 0.000000 0.000000 
0.000000 0.000000 0.000000 

0.000000 0.000000 0.000000 
0.000000 0.000000 0.000000 
0.000000 0.000000 0.000000 

0.000000 0.000000 0.000000 
0.000000 0.000000 0.000000 
0.000000 0.000000 0.000000 

0.000000 -0.000000 0.000000 
0.000000 0.000000 0.000000 
0.000000 0.000000 0.000000 

0.000000 -0.000000 0.000000 
0.000000 0.000000 0.000000 
0.000000 0.000000 0.000000 

0.000000 -0.000000 0.000000 
0.000000 0.000000 0.000000 
0.000000 0.000000 0.000000 

0.000000 -0.000000 0.000000 
0.000000 0.000000 0.000000 
0.000000 0.000000 0.000000 

0.000000 -0.000000 0.000000 
0.000000 0.000000 0.000000 
0.000000 0.000000 0.000000 

-0.000000 0.000000 0.000000 
0.000000 -0.000000 0.000000 
0.000000 0.000000 0.000000 

0.000000 -0.000000 0.000000 
0.000000 -0.000000 0.000000 
0.000000 0.000000 0.000000 

-0.000000 -0.000000 0.000000 
0.000000 -0.000000 0.000000 
0.000000 0.000000 0.000000 

0.000000 -0.000000 0.000000 
0.000000 -0.000000 0.000000 
0.000000 0.000000 0.000000 

0.000000 -0.000000 0.000000 
0.000000 -0.000000 0.000000 
0.000000 0.000000 0.000000 

0.000000 0.000000 0.000000 
0.000000 -0.000000 0.000000 
0.000000 0.000000 0.000000 

0.000000 0.000000 0.000000 
0.000000 -0.000000 0.000000 
0.000000 0.000000 0.000000 

0.000000 0.000000 0.000000 
0.000000 -0.000000 0.000000 
0.000000 0.000000 0.000000 

0.000000 -0.000000 0.000000 
0.000000 -0.000000 0.000000 
0.000000 0.000000 0.000000 

0.000000 -0.000000 0.000000 
0.000000 -0.000000 0.000000 
0.000000 0.000000 0.000000 

-0.000000 -0.000000 0.000000 
0.000000 -0.000000 0.000000 
0.000000 0.000000 0.000000 

-0.000000 -0.000000 0.000000 
0.000000 -0.000000 0.000000 
0.000000 0.000000 0.000000 

-0.000000 -0.000000 0.000000 
0.000000 -0.000000 0.000000 
0.000000 0.000000 0.000000 

0.000000 -0.000000 0.000000 
0.000000 0.000000 0.000000 
0.000000 0.000000 0.000000 

0.000000 -0.000000 0.000000 
0.000000 0.000000 0.000000 
0.000000 0.000000 0.000000 

0.000000 0.000000 0.000000 
0.000000 0.000000 0.000000 
0.000000 0.000000 0.000000 

-0.000000 -0.000000 0.000000 
0.000000 -0.000000 0.000000 
0.000000 0.000000 0.000000 

-0.000000 -0.000000 0.000000 
0.000000 0.000000 0.000000 
0.000000 0.000000 0.000000 

0.000000 -0.000000 0.000000 
0.000000 0.000000 0.000000 
0.000000 0.000000 0.000000 

-0.000000 -0.000000 0.000000 
0.000000 0.000000 0.000000 
0.000000 0.000000 0.000000 

-0.000000 -0.000000 0.000000 
0.000000 0.000000 0.000000 
0.000000 0.000000 0.000000 

0.000000 -0.000000 0.000000 
0.000000 -0.000000 0.000000 
0.000000 0.000000 0.000000 

0.000000 -0.000000 0.000000 
0.000000 0.000000 0.000000 
0.000000 0.000000 0.000000 

0.000000 0.000000 0.000000 
0.000000 0.000000 0.000000 
0.000000 0.000000 0.000000 

-0.000000 0.000000 0.000000 
0.000000 -0.000000 0.000000 
0.000000 0.000000 0.000000 

0.000000 -0.000000 0.000000 
0.000000 -0.000000 0.000000 
0.000000 0.000000 0.000000 

0.000000 -0.000000 0.000000 
0.000000 -0.000000 0.000000 
0.000000 0.000000 0.000000 

0.000000 -0.000000 0.000000 
0.000000 -0.000000 0.000000 
0.000000 0.000000 0.000000 

0.000000 -0.000000 0.000000 
0.000000 0.000000 0.000000 
0.000000 0.000000 0.000000 

0.000000 -0.000000 0.000000 
0.000000 0.000000 0.000000 
0.000000 0.000000 0.000000 

0.000000 -0.000000 0.000000 
0.000000 0.000000 0.000000 
0.000000 0.000000 0.000000 

0.000000 -0.000000 0.000000 
0.000000 -0.000000 0.000000 
0.000000 0.000000 0.000000 

0.000000 -0.000000 0.000000 
0.000000 -0.000000 0.000000 
0.000000 0.000000 0.000000 

-0.000000 -0.000000 0.000000 
0.000000 -0.000000 0.000000 
0.000000 0.000000 0.000000 

-0.000000 0.000000 0.000000 
0.000000 -0.000000 0.000000 
0.000000 0.000000 0.000000 

-0.000000 0.000000 0.000000 
0.000000 -0.000000 0.000000 
0.000000 0.000000 0.000000 

0.000000 0.000000 0.000000 
0.000000 0.000000 0.000000 
0.000000 0.000000 0.000000 

0.000000 0.000000 0.000000 
0.000000 0.000000 0.000000 
0.000000 0.000000 0.000000 

0.000000 -0.000000 0.000000 
0.000000 0.000000 0.000000 
0.000000 0.000000 0.000000 

0.000000 -0.000000 0.000000 
0.000000 0.000000 0.000000 
0.000000 0.000000 0.000000 

0.000000 -0.000000 0.000000 
0.000000 0.000000 0.000000 
0.000000 0.000000 0.000000 

0.000000 -0.000000 0.000000 
0.000000 -0.000000 0.000000 
0.000000 0.000000 0.000000 

-0.000000 -0.000000 0.000000 
0.000000 0.000000 0.000000 
0.000000 0.000000 0.000000 

-0.000000 -0.000000 0.000000 
0.000000 0.000000 0.000000 
0.000000 0.000000 0.000000 

-0.000000 -0.000000 0.000000 
0.000000 0.000000 0.000000 
0.000000 0.000000 0.000000 

-0.000000 -0.000000 0.000000 
0.000000 0.000000 0.000000 
0.000000 0.000000 0.000000 

-0.000000 -0.000000 0.000000 
0.000000 -0.000000 0.000000 
0.000000 0.000000 0.000000 

-0.000000 -0.000000 0.000000 
0.000000 0.000000 0.000000 
0.000000 0.000000 0.000000 

-0.000000 0.000000 0.000000 
0.000000 -0.000000 0.000000 
0.000000 0.000000 0.000000 

-0.000000 -0.000000 0.000000 
0.000000 -0.000000 0.000000 
0.000000 0.000000 0.000000 

0.000000 -0.000000 0.000000 
0.000000 -0.000000 0.000000 
0.000000 0.000000 0.000000 

0.000000 -0.000000 0.000000 
0.000000 0.000000 0.000000 
0.000000 0.000000 0.000000 

0.000000 -0.000000 0.000000 
0.000000 0.000000 0.000000 
0.000000 0.000000 0.000000 

0.000000 -0.000000 0.000000 
0.000000 0.000000 0.000000 
0.000000 0.000000 0.000000 

0.000000 -0.000000 0.000000 
0.000000 0.000000 0.000000 
0.000000 0.000000 0.000000 

-0.000000 0.000000 0.000000 
0.000000 -0.000000 0.000000 
0.000000 0.000000 0.000000 

0.000000 -0.000000 0.000000 
0.000000 -0.000000 0.000000 
0.000000 0.000000 0.000000 

0.000000 0.000000 0.000000 
0.000000 -0.000000 0.000000 
0.000000 0.000000 0.000000 

0.000000 -0.000000 0.000000 
0.000000 0.000000 0.000000 
0.000000 0.000000 0.000000 

0.000000 -0.000000 0.000000 
0.000000 0.000000 0.000000 
0.000000 0.000000 0.000000 

0.000000 -0.000000 0.000000 
0.000000 0.000000 0.000000 
0.000000 0.000000 0.000000 

0.000000 -0.000000 0.000000 
0.000000 0.000000 0.000000 
0.000000 0.000000 0.000000 

0.000000 0.000000 0.000000 
0.000000 0.000000 0.000000 
0.000000 0.000000 0.000000 

0.000000 0.000000 0.000000 
0.000000 0.000000 0.000000 
0.000000 0.000000 0.000000 

-0.000000 0.000000 0.000000 
0.000000 -0.000000 0.000000 
0.000000 0.000000 0.000000 

-0.000000 0.000000 0.000000 
0.000000 -0.000000 0.000000 
0.000000 0.000000 0.000000 

0.000000 -0.000000 0.000000 
0.000000 0.000000 0.000000 
0.000000 0.000000 0.000000 

-0.000000 -0.000000 0.000000 
0.000000 0.000000 0.000000 
0.000000 0.000000 0.000000 

-0.000000 -0.000000 0.000000 
0.000000 0.000000 0.000000 
0.000000 0.000000 0.000000 

-0.000000 -0.000000 0.000000 
0.000000 0.000000 0.000000 
0.000000 0.000000 0.000000 

-0.000000 -0.000000 0.000000 
0.000000 0.000000 0.000000 
0.000000 0.000000 0.000000 

0.000000 0.000000 0.000000 
0.000000 0.000000 0.000000 
0.000000 0.000000 0.000000 

-0.000000 -0.000000 0.000000 
0.000000 0.000000 0.000000 
0.000000 0.000000 0.000000 

-0.000000 -0.000000 0.000000 
0.000000 0.000000 0.000000 
0.000000 0.000000 0.000000 

-0.000000 -0.000000 0.000000 
0.000000 0.000000 0.000000 
0.000000 0.000000 0.000000 

-0.000000 -0.000000 0.000000 
0.000000 0.000000 0.000000 
0.000000 0.000000 0.000000 

-0.000000 0.000000 0.000000 
0.000000 -0.000000 0.000000 
0.000000 0.000000 0.000000 

0.000000 0.000000 0.000000 
0.000000 0.000000 0.000000 
0.000000 0.000000 0.000000 

0.000000 0.000000 0.000000 
0.000000 0.000000 0.000000 
0.000000 0.000000 0.000000 

0.000000 0.000000 0.000000 
0.000000 0.000000 0.000000 
0.000000 0.000000 0.000000 

-0.000000 0.000000 0.000000 
0.000000 -0.000000 0.000000 
0.000000 0.000000 0.000000 

-0.000000 -0.000000 0.000000 
0.000000 0.000000 0.000000 
0.000000 0.000000 0.000000 

0.000000 -0.000000 0.000000 
0.000000 0.000000 0.000000 
0.000000 0.000000 0.000000 

0.000000 0.000000 0.000000 
0.000000 0.000000 0.000000 
0.000000 0.000000 0.000000 

-0.000000 -0.000000 0.000000 
0.000000 -0.000000 0.000000 
0.000000 0.000000 0.000000 

-0.000000 -0.000000 0.000000 
0.000000 -0.000000 0.000000 
0.000000 0.000000 0.000000 

0.000000 0.000000 0.000000 
0.000000 0.000000 0.000000 
0.000000 0.000000 0.000000 

0.000000 0.000000 0.000000 
0.000000 -0.000000 0.000000 
0.000000 0.000000 0.000000 

0.000000 0.000000 0.000000 
0.000000 0.000000 0.000000 
0.000000 0.000000 0.000000 

0.000000 -0.000000 0.000000 
0.000000 0.000000 0.000000 
0.000000 0.000000 0.000000 

0.000000 -0.000000 0.000000 
0.000000 0.000000 0.000000 
0.000000 0.000000 0.000000 

0.000000 -0.000000 0.000000 
0.000000 0.000000 0.000000 
0.000000 0.000000 0.000000 

-0.000000 -0.000000 0.000000 
0.000000 -0.000000 0.000000 
0.000000 0.000000 0.000000 

-0.000000 -0.000000 0.000000 
0.000000 -0.000000 0.000000 
0.000000 0.000000 0.000000 

-0.000000 0.000000 0.000000 
0.000000 -0.000000 0.000000 
0.000000 0.000000 0.000000 

-0.000000 -0.000000 0.000000 
0.000000 -0.000000 0.000000 
0.000000 0.000000 0.000000 

0.000000 -0.000000 0.000000 
0.000000 0.000000 0.000000 
0.000000 0.000000 0.000000 

-0.000000 0.000000 0.000000 
0.000000 -0.000000 0.000000 
0.000000 0.000000 0.000000 

-0.000000 0.000000 0.000000 
0.000000 -0.000000 0.000000 
0.000000 0.000000 0.000000 

-0.000000 0.000000 0.000000 
0.000000 -0.000000 0.000000 
0.000000 0.000000 0.000000 

-0.000000 0.000000 0.000000 
0.000000 -0.000000 0.000000 
0.000000 0.000000 0.000000 

0.000000 -0.000000 0.000000 
0.000000 -0.000000 0.000000 
0.000000 0.000000 0.000000 

-0.000000 0.000000 0.000000 
0.000000 -0.000000 0.000000 
0.000000 0.000000 0.000000 

-0.000000 0.000000 0.000000 
0.000000 -0.000000 0.000000 
0.000000 0.000000 0.000000 

0.000000 0.000000 0.000000 
0.000000 0.000000 0.000000 
0.000000 0.000000 0.000000 

0.000000 0.000000 0.000000 
0.000000 0.000000 0.000000 
0.000000 0.000000 0.000000 

0.000000 0.000000 0.000000 
0.000000 0.000000 0.000000 
0.000000 0.000000 0.000000 

0.000000 0.000000 0.000000 
0.000000 0.000000 0.000000 
0.000000 0.000000 0.000000 

0.000000 -0.000000 0.000000 
0.000000 0.000000 0.000000 
0.000000 0.000000 0.000000 

-0.000000 -0.000000 0.000000 
0.000000 -0.000000 0.000000 
0.000000 0.000000 0.000000 

0.000000 0.000000 0.000000 
0.000000 0.000000 0.000000 
0.000000 0.000000 0.000000 

0.000000 0.000000 0.000000 
0.000000 -0.000000 0.000000 
0.000000 0.000000 0.000000 

0.000000 0.000000 0.000000 
0.000000 0.000000 0.000000 
0.000000 0.000000 0.000000 

-0.000000 0.000000 0.000000 
0.000000 -0.000000 0.000000 
0.000000 0.000000 0.000000 

0.000000 0.000000 0.000000 
0.000000 0.000000 0.000000 
0.000000 0.000000 0.000000 

-0.000000 0.000000 0.000000 
0.000000 -0.000000 0.000000 
0.000000 0.000000 0.000000 

-0.000000 0.000000 0.000000 
0.000000 -0.000000 0.000000 
0.000000 0.000000 0.000000 

-0.000000 -0.000000 0.000000 
0.000000 -0.000000 0.000000 
0.000000 0.000000 0.000000 

-0.000000 -0.000000 0.000000 
0.000000 -0.000000 0.000000 
0.000000 0.000000 0.000000 

-0.000000 -0.000000 0.000000 
0.000000 -0.000000 0.000000 
0.000000 0.000000 0.000000 

0.000000 0.000000 0.000000 
0.000000 0.000000 0.000000 
0.000000 0.000000 0.000000 

-0.000000 0.000000 0.000000 
0.000000 0.000000 0.000000 
0.000000 0.000000 0.000000 

-0.000000 -0.000000 0.000000 
0.000000 0.000000 0.000000 
0.000000 0.000000 0.000000 

-0.000000 -0.000000 0.000000 
0.000000 0.000000 0.000000 
0.000000 0.000000 0.000000 

0.000000 -0.000000 0.000000 
0.000000 0.000000 0.000000 
0.000000 0.000000 0.000000 

0.000000 -0.000000 0.000000 
0.000000 0.000000 0.000000 
0.000000 0.000000 0.000000 

0.000000 0.000000 0.000000 
0.000000 0.000000 0.000000 
0.000000 0.000000 0.000000 

0.000000 0.000000 0.000000 
0.000000 0.000000 0.000000 
0.000000 0.000000 0.000000 

-0.000000 -0.000000 0.000000 
0.000000 0.000000 0.000000 
0.000000 0.000000 0.000000 

-0.000000 0.000000 0.000000 
0.000000 0.000000 0.000000 
0.000000 0.000000 0.000000 

-0.000000 0.000000 0.000000 
0.000000 0.000000 0.000000 
0.000000 0.000000 0.000000 

-0.000000 -0.000000 0.000000 
0.000000 0.000000 0.000000 
0.000000 0.000000 0.000000 

0.000000 -0.000000 0.000000 
0.000000 -0.000000 0.000000 
0.000000 0.000000 0.000000 

0.000000 -0.000000 0.000000 
0.000000 0.000000 0.000000 
0.000000 0.000000 0.000000 

0.000000 -0.000000 0.000000 
0.000000 -0.000000 0.000000 
0.000000 0.000000 0.000000 

0.000000 -0.000000 0.000000 
0.000000 0.000000 0.000000 
0.000000 0.000000 0.000000 

-0.000000 -0.000000 0.000000 
0.000000 0.000000 0.000000 
0.000000 0.000000 0.000000 

0.000000 0.000000 0.000000 
0.000000 0.000000 0.000000 
0.000000 0.000000 0.000000 

-0.000000 0.000000 0.000000 
0.000000 -0.000000 0.000000 
0.000000 0.000000 0.000000 

-0.000000 -0.000000 0.000000 
0.000000 -0.000000 0.000000 
0.000000 0.000000 0.000000 

0.000000 0.000000 0.000000 
0.000000 0.000000 0.000000 
0.000000 0.000000 0.000000 

0.000000 0.000000 0.000000 
0.000000 0.000000 0.000000 
0.000000 0.000000 0.000000 

TENSORS STRAIN float 
-0.000000 -0.000000 0.000000 
0.000000 0.000000 0.000000 
0.000000 0.000000 0.000000 

0.000000 0.000000 0.000000 
0.000000 -0.000000 0.000000 
0.000000 0.000000 0.000000 

-0.000000 -0.000000 0.000000 
0.000000 0.000000 0.000000 
0.000000 0.000000 0.000000 

-0.000000 -0.000000 0.000000 
0.000000 -0.000000 0.000000 
0.000000 0.000000 0.000000 

0.000000 0.000000 0.000000 
0.000000 -0.000000 0.000000 
0.000000 0.000000 0.000000 

0.000000 0.000000 0.000000 
0.000000 0.000000 0.000000 
0.000000 0.000000 0.000000 

0.000000 0.000000 0.000000 
0.000000 -0.000000 0.000000 
0.000000 0.000000 0.000000 

-0.000000 0.000000 0.000000 
0.000000 -0.000000 0.000000 
0.000000 0.000000 0.000000 

-0.000000 0.000000 0.000000 
0.000000 -0.000000 0.000000 
0.000000 0.000000 0.000000 

0.000000 -0.000000 0.000000 
0.000000 -0.000000 0.000000 
0.000000 0.000000 0.000000 

0.000000 0.000000 0.000000 
0.000000 -0.000000 0.000000 
0.000000 0.000000 0.000000 

0.000000 -0.000000 0.000000 
0.000000 0.000000 0.000000 
0.000000 0.000000 0.000000 

0.000000 -0.000000 0.000000 
0.000000 -0.000000 0.000000 
0.000000 0.000000 0.000000 

-0.000000 -0.000000 0.000000 
0.000000 0.000000 0.000000 
0.000000 0.000000 0.000000 

-0.000000 -0.000000 0.000000 
0.000000 -0.000000 0.000000 
0.000000 0.000000 0.000000 

0.000000 0.000000 0.000000 
0.000000 -0.000000 0.000000 
0.000000 0.000000 0.000000 

0.000000 -0.000000 0.000000 
0.000000 -0.000000 0.000000 
0.000000 0.000000 0.000000 

0.000000 0.000000 0.000000 
0.000000 -0.000000 0.000000 
0.000000 0.000000 0.000000 

0.000000 0.000000 0.000000 
0.000000 -0.000000 0.000000 
0.000000 0.000000 0.000000 

-0.000000 0.000000 0.000000 
0.000000 0.000000 0.000000 
0.000000 0.000000 0.000000 

-0.000000 -0.000000 0.000000 
0.000000 0.000000 0.000000 
0.000000 0.000000 0.000000 

-0.000000 -0.000000 0.000000 
0.000000 -0.000000 0.000000 
0.000000 0.000000 0.000000 

-0.000000 -0.000000 0.000000 
0.000000 0.000000 0.000000 
0.000000 0.000000 0.000000 

0.000000 -0.000000 0.000000 
0.000000 -0.000000 0.000000 
0.000000 0.000000 0.000000 

0.000000 -0.000000 0.000000 
0.000000 -0.000000 0.000000 
0.000000 0.000000 0.000000 

-0.000000 -0.000000 0.000000 
0.000000 0.000000 0.000000 
0.000000 0.000000 0.000000 

-0.000000 0.000000 0.000000 
0.000000 0.000000 0.000000 
0.000000 0.000000 0.000000 

-0.000000 0.000000 0.000000 
0.000000 0.000000 0.000000 
0.000000 0.000000 0.000000 

-0.000000 -0.000000 0.000000 
0.000000 0.000000 0.000000 
0.000000 0.000000 0.000000 

0.000000 -0.000000 0.000000 
0.000000 0.000000 0.000000 
0.000000 0.000000 0.000000 

-0.000000 -0.000000 0.000000 
0.000000 0.000000 0.000000 
0.000000 0.000000 0.000000 

0.000000 -0.000000 0.000000 
0.000000 0.000000 0.000000 
0.000000 0.000000 0.000000 

-0.000000 -0.000000 0.000000 
0.000000 0.000000 0.000000 
0.000000 0.000000 0.000000 

0.000000 0.000000 0.000000 
0.000000 -0.000000 0.000000 
0.000000 0.000000 0.000000 

0.000000 -0.000000 0.000000 
0.000000 -0.000000 0.000000 
0.000000 0.000000 0.000000 

0.000000 -0.000000 0.000000 
0.000000 -0.000000 0.000000 
0.000000 0.000000 0.000000 

0.000000 -0.000000 0.000000 
0.000000 -0.000000 0.000000 
0.000000 0.000000 0.000000 

0.000000 -0.000000 0.000000 
0.000000 -0.000000 0.000000 
0.000000 0.000000 0.000000 

0.000000 0.000000 0.000000 
0.000000 -0.000000 0.000000 
0.000000 0.000000 0.000000 

0.000000 0.000000 0.000000 
0.000000 -0.000000 0.000000 
0.000000 0.000000 0.000000 

0.000000 0.000000 0.000000 
0.000000 -0.000000 0.000000 
0.000000 0.000000 0.000000 

0.000000 -0.000000 0.000000 
0.000000 -0.000000 0.000000 
0.000000 0.000000 0.000000 

0.000000 -0.000000 0.000000 
0.000000 -0.000000 0.000000 
0.000000 0.000000 0.000000 

-0.000000 -0.000000 0.000000 
0.000000 -0.000000 0.000000 
0.000000 0.000000 0.000000 

-0.000000 -0.000000 0.000000 
0.000000 -0.000000 0.000000 
0.000000 0.000000 0.000000 

-0.000000 -0.000000 0.000000 
0.000000 -0.000000 0.000000 
0.000000 0.000000 0.000000 

-0.000000 -0.000000 0.000000 
0.000000 0.000000 0.000000 
0.000000 0.000000 0.000000 

-0.000000 -0.000000 0.000000 
0.000000 0.000000 0.000000 
0.000000 0.000000 0.000000 

0.000000 0.000000 0.000000 
0.000000 0.000000 0.000000 
0.000000 0.000000 0.000000 

0.000000 -0.000000 0.000000 
0.000000 -0.000000 0.000000 
0.000000 0.000000 0.000000 

-0.000000 -0.000000 0.000000 
0.000000 0.000000 0.000000 
0.000000 0.000000 0.000000 

0.000000 -0.000000 0.000000 
0.000000 0.000000 0.000000 
0.000000 0.000000 0.000000 

-0.000000 -0.000000 0.000000 
0.000000 0.000000 0.000000 
0.000000 0.000000 0.000000 

-0.000000 -0.000000 0.000000 
0.000000 0.000000 0.000000 
0.000000 0.000000 0.000000 

0.000000 -0.000000 0.000000 
0.000000 -0.000000 0.000000 
0.000000 0.000000 0.000000 

0.000000 -0.000000 0.000000 
0.000000 0.000000 0.000000 
0.000000 0.000000 0.000000 

0.000000 0.000000 0.000000 
0.000000 0.000000 0.000000 
0.000000 0.000000 0.000000 

-0.000000 0.000000 0.000000 
0.000000 -0.000000 0.000000 
0.000000 0.000000 0.000000 

0.000000 -0.000000 0.000000 
0.000000 -0.000000 0.000000 
0.000000 0.000000 0.000000 

0.000000 -0.000000 0.000000 
0.000000 -0.000000 0.000000 
0.000000 0.000000 0.000000 

0.000000 -0.000000 0.000000 
0.000000 -0.000000 0.000000 
0.000000 0.000000 0.000000 

0.000000 -0.000000 0.000000 
0.000000 0.000000 0.000000 
0.000000 0.000000 0.000000 

0.000000 -0.000000 0.000000 
0.000000 -0.000000 0.000000 
0.000000 0.000000 0.000000 

0.000000 -0.000000 0.000000 
0.000000 0.000000 0.000000 
0.000000 0.000000 0.000000 

0.000000 -0.000000 0.000000 
0.000000 -0.000000 0.000000 
0.000000 0.000000 0.000000 

0.000000 -0.000000 0.000000 
0.000000 -0.000000 0.000000 
0.000000 0.000000 0.000000 

0.000000 -0.000000 0.000000 
0.000000 -0.000000 0.000000 
0.000000 0.000000 0.000000 

0.000000 0.000000 0.000000 
0.000000 -0.000000 0.000000 
0.000000 0.000000 0.000000 

0.000000 0.000000 0.000000 
0.000000 -0.000000 0.000000 
0.000000 0.000000 0.000000 

0.000000 0.000000 0.000000 
0.000000 0.000000 0.000000 
0.000000 0.000000 0.000000 

0.000000 0.000000 0.000000 
0.000000 0.000000 0.000000 
0.000000 0.000000 0.000000 

0.000000 -0.000000 0.000000 
0.000000 0.000000 0.000000 
0.000000 0.000000 0.000000 

0.000000 -0.000000 0.000000 
0.000000 -0.000000 0.000000 
0.000000 0.000000 0.000000 

0.000000 -0.000000 0.000000 
0.000000 -0.000000 0.000000 
0.000000 0.000000 0.000000 

0.000000 -0.000000 0.000000 
0.000000 -0.000000 0.000000 
0.000000 0.000000 0.000000 

-0.000000 -0.000000 0.000000 
0.000000 0.000000 0.000000 
0.000000 0.000000 0.000000 

-0.000000 -0.000000 0.000000 
0.000000 0.000000 0.000000 
0.000000 0.000000 0.000000 

-0.000000 -0.000000 0.000000 
0.000000 0.000000 0.000000 
0.000000 0.000000 0.000000 

-0.000000 -0.000000 0.000000 
0.000000 0.000000 0.000000 
0.000000 0.000000 0.000000 

-0.000000 -0.000000 0.000000 
0.000000 -0.000000 0.000000 
0.000000 0.000000 0.000000 

-0.000000 -0.000000 0.000000 
0.000000 0.000000 0.000000 
0.000000 0.000000 0.000000 

-0.000000 0.000000 0.000000 
0.000000 0.000000 0.000000 
0.000000 0.000000 0.000000 

-0.000000 -0.000000 0.000000 
0.000000 -0.000000 0.000000 
0.000000 0.000000 0.000000 

0.000000 -0.000000 0.000000 
0.000000 -0.000000 0.000000 
0.000000 0.000000 0.000000 

0.000000 -0.000000 0.000000 
0.000000 0.000000 0.000000 
0.000000 0.000000 0.000000 

-0.000000 -0.000000 0.000000 
0.000000 0.000000 0.000000 
0.000000 0.000000 0.000000 

-0.000000 -0.000000 0.000000 
0.000000 0.000000 0.000000 
0.000000 0.000000 0.000000 

-0.000000 -0.000000 0.000000 
0.000000 0.000000 0.000000 
0.000000 0.000000 0.000000 

-0.000000 0.000000 0.000000 
0.000000 -0.000000 0.000000 
0.000000 0.000000 0.000000 

0.000000 -0.000000 0.000000 
0.000000 -0.000000 0.000000 
0.000000 0.000000 0.000000 

0.000000 0.000000 0.000000 
0.000000 -0.000000 0.000000 
0.000000 0.000000 0.000000 

0.000000 -0.000000 0.000000 
0.000000 0.000000 0.000000 
0.000000 0.000000 0.000000 

0.000000 -0.000000 0.000000 
0.000000 0.000000 0.000000 
0.000000 0.000000 0.000000 

0.000000 -0.000000 0.000000 
0.000000 0.000000 0.000000 
0.000000 0.000000 0.000000 

0.000000 -0.000000 0.000000 
0.000000 0.000000 0.000000 
0.000000 0.000000 0.000000 

0.000000 0.000000 0.000000 
0.000000 -0.000000 0.000000 
0.000000 0.000000 0.000000 

0.000000 0.000000 0.000000 
0.000000 -0.000000 0.000000 
0.000000 0.000000 0.000000 

-0.000000 0.000000 0.000000 
0.000000 -0.000000 0.000000 
0.000000 0.000000 0.000000 

0.000000 0.000000 0.000000 
0.000000 -0.000000 0.000000 
0.000000 0.000000 0.000000 

-0.000000 -0.000000 0.000000 
0.000000 0.000000 0.000000 
0.000000 0.000000 0.000000 

-0.000000 -0.000000 0.000000 
0.000000 0.000000 0.000000 
0.000000 0.000000 0.000000 

-0.000000 -0.000000 0.000000 
0.000000 0.000000 0.000000 
0.000000 0.000000 0.000000 

-0.000000 -0.000000 0.000000 
0.000000 0.000000 0.000000 
0.000000 0.000000 0.000000 

-0.000000 -0.000000 0.000000 
0.000000 0.000000 0.000000 
0.000000 0.000000 0.000000 

0.000000 0.000000 0.000000 
0.000000 -0.000000 0.000000 
0.000000 0.000000 0.000000 

-0.000000 -0.000000 0.000000 
0.000000 0.000000 0.000000 
0.000000 0.000000 0.000000 

-0.000000 -0.000000 0.000000 
0.000000 0.000000 0.000000 
0.000000 0.000000 0.000000 

-0.000000 -0.000000 0.000000 
0.000000 0.000000 0.000000 
0.000000 0.000000 0.000000 

-0.000000 -0.000000 0.000000 
0.000000 0.000000 0.000000 
0.000000 0.000000 0.000000 

0.000000 0.000000 0.000000 
0.000000 -0.000000 0.000000 
0.000000 0.000000 0.000000 

0.000000 0.000000 0.000000 
0.000000 0.000000 0.000000 
0.000000 0.000000 0.000000 

0.000000 0.000000 0.000000 
0.000000 -0.000000 0.000000 
0.000000 0.000000 0.000000 

0.000000 0.000000 0.000000 
0.000000 0.000000 0.000000 
0.000000 0.000000 0.000000 

0.000000 0.000000 0.000000 
0.000000 -0.000000 0.000000 
0.000000 0.000000 0.000000 

-0.000000 -0.000000 0.000000 
0.000000 0.000000 0.000000 
0.000000 0.000000 0.000000 

-0.000000 -0.000000 0.000000 
0.000000 0.000000 0.000000 
0.000000 0.000000 0.000000 

-0.000000 0.000000 0.000000 
0.000000 0.000000 0.000000 
0.000000 0.000000 0.000000 

-0.000000 -0.000000 0.000000 
0.000000 -0.000000 0.000000 
0.000000 0.000000 0.000000 

-0.000000 -0.000000 0.000000 
0.000000 -0.000000 0.000000 
0.000000 0.000000 0.000000 

0.000000 0.000000 0.000000 
0.000000 -0.000000 0.000000 
0.000000 0.000000 0.000000 

0.000000 0.000000 0.000000 
0.000000 -0.000000 0.000000 
0.000000 0.000000 0.000000 

0.000000 0.000000 0.000000 
0.000000 0.000000 0.000000 
0.000000 0.000000 0.000000 

0.000000 -0.000000 0.000000 
0.000000 0.000000 0.000000 
0.000000 0.000000 0.000000 

0.000000 -0.000000 0.000000 
0.000000 0.000000 0.000000 
0.000000 0.000000 0.000000 

0.000000 -0.000000 0.000000 
0.000000 0.000000 0.000000 
0.000000 0.000000 0.000000 

-0.000000 -0.000000 0.000000 
0.000000 -0.000000 0.000000 
0.000000 0.000000 0.000000 

-0.000000 -0.000000 0.000000 
0.000000 -0.000000 0.000000 
0.000000 0.000000 0.000000 

-0.000000 0.000000 0.000000 
0.000000 -0.000000 0.000000 
0.000000 0.000000 0.000000 

-0.000000 -0.000000 0.000000 
0.000000 -0.000000 0.000000 
0.000000 0.000000 0.000000 

-0.000000 -0.000000 0.000000 
0.000000 0.000000 0.000000 
0.000000 0.000000 0.000000 

0.000000 0.000000 0.000000 
0.000000 -0.000000 0.000000 
0.000000 0.000000 0.000000 

-0.000000 0.000000 0.000000 
0.000000 -0.000000 0.000000 
0.000000 0.000000 0.000000 

-0.000000 0.000000 0.000000 
0.000000 -0.000000 0.000000 
0.000000 0.000000 0.000000 

0.000000 0.000000 0.000000 
0.000000 -0.000000 0.000000 
0.000000 0.000000 0.000000 

0.000000 -0.000000 0.000000 
0.000000 -0.000000 0.000000 
0.000000 0.000000 0.000000 

0.000000 0.000000 0.000000 
0.000000 -0.000000 0.000000 
0.000000 0.000000 0.000000 

-0.000000 0.000000 0.000000 
0.000000 -0.000000 0.000000 
0.000000 0.000000 0.000000 

-0.000000 0.000000 0.000000 
0.000000 0.000000 0.000000 
0.000000 0.000000 0.000000 

0.000000 0.000000 0.000000 
0.000000 0.000000 0.000000 
0.000000 0.000000 0.000000 

0.000000 0.000000 0.000000 
0.000000 0.000000 0.000000 
0.000000 0.000000 0.000000 

0.000000 0.000000 0.000000 
0.000000 -0.000000 0.000000 
0.000000 0.000000 0.000000 

0.000000 -0.000000 0.000000 
0.000000 -0.000000 0.000000 
0.000000 0.000000 0.000000 

0.000000 -0.000000 0.000000 
0.000000 -0.000000 0.000000 
0.000000 0.000000 0.000000 

0.000000 0.000000 0.000000 
0.000000 0.000000 0.000000 
0.000000 0.000000 0.000000 

0.000000 0.000000 0.000000 
0.000000 -0.000000 0.000000 
0.000000 0.000000 0.000000 

0.000000 0.000000 0.000000 
0.000000 0.000000 0.000000 
0.000000 0.000000 0.000000 

0.000000 0.000000 0.000000 
0.000000 -0.000000 0.000000 
0.000000 0.000000 0.000000 

0.000000 0.000000 0.000000 
0.000000 0.000000 0.000000 
0.000000 0.000000 0.000000 

-0.000000 0.000000 0.000000 
0.000000 -0.000000 0.000000 
0.000000 0.000000 0.000000 

-0.000000 0.000000 0.000000 
0.000000 -0.000000 0.000000 
0.000000 0.000000 0.000000 

-0.000000 -0.000000 0.000000 
0.000000 -0.000000 0.000000 
0.000000 0.000000 0.000000 

-0.000000 -0.000000 0.000000 
0.000000 0.000000 0.000000 
0.000000 0.000000 0.000000 

-0.000000 -0.000000 0.000000 
0.000000 -0.000000 0.000000 
0.000000 0.000000 0.000000 

0.000000 0.000000 0.000000 
0.000000 0.000000 0.000000 
0.000000 0.000000 0.000000 

-0.000000 0.000000 0.000000 
0.000000 0.000000 0.000000 
0.000000 0.000000 0.000000 

-0.000000 -0.000000 0.000000 
0.000000 0.000000 0.000000 
0.000000 0.000000 0.000000 

-0.000000 -0.000000 0.000000 
0.000000 0.000000 0.000000 
0.000000 0.000000 0.000000 

-0.000000 -0.000000 0.000000 
0.000000 0.000000 0.000000 
0.000000 0.000000 0.000000 

-0.000000 -0.000000 0.000000 
0.000000 0.000000 0.000000 
0.000000 0.000000 0.000000 

0.000000 0.000000 0.000000 
0.000000 0.000000 0.000000 
0.000000 0.000000 0.000000 

-0.000000 0.000000 0.000000 
0.000000 0.000000 0.000000 
0.000000 0.000000 0.000000 

-0.000000 -0.000000 0.000000 
0.000000 0.000000 0.000000 
0.000000 0.000000 0.000000 

-0.000000 0.000000 0.000000 
0.000000 0.000000 0.000000 
0.000000 0.000000 0.000000 

-0.000000 0.000000 0.000000 
0.000000 0.000000 0.000000 
0.000000 0.000000 0.000000 

-0.000000 -0.000000 0.000000 
0.000000 0.000000 0.000000 
0.000000 0.000000 0.000000 

0.000000 -0.000000 0.000000 
0.000000 -0.000000 0.000000 
0.000000 0.000000 0.000000 

0.000000 -0.000000 0.000000 
0.000000 -0.000000 0.000000 
0.000000 0.000000 0.000000 

0.000000 -0.000000 0.000000 
0.000000 -0.000000 0.000000 
0.000000 0.000000 0.000000 

0.000000 -0.000000 0.000000 
0.000000 0.000000 0.000000 
0.000000 0.000000 0.000000 

-0.000000 -0.000000 0.000000 
0.000000 0.000000 0.000000 
0.000000 0.000000 0.000000 

-0.000000 0.000000 0.000000 
0.000000 0.000000 0.000000 
0.000000 0.000000 0.000000 

-0.000000 0.000000 0.000000 
0.000000 0.000000 0.000000 
0.000000 0.000000 0.000000 

0.000000 -0.000000 0.000000 
0.000000 -0.000000 0.000000 
0.000000 0.000000 0.000000 

0.000000 0.000000 0.000000 
0.000000 0.000000 0.000000 
0.000000 0.000000 0.000000 

0.000000 0.000000 0.000000 
0.000000 -0.000000 0.000000 
0.000000 0.000000 0.000000 

