# vtk DataFile Version 3.0 
vtk output 
ASCII 
DATASET UNSTRUCTURED_GRID 
POINTS 175 float 
-0.026061 -0.484060 0.000000 
-0.106992 -0.416005 0.000000 
-0.054870 -0.424237 0.000000 
-0.028809 -0.378353 0.000000 
-0.186430 -0.351929 0.000000 
-0.137056 -0.354455 0.000000 
-0.114311 -0.300808 0.000000 
-0.058186 -0.316474 0.000000 
-0.029377 -0.276296 0.000000 
-0.265318 -0.288773 0.000000 
-0.217198 -0.289573 0.000000 
-0.196633 -0.232276 0.000000 
-0.143120 -0.240985 0.000000 
-0.116563 -0.193717 0.000000 
-0.058945 -0.213362 0.000000 
-0.029568 -0.175242 0.000000 
-0.344206 -0.225617 0.000000 
-0.296791 -0.225610 0.000000 
-0.278030 -0.165667 0.000000 
-0.225992 -0.171534 0.000000 
-0.201664 -0.119417 0.000000 
-0.145749 -0.132891 0.000000 
-0.117890 -0.088548 0.000000 
-0.059328 -0.111254 0.000000 
-0.029759 -0.074188 0.000000 
-0.058559 -0.524811 0.000000 
-0.162226 -0.545653 0.000000 
-0.123292 -0.510036 0.000000 
-0.142917 -0.461052 0.000000 
-0.261851 -0.567810 0.000000 
-0.229092 -0.530783 0.000000 
-0.256854 -0.479551 0.000000 
-0.209613 -0.445439 0.000000 
-0.223062 -0.397865 0.000000 
-0.360414 -0.590110 0.000000 
-0.329787 -0.552987 0.000000 
-0.361761 -0.501185 0.000000 
-0.321587 -0.464776 0.000000 
-0.341985 -0.414542 0.000000 
-0.290702 -0.381743 0.000000 
-0.302189 -0.335008 0.000000 
-0.458977 -0.612410 0.000000 
-0.429420 -0.575335 0.000000 
-0.464588 -0.523294 0.000000 
-0.427556 -0.486266 0.000000 
-0.453135 -0.434751 0.000000 
-0.407738 -0.399436 0.000000 
-0.425037 -0.350008 0.000000 
-0.370772 -0.318379 0.000000 
-0.381315 -0.272151 0.000000 
-0.046960 -0.575626 0.000000 
-0.095301 -0.669672 0.000000 
-0.098873 -0.617025 0.000000 
-0.149405 -0.601827 0.000000 
-0.140093 -0.761376 0.000000 
-0.148617 -0.712678 0.000000 
-0.205981 -0.702440 0.000000 
-0.203197 -0.644237 0.000000 
-0.248777 -0.625090 0.000000 
-0.184111 -0.852339 0.000000 
-0.194039 -0.805248 0.000000 
-0.254475 -0.797949 0.000000 
-0.257893 -0.743839 0.000000 
-0.309886 -0.728467 0.000000 
-0.303554 -0.667921 0.000000 
-0.347255 -0.647764 0.000000 
-0.228129 -0.943303 0.000000 
-0.238687 -0.897079 0.000000 
-0.301302 -0.892127 0.000000 
-0.307162 -0.840088 0.000000 
-0.363386 -0.827967 0.000000 
-0.362692 -0.770455 0.000000 
-0.412122 -0.753162 0.000000 
-0.403017 -0.691016 0.000000 
-0.445733 -0.670437 0.000000 
-0.000000 -0.598241 0.000000 
0.043388 -0.694671 0.000000 
-0.000000 -0.664639 0.000000 
-0.043388 -0.694671 0.000000 
0.087158 -0.786868 0.000000 
0.043769 -0.763170 0.000000 
-0.000000 -0.801635 0.000000 
-0.043769 -0.763170 0.000000 
-0.087158 -0.786868 0.000000 
0.130831 -0.877998 0.000000 
0.087824 -0.856399 0.000000 
0.044436 -0.899099 0.000000 
-0.000000 -0.868034 0.000000 
-0.044436 -0.899099 0.000000 
-0.087824 -0.856399 0.000000 
-0.130831 -0.877998 0.000000 
0.174505 -0.969127 0.000000 
0.131782 -0.948561 0.000000 
0.088871 -0.994428 0.000000 
0.044532 -0.966564 0.000000 
-0.000000 -1.002964 0.000000 
-0.044532 -0.966564 0.000000 
-0.088871 -0.994428 0.000000 
-0.131782 -0.948561 0.000000 
-0.174505 -0.969127 0.000000 
0.046960 -0.575626 0.000000 
0.149405 -0.601827 0.000000 
0.098873 -0.617025 0.000000 
0.095301 -0.669672 0.000000 
0.248777 -0.625090 0.000000 
0.203197 -0.644237 0.000000 
0.205981 -0.702440 0.000000 
0.148617 -0.712678 0.000000 
0.140093 -0.761376 0.000000 
0.347255 -0.647764 0.000000 
0.303554 -0.667921 0.000000 
0.309886 -0.728467 0.000000 
0.257893 -0.743839 0.000000 
0.254475 -0.797949 0.000000 
0.194039 -0.805248 0.000000 
0.184111 -0.852339 0.000000 
0.445733 -0.670437 0.000000 
0.403017 -0.691016 0.000000 
0.412122 -0.753162 0.000000 
0.362692 -0.770455 0.000000 
0.363386 -0.827967 0.000000 
0.307162 -0.840088 0.000000 
0.301302 -0.892127 0.000000 
0.238687 -0.897079 0.000000 
0.228129 -0.943303 0.000000 
0.058559 -0.524811 0.000000 
0.142917 -0.461052 0.000000 
0.123292 -0.510036 0.000000 
0.162226 -0.545653 0.000000 
0.223062 -0.397865 0.000000 
0.209613 -0.445439 0.000000 
0.256854 -0.479551 0.000000 
0.229092 -0.530783 0.000000 
0.261851 -0.567810 0.000000 
0.302189 -0.335008 0.000000 
0.290702 -0.381743 0.000000 
0.341985 -0.414542 0.000000 
0.321587 -0.464776 0.000000 
0.361761 -0.501185 0.000000 
0.329787 -0.552987 0.000000 
0.360414 -0.590110 0.000000 
0.381315 -0.272151 0.000000 
0.370772 -0.318379 0.000000 
0.425037 -0.350008 0.000000 
0.407738 -0.399436 0.000000 
0.453135 -0.434751 0.000000 
0.427556 -0.486266 0.000000 
0.464588 -0.523294 0.000000 
0.429420 -0.575335 0.000000 
0.458977 -0.612410 0.000000 
0.026061 -0.484060 0.000000 
0.028809 -0.378353 0.000000 
0.054870 -0.424237 0.000000 
0.106992 -0.416005 0.000000 
0.029377 -0.276296 0.000000 
0.058186 -0.316474 0.000000 
0.114311 -0.300808 0.000000 
0.137056 -0.354455 0.000000 
0.186430 -0.351929 0.000000 
0.029568 -0.175242 0.000000 
0.058945 -0.213362 0.000000 
0.116563 -0.193717 0.000000 
0.143120 -0.240985 0.000000 
0.196633 -0.232276 0.000000 
0.217198 -0.289573 0.000000 
0.265318 -0.288773 0.000000 
0.029759 -0.074188 0.000000 
0.059328 -0.111254 0.000000 
0.117890 -0.088548 0.000000 
0.145749 -0.132891 0.000000 
0.201664 -0.119417 0.000000 
0.225992 -0.171534 0.000000 
0.278030 -0.165667 0.000000 
0.296791 -0.225610 0.000000 
0.344206 -0.225617 0.000000 
CELLS 175 350 
1 0 
1 1 
1 2 
1 3 
1 4 
1 5 
1 6 
1 7 
1 8 
1 9 
1 10 
1 11 
1 12 
1 13 
1 14 
1 15 
1 16 
1 17 
1 18 
1 19 
1 20 
1 21 
1 22 
1 23 
1 24 
1 25 
1 26 
1 27 
1 28 
1 29 
1 30 
1 31 
1 32 
1 33 
1 34 
1 35 
1 36 
1 37 
1 38 
1 39 
1 40 
1 41 
1 42 
1 43 
1 44 
1 45 
1 46 
1 47 
1 48 
1 49 
1 50 
1 51 
1 52 
1 53 
1 54 
1 55 
1 56 
1 57 
1 58 
1 59 
1 60 
1 61 
1 62 
1 63 
1 64 
1 65 
1 66 
1 67 
1 68 
1 69 
1 70 
1 71 
1 72 
1 73 
1 74 
1 75 
1 76 
1 77 
1 78 
1 79 
1 80 
1 81 
1 82 
1 83 
1 84 
1 85 
1 86 
1 87 
1 88 
1 89 
1 90 
1 91 
1 92 
1 93 
1 94 
1 95 
1 96 
1 97 
1 98 
1 99 
1 100 
1 101 
1 102 
1 103 
1 104 
1 105 
1 106 
1 107 
1 108 
1 109 
1 110 
1 111 
1 112 
1 113 
1 114 
1 115 
1 116 
1 117 
1 118 
1 119 
1 120 
1 121 
1 122 
1 123 
1 124 
1 125 
1 126 
1 127 
1 128 
1 129 
1 130 
1 131 
1 132 
1 133 
1 134 
1 135 
1 136 
1 137 
1 138 
1 139 
1 140 
1 141 
1 142 
1 143 
1 144 
1 145 
1 146 
1 147 
1 148 
1 149 
1 150 
1 151 
1 152 
1 153 
1 154 
1 155 
1 156 
1 157 
1 158 
1 159 
1 160 
1 161 
1 162 
1 163 
1 164 
1 165 
1 166 
1 167 
1 168 
1 169 
1 170 
1 171 
1 172 
1 173 
1 174 
CELL_TYPES 175 
1 
1 
1 
1 
1 
1 
1 
1 
1 
1 
1 
1 
1 
1 
1 
1 
1 
1 
1 
1 
1 
1 
1 
1 
1 
1 
1 
1 
1 
1 
1 
1 
1 
1 
1 
1 
1 
1 
1 
1 
1 
1 
1 
1 
1 
1 
1 
1 
1 
1 
1 
1 
1 
1 
1 
1 
1 
1 
1 
1 
1 
1 
1 
1 
1 
1 
1 
1 
1 
1 
1 
1 
1 
1 
1 
1 
1 
1 
1 
1 
1 
1 
1 
1 
1 
1 
1 
1 
1 
1 
1 
1 
1 
1 
1 
1 
1 
1 
1 
1 
1 
1 
1 
1 
1 
1 
1 
1 
1 
1 
1 
1 
1 
1 
1 
1 
1 
1 
1 
1 
1 
1 
1 
1 
1 
1 
1 
1 
1 
1 
1 
1 
1 
1 
1 
1 
1 
1 
1 
1 
1 
1 
1 
1 
1 
1 
1 
1 
1 
1 
1 
1 
1 
1 
1 
1 
1 
1 
1 
1 
1 
1 
1 
1 
1 
1 
1 
1 
1 
1 
1 
1 
1 
1 
1 
POINT_DATA 175 
VECTORS X_GC float 
-0.026061 -0.484060 0.000000 
-0.106992 -0.416005 0.000000 
-0.054870 -0.424237 0.000000 
-0.028809 -0.378353 0.000000 
-0.186430 -0.351929 0.000000 
-0.137056 -0.354455 0.000000 
-0.114311 -0.300808 0.000000 
-0.058186 -0.316474 0.000000 
-0.029377 -0.276296 0.000000 
-0.265318 -0.288773 0.000000 
-0.217198 -0.289573 0.000000 
-0.196633 -0.232276 0.000000 
-0.143120 -0.240985 0.000000 
-0.116563 -0.193717 0.000000 
-0.058945 -0.213362 0.000000 
-0.029568 -0.175242 0.000000 
-0.344206 -0.225617 0.000000 
-0.296791 -0.225610 0.000000 
-0.278030 -0.165667 0.000000 
-0.225992 -0.171534 0.000000 
-0.201664 -0.119417 0.000000 
-0.145749 -0.132891 0.000000 
-0.117890 -0.088548 0.000000 
-0.059328 -0.111254 0.000000 
-0.029759 -0.074188 0.000000 
-0.058559 -0.524811 0.000000 
-0.162226 -0.545653 0.000000 
-0.123292 -0.510036 0.000000 
-0.142917 -0.461052 0.000000 
-0.261851 -0.567810 0.000000 
-0.229092 -0.530783 0.000000 
-0.256854 -0.479551 0.000000 
-0.209613 -0.445439 0.000000 
-0.223062 -0.397865 0.000000 
-0.360414 -0.590110 0.000000 
-0.329787 -0.552987 0.000000 
-0.361761 -0.501185 0.000000 
-0.321587 -0.464776 0.000000 
-0.341985 -0.414542 0.000000 
-0.290702 -0.381743 0.000000 
-0.302189 -0.335008 0.000000 
-0.458977 -0.612410 0.000000 
-0.429420 -0.575335 0.000000 
-0.464588 -0.523294 0.000000 
-0.427556 -0.486266 0.000000 
-0.453135 -0.434751 0.000000 
-0.407738 -0.399436 0.000000 
-0.425037 -0.350008 0.000000 
-0.370772 -0.318379 0.000000 
-0.381315 -0.272151 0.000000 
-0.046960 -0.575626 0.000000 
-0.095301 -0.669672 0.000000 
-0.098873 -0.617025 0.000000 
-0.149405 -0.601827 0.000000 
-0.140093 -0.761376 0.000000 
-0.148617 -0.712678 0.000000 
-0.205981 -0.702440 0.000000 
-0.203197 -0.644237 0.000000 
-0.248777 -0.625090 0.000000 
-0.184111 -0.852339 0.000000 
-0.194039 -0.805248 0.000000 
-0.254475 -0.797949 0.000000 
-0.257893 -0.743839 0.000000 
-0.309886 -0.728467 0.000000 
-0.303554 -0.667921 0.000000 
-0.347255 -0.647764 0.000000 
-0.228129 -0.943303 0.000000 
-0.238687 -0.897079 0.000000 
-0.301302 -0.892127 0.000000 
-0.307162 -0.840088 0.000000 
-0.363386 -0.827967 0.000000 
-0.362692 -0.770455 0.000000 
-0.412122 -0.753162 0.000000 
-0.403017 -0.691016 0.000000 
-0.445733 -0.670437 0.000000 
-0.000000 -0.598241 0.000000 
0.043388 -0.694671 0.000000 
-0.000000 -0.664639 0.000000 
-0.043388 -0.694671 0.000000 
0.087158 -0.786868 0.000000 
0.043769 -0.763170 0.000000 
-0.000000 -0.801635 0.000000 
-0.043769 -0.763170 0.000000 
-0.087158 -0.786868 0.000000 
0.130831 -0.877998 0.000000 
0.087824 -0.856399 0.000000 
0.044436 -0.899099 0.000000 
-0.000000 -0.868034 0.000000 
-0.044436 -0.899099 0.000000 
-0.087824 -0.856399 0.000000 
-0.130831 -0.877998 0.000000 
0.174505 -0.969127 0.000000 
0.131782 -0.948561 0.000000 
0.088871 -0.994428 0.000000 
0.044532 -0.966564 0.000000 
-0.000000 -1.002964 0.000000 
-0.044532 -0.966564 0.000000 
-0.088871 -0.994428 0.000000 
-0.131782 -0.948561 0.000000 
-0.174505 -0.969127 0.000000 
0.046960 -0.575626 0.000000 
0.149405 -0.601827 0.000000 
0.098873 -0.617025 0.000000 
0.095301 -0.669672 0.000000 
0.248777 -0.625090 0.000000 
0.203197 -0.644237 0.000000 
0.205981 -0.702440 0.000000 
0.148617 -0.712678 0.000000 
0.140093 -0.761376 0.000000 
0.347255 -0.647764 0.000000 
0.303554 -0.667921 0.000000 
0.309886 -0.728467 0.000000 
0.257893 -0.743839 0.000000 
0.254475 -0.797949 0.000000 
0.194039 -0.805248 0.000000 
0.184111 -0.852339 0.000000 
0.445733 -0.670437 0.000000 
0.403017 -0.691016 0.000000 
0.412122 -0.753162 0.000000 
0.362692 -0.770455 0.000000 
0.363386 -0.827967 0.000000 
0.307162 -0.840088 0.000000 
0.301302 -0.892127 0.000000 
0.238687 -0.897079 0.000000 
0.228129 -0.943303 0.000000 
0.058559 -0.524811 0.000000 
0.142917 -0.461052 0.000000 
0.123292 -0.510036 0.000000 
0.162226 -0.545653 0.000000 
0.223062 -0.397865 0.000000 
0.209613 -0.445439 0.000000 
0.256854 -0.479551 0.000000 
0.229092 -0.530783 0.000000 
0.261851 -0.567810 0.000000 
0.302189 -0.335008 0.000000 
0.290702 -0.381743 0.000000 
0.341985 -0.414542 0.000000 
0.321587 -0.464776 0.000000 
0.361761 -0.501185 0.000000 
0.329787 -0.552987 0.000000 
0.360414 -0.590110 0.000000 
0.381315 -0.272151 0.000000 
0.370772 -0.318379 0.000000 
0.425037 -0.350008 0.000000 
0.407738 -0.399436 0.000000 
0.453135 -0.434751 0.000000 
0.427556 -0.486266 0.000000 
0.464588 -0.523294 0.000000 
0.429420 -0.575335 0.000000 
0.458977 -0.612410 0.000000 
0.026061 -0.484060 0.000000 
0.028809 -0.378353 0.000000 
0.054870 -0.424237 0.000000 
0.106992 -0.416005 0.000000 
0.029377 -0.276296 0.000000 
0.058186 -0.316474 0.000000 
0.114311 -0.300808 0.000000 
0.137056 -0.354455 0.000000 
0.186430 -0.351929 0.000000 
0.029568 -0.175242 0.000000 
0.058945 -0.213362 0.000000 
0.116563 -0.193717 0.000000 
0.143120 -0.240985 0.000000 
0.196633 -0.232276 0.000000 
0.217198 -0.289573 0.000000 
0.265318 -0.288773 0.000000 
0.029759 -0.074188 0.000000 
0.059328 -0.111254 0.000000 
0.117890 -0.088548 0.000000 
0.145749 -0.132891 0.000000 
0.201664 -0.119417 0.000000 
0.225992 -0.171534 0.000000 
0.278030 -0.165667 0.000000 
0.296791 -0.225610 0.000000 
0.344206 -0.225617 0.000000 
VECTORS X_EC float 
0.338794 -0.965191 0.000000 
-0.609100 0.116061 0.000000 
0.713312 0.227202 0.000000 
0.374519 -0.392228 0.000000 
0.423588 -0.748958 0.000000 
-0.218274 -0.714855 0.000000 
-0.513962 0.560906 0.000000 
0.756418 0.772393 0.000000 
0.381900 0.230000 0.000000 
-0.550868 0.398439 0.000000 
0.823577 0.409234 0.000000 
0.556234 -0.364270 0.000000 
-0.139443 -0.246701 0.000000 
-0.484677 -0.884826 0.000000 
0.766286 -0.619610 0.000000 
0.384386 0.865769 0.000000 
0.474677 -0.454165 0.000000 
-0.141715 -0.454261 0.000000 
-0.385608 0.736511 0.000000 
0.937896 0.815706 0.000000 
0.621631 0.112126 0.000000 
-0.105264 0.294025 0.000000 
-0.467428 -0.304601 0.000000 
0.771260 0.001928 0.000000 
0.386873 -0.498462 0.000000 
0.761262 -0.415056 0.000000 
0.108942 -0.133679 0.000000 
-0.397202 -0.614519 0.000000 
-0.142083 0.724206 0.000000 
-0.595936 0.165431 0.000000 
0.978194 -0.334435 0.000000 
-0.660903 0.973940 0.000000 
0.724964 0.513420 0.000000 
0.899809 -0.128828 0.000000 
0.685384 0.466483 0.000000 
0.287229 -0.034675 0.000000 
0.702895 -0.734004 0.000000 
0.180633 0.774478 0.000000 
0.445811 0.096318 0.000000 
-0.220880 -0.346468 0.000000 
-0.071546 -0.977393 0.000000 
-0.033296 0.767535 0.000000 
-0.417537 0.267026 0.000000 
0.039645 -0.435537 0.000000 
-0.441768 -0.935408 0.000000 
-0.109248 0.369142 0.000000 
-0.699407 -0.107614 0.000000 
-0.474522 -0.774893 0.000000 
0.820030 0.798113 0.000000 
0.957100 0.174042 0.000000 
0.610485 0.270950 0.000000 
-0.761092 -0.459430 0.000000 
-0.714655 0.829832 0.000000 
-0.057734 0.624665 0.000000 
-0.178789 0.778574 0.000000 
-0.067979 0.121148 0.000000 
0.677748 -0.017056 0.000000 
0.641556 -0.802801 0.000000 
-0.765897 0.938720 0.000000 
0.393446 0.006583 0.000000 
0.522510 -0.629147 0.000000 
-0.691820 -0.727691 0.000000 
-0.647393 0.541826 0.000000 
0.028512 0.334300 0.000000 
-0.053800 -0.483061 0.000000 
0.514316 -0.755192 0.000000 
0.965681 -0.765408 0.000000 
-0.897068 0.610563 0.000000 
-0.083078 0.543710 0.000000 
-0.006893 -0.158814 0.000000 
0.724017 -0.322447 0.000000 
0.714996 0.901149 0.000000 
-0.642413 0.667692 0.000000 
-0.760780 -0.171289 0.000000 
-0.205471 -0.449104 0.000000 
0.000000 0.576252 0.000000 
-0.564049 -0.121935 0.000000 
0.000000 -0.527371 0.000000 
0.564049 -0.121935 0.000000 
0.866949 -0.877280 0.000000 
-0.569003 0.802789 0.000000 
0.000000 -0.677923 0.000000 
0.569003 0.802789 0.000000 
-0.866949 -0.877280 0.000000 
0.299194 0.352970 0.000000 
0.858290 0.061386 0.000000 
-0.577662 0.637832 0.000000 
0.000000 0.218454 0.000000 
0.577662 0.637832 0.000000 
-0.858290 0.061386 0.000000 
-0.299194 0.352970 0.000000 
-0.268560 -0.416780 0.000000 
0.286830 -0.694421 0.000000 
0.844677 -0.075223 0.000000 
-0.578910 -0.451386 0.000000 
0.000000 0.040018 0.000000 
0.578910 -0.451386 0.000000 
-0.844677 -0.075223 0.000000 
-0.286830 -0.694421 0.000000 
0.268560 -0.416780 0.000000 
-0.610485 0.270950 0.000000 
0.057734 0.624665 0.000000 
0.714655 0.829832 0.000000 
0.761092 -0.459430 0.000000 
0.765897 0.938721 0.000000 
-0.641556 -0.802801 0.000000 
-0.677748 -0.017056 0.000000 
0.067979 0.121148 0.000000 
0.178789 0.778574 0.000000 
-0.514316 -0.755192 0.000000 
0.053800 -0.483061 0.000000 
-0.028512 0.334300 0.000000 
0.647393 0.541826 0.000000 
0.691820 -0.727691 0.000000 
-0.522510 -0.629147 0.000000 
-0.393446 0.006583 0.000000 
0.205471 -0.449104 0.000000 
0.760780 -0.171289 0.000000 
0.642413 0.667692 0.000000 
-0.714996 0.901149 0.000000 
-0.724017 -0.322447 0.000000 
0.006894 -0.158814 0.000000 
0.083078 0.543710 0.000000 
0.897068 0.610563 0.000000 
-0.965681 -0.765408 0.000000 
-0.761262 -0.415056 0.000000 
0.142083 0.724206 0.000000 
0.397202 -0.614519 0.000000 
-0.108942 -0.133679 0.000000 
-0.899809 -0.128828 0.000000 
-0.724964 0.513420 0.000000 
0.660903 0.973940 0.000000 
-0.978194 -0.334435 0.000000 
0.595936 0.165431 0.000000 
0.071546 -0.977393 0.000000 
0.220880 -0.346468 0.000000 
-0.445811 0.096318 0.000000 
-0.180633 0.774478 0.000000 
-0.702895 -0.734004 0.000000 
-0.287229 -0.034675 0.000000 
-0.685384 0.466483 0.000000 
-0.957100 0.174042 0.000000 
-0.820030 0.798113 0.000000 
0.474522 -0.774893 0.000000 
0.699407 -0.107614 0.000000 
0.109248 0.369142 0.000000 
0.441768 -0.935408 0.000000 
-0.039645 -0.435537 0.000000 
0.417537 0.267026 0.000000 
0.033296 0.767536 0.000000 
-0.338794 -0.965191 0.000000 
-0.374519 -0.392228 0.000000 
-0.713312 0.227202 0.000000 
0.609100 0.116061 0.000000 
-0.381900 0.230000 0.000000 
-0.756418 0.772393 0.000000 
0.513962 0.560906 0.000000 
0.218274 -0.714855 0.000000 
-0.423588 -0.748958 0.000000 
-0.384386 0.865769 0.000000 
-0.766286 -0.619610 0.000000 
0.484677 -0.884826 0.000000 
0.139443 -0.246701 0.000000 
-0.556234 -0.364270 0.000000 
-0.823577 0.409234 0.000000 
0.550868 0.398439 0.000000 
-0.386873 -0.498462 0.000000 
-0.771260 0.001928 0.000000 
0.467428 -0.304601 0.000000 
0.105264 0.294025 0.000000 
-0.621631 0.112126 0.000000 
-0.937896 0.815706 0.000000 
0.385608 0.736511 0.000000 
0.141715 -0.454261 0.000000 
-0.474677 -0.454165 0.000000 
CELL_DATA 175 
SCALARS MASS float 
LOOKUP_TABLE default 
0.078183 
0.086427 
0.094672 
0.086427 
0.088131 
0.092111 
0.085854 
0.092111 
0.088131 
0.088705 
0.091000 
0.086983 
0.091556 
0.086983 
0.091000 
0.088705 
0.089278 
0.091574 
0.089278 
0.092722 
0.089278 
0.092722 
0.089278 
0.091574 
0.089278 
0.078183 
0.086427 
0.094672 
0.086427 
0.088131 
0.092111 
0.085854 
0.092111 
0.088131 
0.088705 
0.091000 
0.086983 
0.091556 
0.086983 
0.091000 
0.088705 
0.089278 
0.091574 
0.089278 
0.092722 
0.089278 
0.092722 
0.089278 
0.091574 
0.089278 
0.078183 
0.086427 
0.094672 
0.086427 
0.088131 
0.092111 
0.085854 
0.092111 
0.088131 
0.088705 
0.091000 
0.086983 
0.091556 
0.086983 
0.091000 
0.088705 
0.089278 
0.091574 
0.089278 
0.092722 
0.089278 
0.092722 
0.089278 
0.091574 
0.089278 
0.078183 
0.086427 
0.094672 
0.086427 
0.088131 
0.092111 
0.085854 
0.092111 
0.088131 
0.088705 
0.091000 
0.086983 
0.091556 
0.086983 
0.091000 
0.088705 
0.089278 
0.091574 
0.089278 
0.092722 
0.089278 
0.092722 
0.089278 
0.091574 
0.089278 
0.078183 
0.086427 
0.094672 
0.086427 
0.088131 
0.092111 
0.085854 
0.092111 
0.088131 
0.088705 
0.091000 
0.086983 
0.091556 
0.086983 
0.091000 
0.088705 
0.089278 
0.091574 
0.089278 
0.092722 
0.089278 
0.092722 
0.089278 
0.091574 
0.089278 
0.078183 
0.086427 
0.094672 
0.086427 
0.088131 
0.092111 
0.085854 
0.092111 
0.088131 
0.088705 
0.091000 
0.086983 
0.091556 
0.086983 
0.091000 
0.088705 
0.089278 
0.091574 
0.089278 
0.092722 
0.089278 
0.092722 
0.089278 
0.091574 
0.089278 
0.078183 
0.086427 
0.094672 
0.086427 
0.088131 
0.092111 
0.085854 
0.092111 
0.088131 
0.088705 
0.091000 
0.086983 
0.091556 
0.086983 
0.091000 
0.088705 
0.089278 
0.091574 
0.089278 
0.092722 
0.089278 
0.092722 
0.089278 
0.091574 
0.089278 
SCALARS MASS float 
LOOKUP_TABLE default 
0.078183 
0.086427 
0.094672 
0.086427 
0.088131 
0.092111 
0.085854 
0.092111 
0.088131 
0.088705 
0.091000 
0.086983 
0.091556 
0.086983 
0.091000 
0.088705 
0.089278 
0.091574 
0.089278 
0.092722 
0.089278 
0.092722 
0.089278 
0.091574 
0.089278 
0.078183 
0.086427 
0.094672 
0.086427 
0.088131 
0.092111 
0.085854 
0.092111 
0.088131 
0.088705 
0.091000 
0.086983 
0.091556 
0.086983 
0.091000 
0.088705 
0.089278 
0.091574 
0.089278 
0.092722 
0.089278 
0.092722 
0.089278 
0.091574 
0.089278 
0.078183 
0.086427 
0.094672 
0.086427 
0.088131 
0.092111 
0.085854 
0.092111 
0.088131 
0.088705 
0.091000 
0.086983 
0.091556 
0.086983 
0.091000 
0.088705 
0.089278 
0.091574 
0.089278 
0.092722 
0.089278 
0.092722 
0.089278 
0.091574 
0.089278 
0.078183 
0.086427 
0.094672 
0.086427 
0.088131 
0.092111 
0.085854 
0.092111 
0.088131 
0.088705 
0.091000 
0.086983 
0.091556 
0.086983 
0.091000 
0.088705 
0.089278 
0.091574 
0.089278 
0.092722 
0.089278 
0.092722 
0.089278 
0.091574 
0.089278 
0.078183 
0.086427 
0.094672 
0.086427 
0.088131 
0.092111 
0.085854 
0.092111 
0.088131 
0.088705 
0.091000 
0.086983 
0.091556 
0.086983 
0.091000 
0.088705 
0.089278 
0.091574 
0.089278 
0.092722 
0.089278 
0.092722 
0.089278 
0.091574 
0.089278 
0.078183 
0.086427 
0.094672 
0.086427 
0.088131 
0.092111 
0.085854 
0.092111 
0.088131 
0.088705 
0.091000 
0.086983 
0.091556 
0.086983 
0.091000 
0.088705 
0.089278 
0.091574 
0.089278 
0.092722 
0.089278 
0.092722 
0.089278 
0.091574 
0.089278 
0.078183 
0.086427 
0.094672 
0.086427 
0.088131 
0.092111 
0.085854 
0.092111 
0.088131 
0.088705 
0.091000 
0.086983 
0.091556 
0.086983 
0.091000 
0.088705 
0.089278 
0.091574 
0.089278 
0.092722 
0.089278 
0.092722 
0.089278 
0.091574 
0.089278 
SCALARS DENSITY float 
LOOKUP_TABLE default 
20.000000 
20.000000 
20.000000 
20.000000 
20.000000 
20.000000 
20.000000 
20.000000 
20.000000 
20.000000 
20.000000 
20.000000 
20.000000 
20.000000 
20.000000 
20.000000 
20.000000 
20.000000 
20.000000 
20.000000 
20.000000 
20.000000 
20.000000 
20.000000 
20.000000 
20.000000 
20.000000 
20.000000 
20.000000 
20.000000 
20.000000 
20.000000 
20.000000 
20.000000 
20.000000 
20.000000 
20.000000 
20.000000 
20.000000 
20.000000 
20.000000 
20.000000 
20.000000 
20.000000 
20.000000 
20.000000 
20.000000 
20.000000 
20.000000 
20.000000 
20.000000 
20.000000 
20.000000 
20.000000 
20.000000 
20.000000 
20.000000 
20.000000 
20.000000 
20.000000 
20.000000 
20.000000 
20.000000 
20.000000 
20.000000 
20.000000 
20.000000 
20.000000 
20.000000 
20.000000 
20.000000 
20.000000 
20.000000 
20.000000 
20.000000 
20.000000 
20.000000 
20.000000 
20.000000 
20.000000 
20.000000 
20.000000 
20.000000 
20.000000 
20.000000 
20.000000 
20.000000 
20.000000 
20.000000 
20.000000 
20.000000 
20.000000 
20.000000 
20.000000 
20.000000 
20.000000 
20.000000 
20.000000 
20.000000 
20.000000 
20.000000 
20.000000 
20.000000 
20.000000 
20.000000 
20.000000 
20.000000 
20.000000 
20.000000 
20.000000 
20.000000 
20.000000 
20.000000 
20.000000 
20.000000 
20.000000 
20.000000 
20.000000 
20.000000 
20.000000 
20.000000 
20.000000 
20.000000 
20.000000 
20.000000 
20.000000 
20.000000 
20.000000 
20.000000 
20.000000 
20.000000 
20.000000 
20.000000 
20.000000 
20.000000 
20.000000 
20.000000 
20.000000 
20.000000 
20.000000 
20.000000 
20.000000 
20.000000 
20.000000 
20.000000 
20.000000 
20.000000 
20.000000 
20.000000 
20.000000 
20.000000 
20.000000 
20.000000 
20.000000 
20.000000 
20.000000 
20.000000 
20.000000 
20.000000 
20.000000 
20.000000 
20.000000 
20.000000 
20.000000 
20.000000 
20.000000 
20.000000 
20.000000 
20.000000 
20.000000 
20.000000 
20.000000 
20.000000 
20.000000 
20.000000 
SCALARS ELEM_i float 
LOOKUP_TABLE default 
178 
206 
179 
179 
206 
206 
207 
180 
180 
234 
207 
207 
207 
207 
180 
181 
234 
234 
235 
208 
208 
208 
208 
181 
181 
178 
205 
205 
206 
232 
205 
233 
206 
206 
232 
232 
232 
233 
233 
233 
233 
259 
259 
259 
259 
260 
260 
260 
234 
234 
178 
204 
205 
205 
204 
204 
204 
204 
232 
203 
203 
230 
231 
231 
231 
231 
202 
230 
230 
230 
230 
231 
258 
258 
258 
178 
177 
177 
177 
149 
177 
176 
177 
203 
149 
149 
176 
176 
176 
203 
203 
148 
148 
148 
175 
175 
175 
202 
202 
202 
178 
151 
151 
150 
124 
150 
150 
150 
150 
123 
123 
123 
123 
122 
149 
149 
96 
96 
96 
123 
122 
122 
122 
122 
148 
178 
152 
151 
151 
152 
152 
125 
151 
124 
125 
125 
125 
125 
124 
124 
124 
126 
126 
98 
98 
98 
97 
97 
97 
97 
178 
179 
179 
152 
180 
180 
153 
152 
152 
181 
180 
153 
153 
153 
153 
126 
181 
181 
154 
154 
154 
154 
127 
126 
126 
VECTORS VELOCITY float 
-0.000000 -3.249072 0.000000 
-0.000000 -3.249072 0.000000 
-0.000000 -3.249072 0.000000 
0.000000 -3.249072 0.000000 
-0.000000 -3.249072 0.000000 
0.000000 -3.249072 0.000000 
0.000000 -3.249072 0.000000 
0.000000 -3.249072 0.000000 
0.000000 -3.249072 0.000000 
-0.000000 -3.249072 0.000000 
-0.000000 -3.249072 0.000000 
-0.000000 -3.249072 0.000000 
0.000000 -3.249072 0.000000 
0.000000 -3.249072 0.000000 
0.000000 -3.249072 0.000000 
0.000000 -3.249072 0.000000 
0.000000 -3.249072 0.000000 
-0.000000 -3.249072 0.000000 
-0.000000 -3.249072 0.000000 
-0.000000 -3.249072 0.000000 
0.000000 -3.249072 0.000000 
-0.000000 -3.249072 0.000000 
-0.000000 -3.249072 0.000000 
-0.000000 -3.249072 0.000000 
-0.000000 -3.249072 0.000000 
-0.000000 -3.249072 0.000000 
0.000000 -3.249072 0.000000 
-0.000000 -3.249072 0.000000 
-0.000000 -3.249072 0.000000 
0.000000 -3.249072 0.000000 
0.000000 -3.249072 0.000000 
0.000000 -3.249072 0.000000 
-0.000000 -3.249072 0.000000 
-0.000000 -3.249072 0.000000 
0.000000 -3.249072 0.000000 
0.000000 -3.249072 0.000000 
0.000000 -3.249072 0.000000 
0.000000 -3.249072 0.000000 
0.000000 -3.249072 0.000000 
0.000000 -3.249072 0.000000 
0.000000 -3.249072 0.000000 
-0.000000 -3.249072 0.000000 
-0.000000 -3.249072 0.000000 
-0.000000 -3.249072 0.000000 
0.000000 -3.249072 0.000000 
0.000000 -3.249072 0.000000 
0.000000 -3.249072 0.000000 
-0.000000 -3.249072 0.000000 
0.000000 -3.249072 0.000000 
-0.000000 -3.249072 0.000000 
0.000000 -3.249072 0.000000 
0.000000 -3.249072 0.000000 
0.000000 -3.249072 0.000000 
0.000000 -3.249072 0.000000 
0.000000 -3.249072 0.000000 
0.000000 -3.249072 0.000000 
-0.000000 -3.249072 0.000000 
0.000000 -3.249072 0.000000 
0.000000 -3.249072 0.000000 
-0.000000 -3.249072 0.000000 
-0.000000 -3.249072 0.000000 
-0.000000 -3.249072 0.000000 
-0.000000 -3.249072 0.000000 
0.000000 -3.249072 0.000000 
0.000000 -3.249072 0.000000 
0.000000 -3.249072 0.000000 
-0.000000 -3.249072 0.000000 
-0.000000 -3.249072 0.000000 
-0.000000 -3.249072 0.000000 
-0.000000 -3.249072 0.000000 
-0.000000 -3.249072 0.000000 
0.000000 -3.249072 0.000000 
-0.000000 -3.249072 0.000000 
0.000000 -3.249072 0.000000 
0.000000 -3.249072 0.000000 
0.000000 -3.249072 0.000000 
-0.000000 -3.249072 0.000000 
0.000000 -3.249072 0.000000 
0.000000 -3.249072 0.000000 
-0.000000 -3.249072 0.000000 
-0.000000 -3.249072 0.000000 
0.000000 -3.249072 0.000000 
0.000000 -3.249072 0.000000 
0.000000 -3.249072 0.000000 
0.000000 -3.249072 0.000000 
0.000000 -3.249072 0.000000 
0.000000 -3.249072 0.000000 
-0.000000 -3.249072 0.000000 
-0.000000 -3.249072 0.000000 
-0.000000 -3.249072 0.000000 
-0.000000 -3.249072 0.000000 
-0.000000 -3.249072 0.000000 
0.000000 -3.249072 0.000000 
0.000000 -3.249072 0.000000 
0.000000 -3.249072 0.000000 
0.000000 -3.249072 0.000000 
-0.000000 -3.249072 0.000000 
-0.000000 -3.249072 0.000000 
-0.000000 -3.249072 0.000000 
-0.000000 -3.249072 0.000000 
-0.000000 -3.249072 0.000000 
0.000000 -3.249072 0.000000 
-0.000000 -3.249072 0.000000 
-0.000000 -3.249072 0.000000 
0.000000 -3.249072 0.000000 
0.000000 -3.249072 0.000000 
-0.000000 -3.249072 0.000000 
-0.000000 -3.249072 0.000000 
-0.000000 -3.249072 0.000000 
0.000000 -3.249072 0.000000 
-0.000000 -3.249072 0.000000 
0.000000 -3.249072 0.000000 
-0.000000 -3.249072 0.000000 
-0.000000 -3.249072 0.000000 
-0.000000 -3.249072 0.000000 
-0.000000 -3.249072 0.000000 
0.000000 -3.249072 0.000000 
0.000000 -3.249072 0.000000 
-0.000000 -3.249072 0.000000 
0.000000 -3.249072 0.000000 
0.000000 -3.249072 0.000000 
-0.000000 -3.249072 0.000000 
0.000000 -3.249072 0.000000 
0.000000 -3.249072 0.000000 
0.000000 -3.249072 0.000000 
-0.000000 -3.249072 0.000000 
-0.000000 -3.249072 0.000000 
-0.000000 -3.249072 0.000000 
0.000000 -3.249072 0.000000 
-0.000000 -3.249072 0.000000 
-0.000000 -3.249072 0.000000 
-0.000000 -3.249072 0.000000 
0.000000 -3.249072 0.000000 
0.000000 -3.249072 0.000000 
0.000000 -3.249072 0.000000 
-0.000000 -3.249072 0.000000 
0.000000 -3.249072 0.000000 
-0.000000 -3.249072 0.000000 
-0.000000 -3.249072 0.000000 
-0.000000 -3.249072 0.000000 
-0.000000 -3.249072 0.000000 
-0.000000 -3.249072 0.000000 
0.000000 -3.249072 0.000000 
-0.000000 -3.249072 0.000000 
-0.000000 -3.249072 0.000000 
-0.000000 -3.249072 0.000000 
-0.000000 -3.249072 0.000000 
-0.000000 -3.249072 0.000000 
-0.000000 -3.249072 0.000000 
0.000000 -3.249072 0.000000 
-0.000000 -3.249072 0.000000 
0.000000 -3.249072 0.000000 
0.000000 -3.249072 0.000000 
0.000000 -3.249072 0.000000 
-0.000000 -3.249072 0.000000 
0.000000 -3.249072 0.000000 
0.000000 -3.249072 0.000000 
0.000000 -3.249072 0.000000 
0.000000 -3.249072 0.000000 
-0.000000 -3.249072 0.000000 
-0.000000 -3.249072 0.000000 
-0.000000 -3.249072 0.000000 
-0.000000 -3.249072 0.000000 
0.000000 -3.249072 0.000000 
0.000000 -3.249072 0.000000 
0.000000 -3.249072 0.000000 
-0.000000 -3.249072 0.000000 
-0.000000 -3.249072 0.000000 
-0.000000 -3.249072 0.000000 
-0.000000 -3.249072 0.000000 
0.000000 -3.249072 0.000000 
-0.000000 -3.249072 0.000000 
0.000000 -3.249072 0.000000 
0.000000 -3.249072 0.000000 
-0.000000 -3.249072 0.000000 
TENSORS STRESS float 
-0.000000 -0.000000 0.000000 
0.000000 -0.000000 0.000000 
0.000000 0.000000 0.000000 

0.000000 -0.000000 0.000000 
0.000000 0.000000 0.000000 
0.000000 0.000000 0.000000 

-0.000000 0.000000 0.000000 
0.000000 -0.000000 0.000000 
0.000000 0.000000 0.000000 

-0.000000 0.000000 0.000000 
0.000000 -0.000000 0.000000 
0.000000 0.000000 0.000000 

-0.000000 -0.000000 0.000000 
0.000000 -0.000000 0.000000 
0.000000 0.000000 0.000000 

0.000000 -0.000000 0.000000 
0.000000 0.000000 0.000000 
0.000000 0.000000 0.000000 

-0.000000 0.000000 0.000000 
0.000000 -0.000000 0.000000 
0.000000 0.000000 0.000000 

0.000000 0.000000 0.000000 
0.000000 0.000000 0.000000 
0.000000 0.000000 0.000000 

-0.000000 -0.000000 0.000000 
0.000000 -0.000000 0.000000 
0.000000 0.000000 0.000000 

-0.000000 0.000000 0.000000 
0.000000 -0.000000 0.000000 
0.000000 0.000000 0.000000 

-0.000000 -0.000000 0.000000 
0.000000 -0.000000 0.000000 
0.000000 0.000000 0.000000 

-0.000000 0.000000 0.000000 
0.000000 0.000000 0.000000 
0.000000 0.000000 0.000000 

0.000000 0.000000 0.000000 
0.000000 0.000000 0.000000 
0.000000 0.000000 0.000000 

0.000000 0.000000 0.000000 
0.000000 0.000000 0.000000 
0.000000 0.000000 0.000000 

-0.000000 0.000000 0.000000 
0.000000 -0.000000 0.000000 
0.000000 0.000000 0.000000 

0.000000 0.000000 0.000000 
0.000000 -0.000000 0.000000 
0.000000 0.000000 0.000000 

0.000000 0.000000 0.000000 
0.000000 -0.000000 0.000000 
0.000000 0.000000 0.000000 

0.000000 0.000000 0.000000 
0.000000 -0.000000 0.000000 
0.000000 0.000000 0.000000 

0.000000 -0.000000 0.000000 
0.000000 0.000000 0.000000 
0.000000 0.000000 0.000000 

-0.000000 0.000000 0.000000 
0.000000 -0.000000 0.000000 
0.000000 0.000000 0.000000 

-0.000000 -0.000000 0.000000 
0.000000 -0.000000 0.000000 
0.000000 0.000000 0.000000 

-0.000000 -0.000000 0.000000 
0.000000 -0.000000 0.000000 
0.000000 0.000000 0.000000 

0.000000 -0.000000 0.000000 
0.000000 -0.000000 0.000000 
0.000000 0.000000 0.000000 

-0.000000 0.000000 0.000000 
0.000000 -0.000000 0.000000 
0.000000 0.000000 0.000000 

0.000000 0.000000 0.000000 
0.000000 0.000000 0.000000 
0.000000 0.000000 0.000000 

-0.000000 -0.000000 0.000000 
0.000000 0.000000 0.000000 
0.000000 0.000000 0.000000 

0.000000 0.000000 0.000000 
0.000000 0.000000 0.000000 
0.000000 0.000000 0.000000 

-0.000000 -0.000000 0.000000 
0.000000 -0.000000 0.000000 
0.000000 0.000000 0.000000 

-0.000000 -0.000000 0.000000 
0.000000 -0.000000 0.000000 
0.000000 0.000000 0.000000 

0.000000 0.000000 0.000000 
0.000000 0.000000 0.000000 
0.000000 0.000000 0.000000 

0.000000 -0.000000 0.000000 
0.000000 0.000000 0.000000 
0.000000 0.000000 0.000000 

-0.000000 -0.000000 0.000000 
0.000000 -0.000000 0.000000 
0.000000 0.000000 0.000000 

-0.000000 -0.000000 0.000000 
0.000000 0.000000 0.000000 
0.000000 0.000000 0.000000 

-0.000000 -0.000000 0.000000 
0.000000 -0.000000 0.000000 
0.000000 0.000000 0.000000 

-0.000000 -0.000000 0.000000 
0.000000 0.000000 0.000000 
0.000000 0.000000 0.000000 

0.000000 0.000000 0.000000 
0.000000 0.000000 0.000000 
0.000000 0.000000 0.000000 

-0.000000 0.000000 0.000000 
0.000000 -0.000000 0.000000 
0.000000 0.000000 0.000000 

-0.000000 0.000000 0.000000 
0.000000 -0.000000 0.000000 
0.000000 0.000000 0.000000 

-0.000000 0.000000 0.000000 
0.000000 0.000000 0.000000 
0.000000 0.000000 0.000000 

-0.000000 0.000000 0.000000 
0.000000 0.000000 0.000000 
0.000000 0.000000 0.000000 

-0.000000 -0.000000 0.000000 
0.000000 -0.000000 0.000000 
0.000000 0.000000 0.000000 

-0.000000 -0.000000 0.000000 
0.000000 -0.000000 0.000000 
0.000000 0.000000 0.000000 

0.000000 0.000000 0.000000 
0.000000 0.000000 0.000000 
0.000000 0.000000 0.000000 

0.000000 -0.000000 0.000000 
0.000000 0.000000 0.000000 
0.000000 0.000000 0.000000 

0.000000 0.000000 0.000000 
0.000000 0.000000 0.000000 
0.000000 0.000000 0.000000 

-0.000000 -0.000000 0.000000 
0.000000 0.000000 0.000000 
0.000000 0.000000 0.000000 

-0.000000 -0.000000 0.000000 
0.000000 -0.000000 0.000000 
0.000000 0.000000 0.000000 

0.000000 -0.000000 0.000000 
0.000000 -0.000000 0.000000 
0.000000 0.000000 0.000000 

-0.000000 -0.000000 0.000000 
0.000000 -0.000000 0.000000 
0.000000 0.000000 0.000000 

-0.000000 -0.000000 0.000000 
0.000000 -0.000000 0.000000 
0.000000 0.000000 0.000000 

0.000000 -0.000000 0.000000 
0.000000 0.000000 0.000000 
0.000000 0.000000 0.000000 

-0.000000 0.000000 0.000000 
0.000000 -0.000000 0.000000 
0.000000 0.000000 0.000000 

-0.000000 0.000000 0.000000 
0.000000 -0.000000 0.000000 
0.000000 0.000000 0.000000 

-0.000000 0.000000 0.000000 
0.000000 0.000000 0.000000 
0.000000 0.000000 0.000000 

-0.000000 0.000000 0.000000 
0.000000 -0.000000 0.000000 
0.000000 0.000000 0.000000 

-0.000000 0.000000 0.000000 
0.000000 -0.000000 0.000000 
0.000000 0.000000 0.000000 

-0.000000 0.000000 0.000000 
0.000000 0.000000 0.000000 
0.000000 0.000000 0.000000 

-0.000000 -0.000000 0.000000 
0.000000 0.000000 0.000000 
0.000000 0.000000 0.000000 

-0.000000 0.000000 0.000000 
0.000000 0.000000 0.000000 
0.000000 0.000000 0.000000 

-0.000000 0.000000 0.000000 
0.000000 0.000000 0.000000 
0.000000 0.000000 0.000000 

-0.000000 0.000000 0.000000 
0.000000 0.000000 0.000000 
0.000000 0.000000 0.000000 

0.000000 0.000000 0.000000 
0.000000 -0.000000 0.000000 
0.000000 0.000000 0.000000 

0.000000 -0.000000 0.000000 
0.000000 0.000000 0.000000 
0.000000 0.000000 0.000000 

0.000000 0.000000 0.000000 
0.000000 -0.000000 0.000000 
0.000000 0.000000 0.000000 

0.000000 0.000000 0.000000 
0.000000 0.000000 0.000000 
0.000000 0.000000 0.000000 

-0.000000 -0.000000 0.000000 
0.000000 -0.000000 0.000000 
0.000000 0.000000 0.000000 

0.000000 0.000000 0.000000 
0.000000 0.000000 0.000000 
0.000000 0.000000 0.000000 

0.000000 -0.000000 0.000000 
0.000000 0.000000 0.000000 
0.000000 0.000000 0.000000 

0.000000 -0.000000 0.000000 
0.000000 0.000000 0.000000 
0.000000 0.000000 0.000000 

0.000000 -0.000000 0.000000 
0.000000 0.000000 0.000000 
0.000000 0.000000 0.000000 

0.000000 -0.000000 0.000000 
0.000000 -0.000000 0.000000 
0.000000 0.000000 0.000000 

0.000000 -0.000000 0.000000 
0.000000 -0.000000 0.000000 
0.000000 0.000000 0.000000 

-0.000000 0.000000 0.000000 
0.000000 0.000000 0.000000 
0.000000 0.000000 0.000000 

-0.000000 0.000000 0.000000 
0.000000 -0.000000 0.000000 
0.000000 0.000000 0.000000 

-0.000000 0.000000 0.000000 
0.000000 0.000000 0.000000 
0.000000 0.000000 0.000000 

-0.000000 -0.000000 0.000000 
0.000000 -0.000000 0.000000 
0.000000 0.000000 0.000000 

-0.000000 -0.000000 0.000000 
0.000000 -0.000000 0.000000 
0.000000 0.000000 0.000000 

0.000000 -0.000000 0.000000 
0.000000 0.000000 0.000000 
0.000000 0.000000 0.000000 

0.000000 -0.000000 0.000000 
0.000000 0.000000 0.000000 
0.000000 0.000000 0.000000 

-0.000000 -0.000000 0.000000 
0.000000 -0.000000 0.000000 
0.000000 0.000000 0.000000 

-0.000000 0.000000 0.000000 
0.000000 -0.000000 0.000000 
0.000000 0.000000 0.000000 

-0.000000 -0.000000 0.000000 
0.000000 -0.000000 0.000000 
0.000000 0.000000 0.000000 

-0.000000 0.000000 0.000000 
0.000000 -0.000000 0.000000 
0.000000 0.000000 0.000000 

-0.000000 0.000000 0.000000 
0.000000 0.000000 0.000000 
0.000000 0.000000 0.000000 

-0.000000 -0.000000 0.000000 
0.000000 0.000000 0.000000 
0.000000 0.000000 0.000000 

-0.000000 0.000000 0.000000 
0.000000 0.000000 0.000000 
0.000000 0.000000 0.000000 

-0.000000 0.000000 0.000000 
0.000000 0.000000 0.000000 
0.000000 0.000000 0.000000 

-0.000000 -0.000000 0.000000 
0.000000 0.000000 0.000000 
0.000000 0.000000 0.000000 

-0.000000 -0.000000 0.000000 
0.000000 0.000000 0.000000 
0.000000 0.000000 0.000000 

-0.000000 0.000000 0.000000 
0.000000 0.000000 0.000000 
0.000000 0.000000 0.000000 

-0.000000 0.000000 0.000000 
0.000000 -0.000000 0.000000 
0.000000 0.000000 0.000000 

-0.000000 -0.000000 0.000000 
0.000000 -0.000000 0.000000 
0.000000 0.000000 0.000000 

-0.000000 0.000000 0.000000 
0.000000 0.000000 0.000000 
0.000000 0.000000 0.000000 

0.000000 -0.000000 0.000000 
0.000000 0.000000 0.000000 
0.000000 0.000000 0.000000 

-0.000000 -0.000000 0.000000 
0.000000 0.000000 0.000000 
0.000000 0.000000 0.000000 

0.000000 -0.000000 0.000000 
0.000000 0.000000 0.000000 
0.000000 0.000000 0.000000 

-0.000000 0.000000 0.000000 
0.000000 -0.000000 0.000000 
0.000000 0.000000 0.000000 

-0.000000 0.000000 0.000000 
0.000000 -0.000000 0.000000 
0.000000 0.000000 0.000000 

0.000000 -0.000000 0.000000 
0.000000 -0.000000 0.000000 
0.000000 0.000000 0.000000 

-0.000000 0.000000 0.000000 
0.000000 -0.000000 0.000000 
0.000000 0.000000 0.000000 

-0.000000 -0.000000 0.000000 
0.000000 -0.000000 0.000000 
0.000000 0.000000 0.000000 

-0.000000 -0.000000 0.000000 
0.000000 -0.000000 0.000000 
0.000000 0.000000 0.000000 

-0.000000 -0.000000 0.000000 
0.000000 -0.000000 0.000000 
0.000000 0.000000 0.000000 

0.000000 0.000000 0.000000 
0.000000 0.000000 0.000000 
0.000000 0.000000 0.000000 

-0.000000 -0.000000 0.000000 
0.000000 -0.000000 0.000000 
0.000000 0.000000 0.000000 

0.000000 0.000000 0.000000 
0.000000 0.000000 0.000000 
0.000000 0.000000 0.000000 

0.000000 0.000000 0.000000 
0.000000 0.000000 0.000000 
0.000000 0.000000 0.000000 

-0.000000 -0.000000 0.000000 
0.000000 0.000000 0.000000 
0.000000 0.000000 0.000000 

-0.000000 -0.000000 0.000000 
0.000000 -0.000000 0.000000 
0.000000 0.000000 0.000000 

-0.000000 -0.000000 0.000000 
0.000000 0.000000 0.000000 
0.000000 0.000000 0.000000 

-0.000000 -0.000000 0.000000 
0.000000 -0.000000 0.000000 
0.000000 0.000000 0.000000 

-0.000000 -0.000000 0.000000 
0.000000 -0.000000 0.000000 
0.000000 0.000000 0.000000 

0.000000 -0.000000 0.000000 
0.000000 0.000000 0.000000 
0.000000 0.000000 0.000000 

-0.000000 -0.000000 0.000000 
0.000000 -0.000000 0.000000 
0.000000 0.000000 0.000000 

-0.000000 -0.000000 0.000000 
0.000000 0.000000 0.000000 
0.000000 0.000000 0.000000 

-0.000000 -0.000000 0.000000 
0.000000 -0.000000 0.000000 
0.000000 0.000000 0.000000 

-0.000000 -0.000000 0.000000 
0.000000 0.000000 0.000000 
0.000000 0.000000 0.000000 

-0.000000 -0.000000 0.000000 
0.000000 0.000000 0.000000 
0.000000 0.000000 0.000000 

0.000000 -0.000000 0.000000 
0.000000 -0.000000 0.000000 
0.000000 0.000000 0.000000 

-0.000000 -0.000000 0.000000 
0.000000 -0.000000 0.000000 
0.000000 0.000000 0.000000 

0.000000 0.000000 0.000000 
0.000000 0.000000 0.000000 
0.000000 0.000000 0.000000 

0.000000 -0.000000 0.000000 
0.000000 0.000000 0.000000 
0.000000 0.000000 0.000000 

-0.000000 0.000000 0.000000 
0.000000 0.000000 0.000000 
0.000000 0.000000 0.000000 

-0.000000 -0.000000 0.000000 
0.000000 -0.000000 0.000000 
0.000000 0.000000 0.000000 

0.000000 -0.000000 0.000000 
0.000000 0.000000 0.000000 
0.000000 0.000000 0.000000 

-0.000000 -0.000000 0.000000 
0.000000 -0.000000 0.000000 
0.000000 0.000000 0.000000 

0.000000 0.000000 0.000000 
0.000000 -0.000000 0.000000 
0.000000 0.000000 0.000000 

-0.000000 -0.000000 0.000000 
0.000000 -0.000000 0.000000 
0.000000 0.000000 0.000000 

-0.000000 -0.000000 0.000000 
0.000000 -0.000000 0.000000 
0.000000 0.000000 0.000000 

0.000000 -0.000000 0.000000 
0.000000 -0.000000 0.000000 
0.000000 0.000000 0.000000 

0.000000 -0.000000 0.000000 
0.000000 0.000000 0.000000 
0.000000 0.000000 0.000000 

-0.000000 -0.000000 0.000000 
0.000000 -0.000000 0.000000 
0.000000 0.000000 0.000000 

-0.000000 -0.000000 0.000000 
0.000000 0.000000 0.000000 
0.000000 0.000000 0.000000 

0.000000 0.000000 0.000000 
0.000000 -0.000000 0.000000 
0.000000 0.000000 0.000000 

0.000000 0.000000 0.000000 
0.000000 0.000000 0.000000 
0.000000 0.000000 0.000000 

0.000000 -0.000000 0.000000 
0.000000 0.000000 0.000000 
0.000000 0.000000 0.000000 

0.000000 -0.000000 0.000000 
0.000000 -0.000000 0.000000 
0.000000 0.000000 0.000000 

0.000000 -0.000000 0.000000 
0.000000 0.000000 0.000000 
0.000000 0.000000 0.000000 

-0.000000 -0.000000 0.000000 
0.000000 -0.000000 0.000000 
0.000000 0.000000 0.000000 

-0.000000 -0.000000 0.000000 
0.000000 -0.000000 0.000000 
0.000000 0.000000 0.000000 

0.000000 -0.000000 0.000000 
0.000000 0.000000 0.000000 
0.000000 0.000000 0.000000 

-0.000000 -0.000000 0.000000 
0.000000 -0.000000 0.000000 
0.000000 0.000000 0.000000 

0.000000 0.000000 0.000000 
0.000000 -0.000000 0.000000 
0.000000 0.000000 0.000000 

-0.000000 -0.000000 0.000000 
0.000000 -0.000000 0.000000 
0.000000 0.000000 0.000000 

0.000000 -0.000000 0.000000 
0.000000 0.000000 0.000000 
0.000000 0.000000 0.000000 

0.000000 0.000000 0.000000 
0.000000 0.000000 0.000000 
0.000000 0.000000 0.000000 

-0.000000 0.000000 0.000000 
0.000000 0.000000 0.000000 
0.000000 0.000000 0.000000 

-0.000000 0.000000 0.000000 
0.000000 0.000000 0.000000 
0.000000 0.000000 0.000000 

-0.000000 0.000000 0.000000 
0.000000 -0.000000 0.000000 
0.000000 0.000000 0.000000 

-0.000000 0.000000 0.000000 
0.000000 0.000000 0.000000 
0.000000 0.000000 0.000000 

-0.000000 -0.000000 0.000000 
0.000000 0.000000 0.000000 
0.000000 0.000000 0.000000 

0.000000 0.000000 0.000000 
0.000000 0.000000 0.000000 
0.000000 0.000000 0.000000 

0.000000 0.000000 0.000000 
0.000000 0.000000 0.000000 
0.000000 0.000000 0.000000 

-0.000000 0.000000 0.000000 
0.000000 -0.000000 0.000000 
0.000000 0.000000 0.000000 

-0.000000 -0.000000 0.000000 
0.000000 -0.000000 0.000000 
0.000000 0.000000 0.000000 

0.000000 0.000000 0.000000 
0.000000 0.000000 0.000000 
0.000000 0.000000 0.000000 

-0.000000 0.000000 0.000000 
0.000000 -0.000000 0.000000 
0.000000 0.000000 0.000000 

-0.000000 -0.000000 0.000000 
0.000000 -0.000000 0.000000 
0.000000 0.000000 0.000000 

-0.000000 0.000000 0.000000 
0.000000 0.000000 0.000000 
0.000000 0.000000 0.000000 

0.000000 0.000000 0.000000 
0.000000 -0.000000 0.000000 
0.000000 0.000000 0.000000 

0.000000 0.000000 0.000000 
0.000000 -0.000000 0.000000 
0.000000 0.000000 0.000000 

-0.000000 -0.000000 0.000000 
0.000000 0.000000 0.000000 
0.000000 0.000000 0.000000 

-0.000000 0.000000 0.000000 
0.000000 0.000000 0.000000 
0.000000 0.000000 0.000000 

-0.000000 0.000000 0.000000 
0.000000 0.000000 0.000000 
0.000000 0.000000 0.000000 

0.000000 0.000000 0.000000 
0.000000 0.000000 0.000000 
0.000000 0.000000 0.000000 

0.000000 -0.000000 0.000000 
0.000000 0.000000 0.000000 
0.000000 0.000000 0.000000 

-0.000000 0.000000 0.000000 
0.000000 -0.000000 0.000000 
0.000000 0.000000 0.000000 

0.000000 0.000000 0.000000 
0.000000 0.000000 0.000000 
0.000000 0.000000 0.000000 

-0.000000 0.000000 0.000000 
0.000000 0.000000 0.000000 
0.000000 0.000000 0.000000 

-0.000000 0.000000 0.000000 
0.000000 -0.000000 0.000000 
0.000000 0.000000 0.000000 

-0.000000 -0.000000 0.000000 
0.000000 0.000000 0.000000 
0.000000 0.000000 0.000000 

-0.000000 0.000000 0.000000 
0.000000 -0.000000 0.000000 
0.000000 0.000000 0.000000 

-0.000000 -0.000000 0.000000 
0.000000 -0.000000 0.000000 
0.000000 0.000000 0.000000 

-0.000000 -0.000000 0.000000 
0.000000 -0.000000 0.000000 
0.000000 0.000000 0.000000 

-0.000000 -0.000000 0.000000 
0.000000 -0.000000 0.000000 
0.000000 0.000000 0.000000 

TENSORS STRAIN float 
-0.000000 -0.000000 0.000000 
0.000000 -0.000000 0.000000 
0.000000 0.000000 0.000000 

-0.000000 -0.000000 0.000000 
0.000000 0.000000 0.000000 
0.000000 0.000000 0.000000 

-0.000000 0.000000 0.000000 
0.000000 -0.000000 0.000000 
0.000000 0.000000 0.000000 

0.000000 0.000000 0.000000 
0.000000 -0.000000 0.000000 
0.000000 0.000000 0.000000 

-0.000000 -0.000000 0.000000 
0.000000 -0.000000 0.000000 
0.000000 0.000000 0.000000 

-0.000000 -0.000000 0.000000 
0.000000 0.000000 0.000000 
0.000000 0.000000 0.000000 

0.000000 0.000000 0.000000 
0.000000 -0.000000 0.000000 
0.000000 0.000000 0.000000 

-0.000000 0.000000 0.000000 
0.000000 0.000000 0.000000 
0.000000 0.000000 0.000000 

-0.000000 -0.000000 0.000000 
0.000000 -0.000000 0.000000 
0.000000 0.000000 0.000000 

0.000000 0.000000 0.000000 
0.000000 -0.000000 0.000000 
0.000000 0.000000 0.000000 

0.000000 -0.000000 0.000000 
0.000000 -0.000000 0.000000 
0.000000 0.000000 0.000000 

-0.000000 0.000000 0.000000 
0.000000 0.000000 0.000000 
0.000000 0.000000 0.000000 

-0.000000 0.000000 0.000000 
0.000000 0.000000 0.000000 
0.000000 0.000000 0.000000 

-0.000000 0.000000 0.000000 
0.000000 0.000000 0.000000 
0.000000 0.000000 0.000000 

0.000000 0.000000 0.000000 
0.000000 -0.000000 0.000000 
0.000000 0.000000 0.000000 

0.000000 0.000000 0.000000 
0.000000 -0.000000 0.000000 
0.000000 0.000000 0.000000 

0.000000 0.000000 0.000000 
0.000000 -0.000000 0.000000 
0.000000 0.000000 0.000000 

0.000000 0.000000 0.000000 
0.000000 -0.000000 0.000000 
0.000000 0.000000 0.000000 

0.000000 -0.000000 0.000000 
0.000000 0.000000 0.000000 
0.000000 0.000000 0.000000 

-0.000000 0.000000 0.000000 
0.000000 -0.000000 0.000000 
0.000000 0.000000 0.000000 

0.000000 -0.000000 0.000000 
0.000000 -0.000000 0.000000 
0.000000 0.000000 0.000000 

0.000000 -0.000000 0.000000 
0.000000 -0.000000 0.000000 
0.000000 0.000000 0.000000 

0.000000 -0.000000 0.000000 
0.000000 -0.000000 0.000000 
0.000000 0.000000 0.000000 

0.000000 0.000000 0.000000 
0.000000 -0.000000 0.000000 
0.000000 0.000000 0.000000 

-0.000000 0.000000 0.000000 
0.000000 0.000000 0.000000 
0.000000 0.000000 0.000000 

-0.000000 -0.000000 0.000000 
0.000000 0.000000 0.000000 
0.000000 0.000000 0.000000 

-0.000000 0.000000 0.000000 
0.000000 0.000000 0.000000 
0.000000 0.000000 0.000000 

0.000000 -0.000000 0.000000 
0.000000 -0.000000 0.000000 
0.000000 0.000000 0.000000 

-0.000000 -0.000000 0.000000 
0.000000 -0.000000 0.000000 
0.000000 0.000000 0.000000 

-0.000000 0.000000 0.000000 
0.000000 0.000000 0.000000 
0.000000 0.000000 0.000000 

0.000000 -0.000000 0.000000 
0.000000 0.000000 0.000000 
0.000000 0.000000 0.000000 

-0.000000 -0.000000 0.000000 
0.000000 -0.000000 0.000000 
0.000000 0.000000 0.000000 

-0.000000 -0.000000 0.000000 
0.000000 0.000000 0.000000 
0.000000 0.000000 0.000000 

-0.000000 -0.000000 0.000000 
0.000000 -0.000000 0.000000 
0.000000 0.000000 0.000000 

-0.000000 -0.000000 0.000000 
0.000000 0.000000 0.000000 
0.000000 0.000000 0.000000 

-0.000000 0.000000 0.000000 
0.000000 0.000000 0.000000 
0.000000 0.000000 0.000000 

-0.000000 0.000000 0.000000 
0.000000 0.000000 0.000000 
0.000000 0.000000 0.000000 

-0.000000 0.000000 0.000000 
0.000000 -0.000000 0.000000 
0.000000 0.000000 0.000000 

-0.000000 0.000000 0.000000 
0.000000 0.000000 0.000000 
0.000000 0.000000 0.000000 

-0.000000 0.000000 0.000000 
0.000000 0.000000 0.000000 
0.000000 0.000000 0.000000 

-0.000000 -0.000000 0.000000 
0.000000 0.000000 0.000000 
0.000000 0.000000 0.000000 

-0.000000 -0.000000 0.000000 
0.000000 -0.000000 0.000000 
0.000000 0.000000 0.000000 

-0.000000 0.000000 0.000000 
0.000000 0.000000 0.000000 
0.000000 0.000000 0.000000 

-0.000000 -0.000000 0.000000 
0.000000 0.000000 0.000000 
0.000000 0.000000 0.000000 

0.000000 0.000000 0.000000 
0.000000 0.000000 0.000000 
0.000000 0.000000 0.000000 

-0.000000 -0.000000 0.000000 
0.000000 0.000000 0.000000 
0.000000 0.000000 0.000000 

-0.000000 -0.000000 0.000000 
0.000000 -0.000000 0.000000 
0.000000 0.000000 0.000000 

0.000000 -0.000000 0.000000 
0.000000 -0.000000 0.000000 
0.000000 0.000000 0.000000 

0.000000 -0.000000 0.000000 
0.000000 -0.000000 0.000000 
0.000000 0.000000 0.000000 

0.000000 -0.000000 0.000000 
0.000000 -0.000000 0.000000 
0.000000 0.000000 0.000000 

-0.000000 -0.000000 0.000000 
0.000000 0.000000 0.000000 
0.000000 0.000000 0.000000 

-0.000000 0.000000 0.000000 
0.000000 0.000000 0.000000 
0.000000 0.000000 0.000000 

-0.000000 0.000000 0.000000 
0.000000 -0.000000 0.000000 
0.000000 0.000000 0.000000 

-0.000000 0.000000 0.000000 
0.000000 0.000000 0.000000 
0.000000 0.000000 0.000000 

-0.000000 0.000000 0.000000 
0.000000 -0.000000 0.000000 
0.000000 0.000000 0.000000 

-0.000000 0.000000 0.000000 
0.000000 -0.000000 0.000000 
0.000000 0.000000 0.000000 

-0.000000 0.000000 0.000000 
0.000000 0.000000 0.000000 
0.000000 0.000000 0.000000 

-0.000000 -0.000000 0.000000 
0.000000 0.000000 0.000000 
0.000000 0.000000 0.000000 

-0.000000 0.000000 0.000000 
0.000000 0.000000 0.000000 
0.000000 0.000000 0.000000 

-0.000000 0.000000 0.000000 
0.000000 0.000000 0.000000 
0.000000 0.000000 0.000000 

-0.000000 0.000000 0.000000 
0.000000 0.000000 0.000000 
0.000000 0.000000 0.000000 

0.000000 0.000000 0.000000 
0.000000 -0.000000 0.000000 
0.000000 0.000000 0.000000 

0.000000 -0.000000 0.000000 
0.000000 -0.000000 0.000000 
0.000000 0.000000 0.000000 

0.000000 0.000000 0.000000 
0.000000 -0.000000 0.000000 
0.000000 0.000000 0.000000 

-0.000000 0.000000 0.000000 
0.000000 0.000000 0.000000 
0.000000 0.000000 0.000000 

-0.000000 -0.000000 0.000000 
0.000000 -0.000000 0.000000 
0.000000 0.000000 0.000000 

0.000000 0.000000 0.000000 
0.000000 0.000000 0.000000 
0.000000 0.000000 0.000000 

0.000000 -0.000000 0.000000 
0.000000 0.000000 0.000000 
0.000000 0.000000 0.000000 

0.000000 -0.000000 0.000000 
0.000000 0.000000 0.000000 
0.000000 0.000000 0.000000 

0.000000 -0.000000 0.000000 
0.000000 0.000000 0.000000 
0.000000 0.000000 0.000000 

0.000000 -0.000000 0.000000 
0.000000 -0.000000 0.000000 
0.000000 0.000000 0.000000 

0.000000 -0.000000 0.000000 
0.000000 -0.000000 0.000000 
0.000000 0.000000 0.000000 

-0.000000 0.000000 0.000000 
0.000000 0.000000 0.000000 
0.000000 0.000000 0.000000 

-0.000000 0.000000 0.000000 
0.000000 -0.000000 0.000000 
0.000000 0.000000 0.000000 

-0.000000 0.000000 0.000000 
0.000000 0.000000 0.000000 
0.000000 0.000000 0.000000 

-0.000000 -0.000000 0.000000 
0.000000 -0.000000 0.000000 
0.000000 0.000000 0.000000 

-0.000000 -0.000000 0.000000 
0.000000 -0.000000 0.000000 
0.000000 0.000000 0.000000 

-0.000000 -0.000000 0.000000 
0.000000 0.000000 0.000000 
0.000000 0.000000 0.000000 

-0.000000 -0.000000 0.000000 
0.000000 0.000000 0.000000 
0.000000 0.000000 0.000000 

-0.000000 -0.000000 0.000000 
0.000000 -0.000000 0.000000 
0.000000 0.000000 0.000000 

-0.000000 0.000000 0.000000 
0.000000 -0.000000 0.000000 
0.000000 0.000000 0.000000 

-0.000000 -0.000000 0.000000 
0.000000 -0.000000 0.000000 
0.000000 0.000000 0.000000 

-0.000000 0.000000 0.000000 
0.000000 -0.000000 0.000000 
0.000000 0.000000 0.000000 

-0.000000 0.000000 0.000000 
0.000000 0.000000 0.000000 
0.000000 0.000000 0.000000 

-0.000000 -0.000000 0.000000 
0.000000 0.000000 0.000000 
0.000000 0.000000 0.000000 

-0.000000 0.000000 0.000000 
0.000000 0.000000 0.000000 
0.000000 0.000000 0.000000 

-0.000000 0.000000 0.000000 
0.000000 0.000000 0.000000 
0.000000 0.000000 0.000000 

-0.000000 -0.000000 0.000000 
0.000000 0.000000 0.000000 
0.000000 0.000000 0.000000 

-0.000000 -0.000000 0.000000 
0.000000 0.000000 0.000000 
0.000000 0.000000 0.000000 

-0.000000 0.000000 0.000000 
0.000000 0.000000 0.000000 
0.000000 0.000000 0.000000 

-0.000000 0.000000 0.000000 
0.000000 -0.000000 0.000000 
0.000000 0.000000 0.000000 

-0.000000 -0.000000 0.000000 
0.000000 -0.000000 0.000000 
0.000000 0.000000 0.000000 

-0.000000 0.000000 0.000000 
0.000000 0.000000 0.000000 
0.000000 0.000000 0.000000 

-0.000000 -0.000000 0.000000 
0.000000 0.000000 0.000000 
0.000000 0.000000 0.000000 

-0.000000 -0.000000 0.000000 
0.000000 0.000000 0.000000 
0.000000 0.000000 0.000000 

0.000000 -0.000000 0.000000 
0.000000 0.000000 0.000000 
0.000000 0.000000 0.000000 

-0.000000 0.000000 0.000000 
0.000000 -0.000000 0.000000 
0.000000 0.000000 0.000000 

0.000000 0.000000 0.000000 
0.000000 -0.000000 0.000000 
0.000000 0.000000 0.000000 

0.000000 -0.000000 0.000000 
0.000000 -0.000000 0.000000 
0.000000 0.000000 0.000000 

0.000000 0.000000 0.000000 
0.000000 -0.000000 0.000000 
0.000000 0.000000 0.000000 

-0.000000 -0.000000 0.000000 
0.000000 -0.000000 0.000000 
0.000000 0.000000 0.000000 

-0.000000 -0.000000 0.000000 
0.000000 -0.000000 0.000000 
0.000000 0.000000 0.000000 

-0.000000 -0.000000 0.000000 
0.000000 -0.000000 0.000000 
0.000000 0.000000 0.000000 

0.000000 0.000000 0.000000 
0.000000 0.000000 0.000000 
0.000000 0.000000 0.000000 

-0.000000 -0.000000 0.000000 
0.000000 -0.000000 0.000000 
0.000000 0.000000 0.000000 

0.000000 0.000000 0.000000 
0.000000 0.000000 0.000000 
0.000000 0.000000 0.000000 

-0.000000 0.000000 0.000000 
0.000000 0.000000 0.000000 
0.000000 0.000000 0.000000 

-0.000000 -0.000000 0.000000 
0.000000 0.000000 0.000000 
0.000000 0.000000 0.000000 

-0.000000 -0.000000 0.000000 
0.000000 -0.000000 0.000000 
0.000000 0.000000 0.000000 

-0.000000 -0.000000 0.000000 
0.000000 0.000000 0.000000 
0.000000 0.000000 0.000000 

-0.000000 -0.000000 0.000000 
0.000000 -0.000000 0.000000 
0.000000 0.000000 0.000000 

-0.000000 -0.000000 0.000000 
0.000000 -0.000000 0.000000 
0.000000 0.000000 0.000000 

0.000000 -0.000000 0.000000 
0.000000 0.000000 0.000000 
0.000000 0.000000 0.000000 

0.000000 -0.000000 0.000000 
0.000000 -0.000000 0.000000 
0.000000 0.000000 0.000000 

-0.000000 -0.000000 0.000000 
0.000000 0.000000 0.000000 
0.000000 0.000000 0.000000 

-0.000000 -0.000000 0.000000 
0.000000 -0.000000 0.000000 
0.000000 0.000000 0.000000 

-0.000000 -0.000000 0.000000 
0.000000 0.000000 0.000000 
0.000000 0.000000 0.000000 

-0.000000 -0.000000 0.000000 
0.000000 0.000000 0.000000 
0.000000 0.000000 0.000000 

0.000000 -0.000000 0.000000 
0.000000 -0.000000 0.000000 
0.000000 0.000000 0.000000 

0.000000 -0.000000 0.000000 
0.000000 -0.000000 0.000000 
0.000000 0.000000 0.000000 

0.000000 0.000000 0.000000 
0.000000 0.000000 0.000000 
0.000000 0.000000 0.000000 

0.000000 -0.000000 0.000000 
0.000000 0.000000 0.000000 
0.000000 0.000000 0.000000 

-0.000000 0.000000 0.000000 
0.000000 0.000000 0.000000 
0.000000 0.000000 0.000000 

-0.000000 -0.000000 0.000000 
0.000000 -0.000000 0.000000 
0.000000 0.000000 0.000000 

-0.000000 -0.000000 0.000000 
0.000000 0.000000 0.000000 
0.000000 0.000000 0.000000 

-0.000000 -0.000000 0.000000 
0.000000 -0.000000 0.000000 
0.000000 0.000000 0.000000 

0.000000 0.000000 0.000000 
0.000000 -0.000000 0.000000 
0.000000 0.000000 0.000000 

0.000000 -0.000000 0.000000 
0.000000 -0.000000 0.000000 
0.000000 0.000000 0.000000 

-0.000000 -0.000000 0.000000 
0.000000 -0.000000 0.000000 
0.000000 0.000000 0.000000 

0.000000 -0.000000 0.000000 
0.000000 -0.000000 0.000000 
0.000000 0.000000 0.000000 

0.000000 -0.000000 0.000000 
0.000000 0.000000 0.000000 
0.000000 0.000000 0.000000 

0.000000 -0.000000 0.000000 
0.000000 -0.000000 0.000000 
0.000000 0.000000 0.000000 

-0.000000 -0.000000 0.000000 
0.000000 0.000000 0.000000 
0.000000 0.000000 0.000000 

0.000000 0.000000 0.000000 
0.000000 -0.000000 0.000000 
0.000000 0.000000 0.000000 

0.000000 0.000000 0.000000 
0.000000 0.000000 0.000000 
0.000000 0.000000 0.000000 

0.000000 -0.000000 0.000000 
0.000000 0.000000 0.000000 
0.000000 0.000000 0.000000 

0.000000 -0.000000 0.000000 
0.000000 -0.000000 0.000000 
0.000000 0.000000 0.000000 

0.000000 -0.000000 0.000000 
0.000000 0.000000 0.000000 
0.000000 0.000000 0.000000 

0.000000 -0.000000 0.000000 
0.000000 -0.000000 0.000000 
0.000000 0.000000 0.000000 

0.000000 -0.000000 0.000000 
0.000000 -0.000000 0.000000 
0.000000 0.000000 0.000000 

-0.000000 -0.000000 0.000000 
0.000000 0.000000 0.000000 
0.000000 0.000000 0.000000 

0.000000 -0.000000 0.000000 
0.000000 -0.000000 0.000000 
0.000000 0.000000 0.000000 

0.000000 0.000000 0.000000 
0.000000 -0.000000 0.000000 
0.000000 0.000000 0.000000 

-0.000000 -0.000000 0.000000 
0.000000 -0.000000 0.000000 
0.000000 0.000000 0.000000 

0.000000 -0.000000 0.000000 
0.000000 0.000000 0.000000 
0.000000 0.000000 0.000000 

-0.000000 0.000000 0.000000 
0.000000 0.000000 0.000000 
0.000000 0.000000 0.000000 

-0.000000 0.000000 0.000000 
0.000000 0.000000 0.000000 
0.000000 0.000000 0.000000 

-0.000000 0.000000 0.000000 
0.000000 0.000000 0.000000 
0.000000 0.000000 0.000000 

-0.000000 0.000000 0.000000 
0.000000 -0.000000 0.000000 
0.000000 0.000000 0.000000 

-0.000000 0.000000 0.000000 
0.000000 0.000000 0.000000 
0.000000 0.000000 0.000000 

-0.000000 -0.000000 0.000000 
0.000000 0.000000 0.000000 
0.000000 0.000000 0.000000 

0.000000 0.000000 0.000000 
0.000000 0.000000 0.000000 
0.000000 0.000000 0.000000 

-0.000000 0.000000 0.000000 
0.000000 0.000000 0.000000 
0.000000 0.000000 0.000000 

0.000000 0.000000 0.000000 
0.000000 -0.000000 0.000000 
0.000000 0.000000 0.000000 

-0.000000 -0.000000 0.000000 
0.000000 -0.000000 0.000000 
0.000000 0.000000 0.000000 

-0.000000 0.000000 0.000000 
0.000000 0.000000 0.000000 
0.000000 0.000000 0.000000 

-0.000000 0.000000 0.000000 
0.000000 0.000000 0.000000 
0.000000 0.000000 0.000000 

-0.000000 -0.000000 0.000000 
0.000000 -0.000000 0.000000 
0.000000 0.000000 0.000000 

-0.000000 0.000000 0.000000 
0.000000 0.000000 0.000000 
0.000000 0.000000 0.000000 

0.000000 0.000000 0.000000 
0.000000 -0.000000 0.000000 
0.000000 0.000000 0.000000 

0.000000 0.000000 0.000000 
0.000000 -0.000000 0.000000 
0.000000 0.000000 0.000000 

-0.000000 -0.000000 0.000000 
0.000000 0.000000 0.000000 
0.000000 0.000000 0.000000 

-0.000000 0.000000 0.000000 
0.000000 0.000000 0.000000 
0.000000 0.000000 0.000000 

-0.000000 0.000000 0.000000 
0.000000 0.000000 0.000000 
0.000000 0.000000 0.000000 

-0.000000 0.000000 0.000000 
0.000000 0.000000 0.000000 
0.000000 0.000000 0.000000 

0.000000 -0.000000 0.000000 
0.000000 0.000000 0.000000 
0.000000 0.000000 0.000000 

-0.000000 0.000000 0.000000 
0.000000 -0.000000 0.000000 
0.000000 0.000000 0.000000 

0.000000 0.000000 0.000000 
0.000000 0.000000 0.000000 
0.000000 0.000000 0.000000 

-0.000000 0.000000 0.000000 
0.000000 0.000000 0.000000 
0.000000 0.000000 0.000000 

-0.000000 0.000000 0.000000 
0.000000 -0.000000 0.000000 
0.000000 0.000000 0.000000 

-0.000000 -0.000000 0.000000 
0.000000 0.000000 0.000000 
0.000000 0.000000 0.000000 

-0.000000 0.000000 0.000000 
0.000000 -0.000000 0.000000 
0.000000 0.000000 0.000000 

-0.000000 -0.000000 0.000000 
0.000000 0.000000 0.000000 
0.000000 0.000000 0.000000 

-0.000000 -0.000000 0.000000 
0.000000 -0.000000 0.000000 
0.000000 0.000000 0.000000 

-0.000000 -0.000000 0.000000 
0.000000 -0.000000 0.000000 
0.000000 0.000000 0.000000 

