# vtk DataFile Version 3.0 
vtk output 
ASCII 
DATASET UNSTRUCTURED_GRID 
POINTS 175 float 
-0.026061 -0.334954 0.000000 
-0.106992 -0.266898 0.000000 
-0.054870 -0.275131 0.000000 
-0.028809 -0.229247 0.000000 
-0.186430 -0.202823 0.000000 
-0.137056 -0.205349 0.000000 
-0.114311 -0.151702 0.000000 
-0.058186 -0.167367 0.000000 
-0.029377 -0.127190 0.000000 
-0.265318 -0.139667 0.000000 
-0.217198 -0.140467 0.000000 
-0.196633 -0.083170 0.000000 
-0.143120 -0.091879 0.000000 
-0.116563 -0.044610 0.000000 
-0.058945 -0.064256 0.000000 
-0.029568 -0.026136 0.000000 
-0.344206 -0.076511 0.000000 
-0.296791 -0.076504 0.000000 
-0.278030 -0.016561 0.000000 
-0.225992 -0.022427 0.000000 
-0.201664 0.029690 0.000000 
-0.145749 0.016216 0.000000 
-0.117890 0.060558 0.000000 
-0.059328 0.037852 0.000000 
-0.029759 0.074918 0.000000 
-0.058559 -0.375704 0.000000 
-0.162226 -0.396547 0.000000 
-0.123292 -0.360929 0.000000 
-0.142917 -0.311946 0.000000 
-0.261851 -0.418703 0.000000 
-0.229092 -0.381676 0.000000 
-0.256854 -0.330445 0.000000 
-0.209613 -0.296332 0.000000 
-0.223062 -0.248758 0.000000 
-0.360414 -0.441004 0.000000 
-0.329787 -0.403881 0.000000 
-0.361761 -0.352079 0.000000 
-0.321587 -0.315670 0.000000 
-0.341985 -0.265436 0.000000 
-0.290702 -0.232637 0.000000 
-0.302189 -0.185902 0.000000 
-0.458977 -0.463304 0.000000 
-0.429420 -0.426229 0.000000 
-0.464588 -0.374187 0.000000 
-0.427556 -0.337160 0.000000 
-0.453135 -0.285645 0.000000 
-0.407738 -0.250330 0.000000 
-0.425037 -0.200902 0.000000 
-0.370772 -0.169272 0.000000 
-0.381315 -0.123045 0.000000 
-0.046960 -0.426520 0.000000 
-0.095301 -0.520565 0.000000 
-0.098873 -0.467918 0.000000 
-0.149405 -0.452721 0.000000 
-0.140093 -0.612269 0.000000 
-0.148617 -0.563571 0.000000 
-0.205981 -0.553334 0.000000 
-0.203197 -0.495131 0.000000 
-0.248777 -0.475984 0.000000 
-0.184111 -0.703233 0.000000 
-0.194039 -0.656142 0.000000 
-0.254475 -0.648842 0.000000 
-0.257893 -0.594733 0.000000 
-0.309886 -0.579360 0.000000 
-0.303554 -0.518815 0.000000 
-0.347255 -0.498657 0.000000 
-0.228129 -0.794197 0.000000 
-0.238687 -0.747972 0.000000 
-0.301302 -0.743020 0.000000 
-0.307162 -0.690981 0.000000 
-0.363386 -0.678861 0.000000 
-0.362692 -0.621349 0.000000 
-0.412122 -0.604056 0.000000 
-0.403017 -0.541909 0.000000 
-0.445733 -0.521330 0.000000 
-0.000000 -0.449135 0.000000 
0.043388 -0.545565 0.000000 
-0.000000 -0.515533 0.000000 
-0.043388 -0.545565 0.000000 
0.087158 -0.637762 0.000000 
0.043769 -0.614063 0.000000 
-0.000000 -0.652529 0.000000 
-0.043769 -0.614063 0.000000 
-0.087158 -0.637762 0.000000 
0.130831 -0.728891 0.000000 
0.087824 -0.707293 0.000000 
0.044436 -0.749992 0.000000 
-0.000000 -0.718927 0.000000 
-0.044436 -0.749992 0.000000 
-0.087824 -0.707293 0.000000 
-0.130831 -0.728891 0.000000 
0.174505 -0.820021 0.000000 
0.131782 -0.799455 0.000000 
0.088871 -0.845322 0.000000 
0.044532 -0.817458 0.000000 
-0.000000 -0.853858 0.000000 
-0.044532 -0.817458 0.000000 
-0.088871 -0.845322 0.000000 
-0.131782 -0.799455 0.000000 
-0.174505 -0.820021 0.000000 
0.046960 -0.426520 0.000000 
0.149405 -0.452721 0.000000 
0.098873 -0.467918 0.000000 
0.095301 -0.520565 0.000000 
0.248777 -0.475984 0.000000 
0.203197 -0.495131 0.000000 
0.205981 -0.553334 0.000000 
0.148617 -0.563571 0.000000 
0.140093 -0.612269 0.000000 
0.347255 -0.498657 0.000000 
0.303554 -0.518815 0.000000 
0.309886 -0.579360 0.000000 
0.257893 -0.594733 0.000000 
0.254475 -0.648842 0.000000 
0.194039 -0.656142 0.000000 
0.184111 -0.703233 0.000000 
0.445733 -0.521330 0.000000 
0.403017 -0.541909 0.000000 
0.412122 -0.604056 0.000000 
0.362692 -0.621349 0.000000 
0.363386 -0.678861 0.000000 
0.307162 -0.690981 0.000000 
0.301302 -0.743020 0.000000 
0.238687 -0.747972 0.000000 
0.228129 -0.794197 0.000000 
0.058559 -0.375704 0.000000 
0.142917 -0.311946 0.000000 
0.123292 -0.360929 0.000000 
0.162226 -0.396547 0.000000 
0.223062 -0.248758 0.000000 
0.209613 -0.296332 0.000000 
0.256854 -0.330445 0.000000 
0.229092 -0.381676 0.000000 
0.261851 -0.418703 0.000000 
0.302189 -0.185902 0.000000 
0.290702 -0.232637 0.000000 
0.341985 -0.265436 0.000000 
0.321587 -0.315670 0.000000 
0.361761 -0.352079 0.000000 
0.329787 -0.403881 0.000000 
0.360414 -0.441004 0.000000 
0.381315 -0.123045 0.000000 
0.370772 -0.169272 0.000000 
0.425037 -0.200902 0.000000 
0.407738 -0.250330 0.000000 
0.453135 -0.285645 0.000000 
0.427556 -0.337160 0.000000 
0.464588 -0.374187 0.000000 
0.429420 -0.426229 0.000000 
0.458977 -0.463304 0.000000 
0.026061 -0.334954 0.000000 
0.028809 -0.229247 0.000000 
0.054870 -0.275131 0.000000 
0.106992 -0.266898 0.000000 
0.029377 -0.127190 0.000000 
0.058186 -0.167367 0.000000 
0.114311 -0.151702 0.000000 
0.137056 -0.205349 0.000000 
0.186430 -0.202823 0.000000 
0.029568 -0.026136 0.000000 
0.058945 -0.064256 0.000000 
0.116563 -0.044610 0.000000 
0.143120 -0.091879 0.000000 
0.196633 -0.083170 0.000000 
0.217198 -0.140467 0.000000 
0.265318 -0.139667 0.000000 
0.029759 0.074918 0.000000 
0.059328 0.037852 0.000000 
0.117890 0.060558 0.000000 
0.145749 0.016216 0.000000 
0.201664 0.029690 0.000000 
0.225992 -0.022427 0.000000 
0.278030 -0.016561 0.000000 
0.296791 -0.076504 0.000000 
0.344206 -0.076511 0.000000 
CELLS 175 350 
1 0 
1 1 
1 2 
1 3 
1 4 
1 5 
1 6 
1 7 
1 8 
1 9 
1 10 
1 11 
1 12 
1 13 
1 14 
1 15 
1 16 
1 17 
1 18 
1 19 
1 20 
1 21 
1 22 
1 23 
1 24 
1 25 
1 26 
1 27 
1 28 
1 29 
1 30 
1 31 
1 32 
1 33 
1 34 
1 35 
1 36 
1 37 
1 38 
1 39 
1 40 
1 41 
1 42 
1 43 
1 44 
1 45 
1 46 
1 47 
1 48 
1 49 
1 50 
1 51 
1 52 
1 53 
1 54 
1 55 
1 56 
1 57 
1 58 
1 59 
1 60 
1 61 
1 62 
1 63 
1 64 
1 65 
1 66 
1 67 
1 68 
1 69 
1 70 
1 71 
1 72 
1 73 
1 74 
1 75 
1 76 
1 77 
1 78 
1 79 
1 80 
1 81 
1 82 
1 83 
1 84 
1 85 
1 86 
1 87 
1 88 
1 89 
1 90 
1 91 
1 92 
1 93 
1 94 
1 95 
1 96 
1 97 
1 98 
1 99 
1 100 
1 101 
1 102 
1 103 
1 104 
1 105 
1 106 
1 107 
1 108 
1 109 
1 110 
1 111 
1 112 
1 113 
1 114 
1 115 
1 116 
1 117 
1 118 
1 119 
1 120 
1 121 
1 122 
1 123 
1 124 
1 125 
1 126 
1 127 
1 128 
1 129 
1 130 
1 131 
1 132 
1 133 
1 134 
1 135 
1 136 
1 137 
1 138 
1 139 
1 140 
1 141 
1 142 
1 143 
1 144 
1 145 
1 146 
1 147 
1 148 
1 149 
1 150 
1 151 
1 152 
1 153 
1 154 
1 155 
1 156 
1 157 
1 158 
1 159 
1 160 
1 161 
1 162 
1 163 
1 164 
1 165 
1 166 
1 167 
1 168 
1 169 
1 170 
1 171 
1 172 
1 173 
1 174 
CELL_TYPES 175 
1 
1 
1 
1 
1 
1 
1 
1 
1 
1 
1 
1 
1 
1 
1 
1 
1 
1 
1 
1 
1 
1 
1 
1 
1 
1 
1 
1 
1 
1 
1 
1 
1 
1 
1 
1 
1 
1 
1 
1 
1 
1 
1 
1 
1 
1 
1 
1 
1 
1 
1 
1 
1 
1 
1 
1 
1 
1 
1 
1 
1 
1 
1 
1 
1 
1 
1 
1 
1 
1 
1 
1 
1 
1 
1 
1 
1 
1 
1 
1 
1 
1 
1 
1 
1 
1 
1 
1 
1 
1 
1 
1 
1 
1 
1 
1 
1 
1 
1 
1 
1 
1 
1 
1 
1 
1 
1 
1 
1 
1 
1 
1 
1 
1 
1 
1 
1 
1 
1 
1 
1 
1 
1 
1 
1 
1 
1 
1 
1 
1 
1 
1 
1 
1 
1 
1 
1 
1 
1 
1 
1 
1 
1 
1 
1 
1 
1 
1 
1 
1 
1 
1 
1 
1 
1 
1 
1 
1 
1 
1 
1 
1 
1 
1 
1 
1 
1 
1 
1 
1 
1 
1 
1 
1 
1 
POINT_DATA 175 
VECTORS X_GC float 
-0.026061 -0.334954 0.000000 
-0.106992 -0.266898 0.000000 
-0.054870 -0.275131 0.000000 
-0.028809 -0.229247 0.000000 
-0.186430 -0.202823 0.000000 
-0.137056 -0.205349 0.000000 
-0.114311 -0.151702 0.000000 
-0.058186 -0.167367 0.000000 
-0.029377 -0.127190 0.000000 
-0.265318 -0.139667 0.000000 
-0.217198 -0.140467 0.000000 
-0.196633 -0.083170 0.000000 
-0.143120 -0.091879 0.000000 
-0.116563 -0.044610 0.000000 
-0.058945 -0.064256 0.000000 
-0.029568 -0.026136 0.000000 
-0.344206 -0.076511 0.000000 
-0.296791 -0.076504 0.000000 
-0.278030 -0.016561 0.000000 
-0.225992 -0.022427 0.000000 
-0.201664 0.029690 0.000000 
-0.145749 0.016216 0.000000 
-0.117890 0.060558 0.000000 
-0.059328 0.037852 0.000000 
-0.029759 0.074918 0.000000 
-0.058559 -0.375704 0.000000 
-0.162226 -0.396547 0.000000 
-0.123292 -0.360929 0.000000 
-0.142917 -0.311946 0.000000 
-0.261851 -0.418703 0.000000 
-0.229092 -0.381676 0.000000 
-0.256854 -0.330445 0.000000 
-0.209613 -0.296332 0.000000 
-0.223062 -0.248758 0.000000 
-0.360414 -0.441004 0.000000 
-0.329787 -0.403881 0.000000 
-0.361761 -0.352079 0.000000 
-0.321587 -0.315670 0.000000 
-0.341985 -0.265436 0.000000 
-0.290702 -0.232637 0.000000 
-0.302189 -0.185902 0.000000 
-0.458977 -0.463304 0.000000 
-0.429420 -0.426229 0.000000 
-0.464588 -0.374187 0.000000 
-0.427556 -0.337160 0.000000 
-0.453135 -0.285645 0.000000 
-0.407738 -0.250330 0.000000 
-0.425037 -0.200902 0.000000 
-0.370772 -0.169272 0.000000 
-0.381315 -0.123045 0.000000 
-0.046960 -0.426520 0.000000 
-0.095301 -0.520565 0.000000 
-0.098873 -0.467918 0.000000 
-0.149405 -0.452721 0.000000 
-0.140093 -0.612269 0.000000 
-0.148617 -0.563571 0.000000 
-0.205981 -0.553334 0.000000 
-0.203197 -0.495131 0.000000 
-0.248777 -0.475984 0.000000 
-0.184111 -0.703233 0.000000 
-0.194039 -0.656142 0.000000 
-0.254475 -0.648842 0.000000 
-0.257893 -0.594733 0.000000 
-0.309886 -0.579360 0.000000 
-0.303554 -0.518815 0.000000 
-0.347255 -0.498657 0.000000 
-0.228129 -0.794197 0.000000 
-0.238687 -0.747972 0.000000 
-0.301302 -0.743020 0.000000 
-0.307162 -0.690981 0.000000 
-0.363386 -0.678861 0.000000 
-0.362692 -0.621349 0.000000 
-0.412122 -0.604056 0.000000 
-0.403017 -0.541909 0.000000 
-0.445733 -0.521330 0.000000 
-0.000000 -0.449135 0.000000 
0.043388 -0.545565 0.000000 
-0.000000 -0.515533 0.000000 
-0.043388 -0.545565 0.000000 
0.087158 -0.637762 0.000000 
0.043769 -0.614063 0.000000 
-0.000000 -0.652529 0.000000 
-0.043769 -0.614063 0.000000 
-0.087158 -0.637762 0.000000 
0.130831 -0.728891 0.000000 
0.087824 -0.707293 0.000000 
0.044436 -0.749992 0.000000 
-0.000000 -0.718927 0.000000 
-0.044436 -0.749992 0.000000 
-0.087824 -0.707293 0.000000 
-0.130831 -0.728891 0.000000 
0.174505 -0.820021 0.000000 
0.131782 -0.799455 0.000000 
0.088871 -0.845322 0.000000 
0.044532 -0.817458 0.000000 
-0.000000 -0.853858 0.000000 
-0.044532 -0.817458 0.000000 
-0.088871 -0.845322 0.000000 
-0.131782 -0.799455 0.000000 
-0.174505 -0.820021 0.000000 
0.046960 -0.426520 0.000000 
0.149405 -0.452721 0.000000 
0.098873 -0.467918 0.000000 
0.095301 -0.520565 0.000000 
0.248777 -0.475984 0.000000 
0.203197 -0.495131 0.000000 
0.205981 -0.553334 0.000000 
0.148617 -0.563571 0.000000 
0.140093 -0.612269 0.000000 
0.347255 -0.498657 0.000000 
0.303554 -0.518815 0.000000 
0.309886 -0.579360 0.000000 
0.257893 -0.594733 0.000000 
0.254475 -0.648842 0.000000 
0.194039 -0.656142 0.000000 
0.184111 -0.703233 0.000000 
0.445733 -0.521330 0.000000 
0.403017 -0.541909 0.000000 
0.412122 -0.604056 0.000000 
0.362692 -0.621349 0.000000 
0.363386 -0.678861 0.000000 
0.307162 -0.690981 0.000000 
0.301302 -0.743020 0.000000 
0.238687 -0.747972 0.000000 
0.228129 -0.794197 0.000000 
0.058559 -0.375704 0.000000 
0.142917 -0.311946 0.000000 
0.123292 -0.360929 0.000000 
0.162226 -0.396547 0.000000 
0.223062 -0.248758 0.000000 
0.209613 -0.296332 0.000000 
0.256854 -0.330445 0.000000 
0.229092 -0.381676 0.000000 
0.261851 -0.418703 0.000000 
0.302189 -0.185902 0.000000 
0.290702 -0.232637 0.000000 
0.341985 -0.265436 0.000000 
0.321587 -0.315670 0.000000 
0.361761 -0.352079 0.000000 
0.329787 -0.403881 0.000000 
0.360414 -0.441004 0.000000 
0.381315 -0.123045 0.000000 
0.370772 -0.169272 0.000000 
0.425037 -0.200902 0.000000 
0.407738 -0.250330 0.000000 
0.453135 -0.285645 0.000000 
0.427556 -0.337160 0.000000 
0.464588 -0.374187 0.000000 
0.429420 -0.426229 0.000000 
0.458977 -0.463304 0.000000 
0.026061 -0.334954 0.000000 
0.028809 -0.229247 0.000000 
0.054870 -0.275131 0.000000 
0.106992 -0.266898 0.000000 
0.029377 -0.127190 0.000000 
0.058186 -0.167367 0.000000 
0.114311 -0.151702 0.000000 
0.137056 -0.205349 0.000000 
0.186430 -0.202823 0.000000 
0.029568 -0.026136 0.000000 
0.058945 -0.064256 0.000000 
0.116563 -0.044610 0.000000 
0.143120 -0.091879 0.000000 
0.196633 -0.083170 0.000000 
0.217198 -0.140467 0.000000 
0.265318 -0.139667 0.000000 
0.029759 0.074918 0.000000 
0.059328 0.037852 0.000000 
0.117890 0.060558 0.000000 
0.145749 0.016216 0.000000 
0.201664 0.029690 0.000000 
0.225992 -0.022427 0.000000 
0.278030 -0.016561 0.000000 
0.296791 -0.076504 0.000000 
0.344206 -0.076511 0.000000 
VECTORS X_EC float 
0.338794 -0.978126 0.000000 
-0.609100 0.103125 0.000000 
0.713312 0.214266 0.000000 
0.374519 -0.405163 0.000000 
0.423588 -0.761894 0.000000 
-0.218274 -0.727790 0.000000 
-0.513962 0.547971 0.000000 
0.756418 0.759457 0.000000 
0.381900 0.217064 0.000000 
-0.550868 0.385503 0.000000 
0.823577 0.396298 0.000000 
0.556234 -0.377206 0.000000 
-0.139443 -0.259637 0.000000 
-0.484677 -0.897761 0.000000 
0.766286 -0.632546 0.000000 
0.384386 0.852834 0.000000 
0.474677 -0.467100 0.000000 
-0.141715 -0.467197 0.000000 
-0.385608 0.723575 0.000000 
0.937896 0.802771 0.000000 
0.621631 0.099191 0.000000 
-0.105264 0.281090 0.000000 
-0.467428 -0.317537 0.000000 
0.771260 -0.011008 0.000000 
0.386873 -0.511397 0.000000 
0.761262 -0.427992 0.000000 
0.108942 -0.146615 0.000000 
-0.397202 -0.627454 0.000000 
-0.142083 0.711270 0.000000 
-0.595936 0.152495 0.000000 
0.978194 -0.347370 0.000000 
-0.660903 0.961005 0.000000 
0.724964 0.500485 0.000000 
0.899809 -0.141764 0.000000 
0.685384 0.453548 0.000000 
0.287229 -0.047611 0.000000 
0.702895 -0.746939 0.000000 
0.180633 0.761542 0.000000 
0.445811 0.083382 0.000000 
-0.220880 -0.359404 0.000000 
-0.071546 -0.990329 0.000000 
-0.033296 0.754600 0.000000 
-0.417537 0.254090 0.000000 
0.039645 -0.448472 0.000000 
-0.441768 -0.948343 0.000000 
-0.109248 0.356206 0.000000 
-0.699407 -0.120550 0.000000 
-0.474522 -0.787829 0.000000 
0.820030 0.785178 0.000000 
0.957100 0.161106 0.000000 
0.610485 0.258015 0.000000 
-0.761092 -0.472366 0.000000 
-0.714655 0.816896 0.000000 
-0.057734 0.611729 0.000000 
-0.178789 0.765638 0.000000 
-0.067979 0.108212 0.000000 
0.677748 -0.029991 0.000000 
0.641556 -0.815737 0.000000 
-0.765897 0.925785 0.000000 
0.393446 -0.006353 0.000000 
0.522510 -0.642083 0.000000 
-0.691820 -0.740627 0.000000 
-0.647393 0.528890 0.000000 
0.028512 0.321364 0.000000 
-0.053800 -0.495997 0.000000 
0.514316 -0.768127 0.000000 
0.965681 -0.778344 0.000000 
-0.897068 0.597627 0.000000 
-0.083078 0.530774 0.000000 
-0.006893 -0.171750 0.000000 
0.724017 -0.335383 0.000000 
0.714996 0.888213 0.000000 
-0.642413 0.654756 0.000000 
-0.760780 -0.184224 0.000000 
-0.205471 -0.462040 0.000000 
0.000000 0.563316 0.000000 
-0.564049 -0.134871 0.000000 
0.000000 -0.540307 0.000000 
0.564049 -0.134871 0.000000 
0.866949 -0.890216 0.000000 
-0.569003 0.789853 0.000000 
0.000000 -0.690859 0.000000 
0.569003 0.789853 0.000000 
-0.866949 -0.890216 0.000000 
0.299194 0.340034 0.000000 
0.858290 0.048451 0.000000 
-0.577662 0.624896 0.000000 
0.000000 0.205518 0.000000 
0.577662 0.624896 0.000000 
-0.858290 0.048451 0.000000 
-0.299194 0.340034 0.000000 
-0.268560 -0.429716 0.000000 
0.286830 -0.707357 0.000000 
0.844677 -0.088159 0.000000 
-0.578910 -0.464322 0.000000 
0.000000 0.027082 0.000000 
0.578910 -0.464322 0.000000 
-0.844677 -0.088159 0.000000 
-0.286830 -0.707357 0.000000 
0.268560 -0.429716 0.000000 
-0.610485 0.258015 0.000000 
0.057734 0.611729 0.000000 
0.714655 0.816896 0.000000 
0.761092 -0.472366 0.000000 
0.765897 0.925785 0.000000 
-0.641556 -0.815737 0.000000 
-0.677748 -0.029991 0.000000 
0.067979 0.108212 0.000000 
0.178789 0.765638 0.000000 
-0.514316 -0.768127 0.000000 
0.053800 -0.495997 0.000000 
-0.028512 0.321364 0.000000 
0.647393 0.528890 0.000000 
0.691820 -0.740627 0.000000 
-0.522510 -0.642083 0.000000 
-0.393446 -0.006353 0.000000 
0.205471 -0.462040 0.000000 
0.760780 -0.184224 0.000000 
0.642413 0.654756 0.000000 
-0.714996 0.888213 0.000000 
-0.724017 -0.335383 0.000000 
0.006894 -0.171750 0.000000 
0.083078 0.530774 0.000000 
0.897068 0.597627 0.000000 
-0.965681 -0.778344 0.000000 
-0.761262 -0.427992 0.000000 
0.142083 0.711270 0.000000 
0.397202 -0.627454 0.000000 
-0.108942 -0.146615 0.000000 
-0.899809 -0.141764 0.000000 
-0.724964 0.500485 0.000000 
0.660903 0.961005 0.000000 
-0.978194 -0.347370 0.000000 
0.595936 0.152495 0.000000 
0.071546 -0.990329 0.000000 
0.220880 -0.359404 0.000000 
-0.445811 0.083382 0.000000 
-0.180633 0.761542 0.000000 
-0.702895 -0.746939 0.000000 
-0.287229 -0.047611 0.000000 
-0.685384 0.453548 0.000000 
-0.957100 0.161106 0.000000 
-0.820030 0.785178 0.000000 
0.474522 -0.787829 0.000000 
0.699407 -0.120550 0.000000 
0.109248 0.356206 0.000000 
0.441768 -0.948343 0.000000 
-0.039645 -0.448472 0.000000 
0.417537 0.254090 0.000000 
0.033296 0.754600 0.000000 
-0.338794 -0.978126 0.000000 
-0.374519 -0.405163 0.000000 
-0.713312 0.214266 0.000000 
0.609100 0.103125 0.000000 
-0.381900 0.217064 0.000000 
-0.756418 0.759457 0.000000 
0.513962 0.547971 0.000000 
0.218274 -0.727790 0.000000 
-0.423588 -0.761894 0.000000 
-0.384386 0.852834 0.000000 
-0.766286 -0.632546 0.000000 
0.484677 -0.897761 0.000000 
0.139443 -0.259637 0.000000 
-0.556234 -0.377206 0.000000 
-0.823577 0.396298 0.000000 
0.550868 0.385503 0.000000 
-0.386873 -0.511397 0.000000 
-0.771260 -0.011008 0.000000 
0.467428 -0.317537 0.000000 
0.105264 0.281090 0.000000 
-0.621631 0.099191 0.000000 
-0.937896 0.802771 0.000000 
0.385608 0.723575 0.000000 
0.141715 -0.467197 0.000000 
-0.474677 -0.467100 0.000000 
CELL_DATA 175 
SCALARS MASS float 
LOOKUP_TABLE default 
0.078183 
0.086427 
0.094672 
0.086427 
0.088131 
0.092111 
0.085854 
0.092111 
0.088131 
0.088705 
0.091000 
0.086983 
0.091556 
0.086983 
0.091000 
0.088705 
0.089278 
0.091574 
0.089278 
0.092722 
0.089278 
0.092722 
0.089278 
0.091574 
0.089278 
0.078183 
0.086427 
0.094672 
0.086427 
0.088131 
0.092111 
0.085854 
0.092111 
0.088131 
0.088705 
0.091000 
0.086983 
0.091556 
0.086983 
0.091000 
0.088705 
0.089278 
0.091574 
0.089278 
0.092722 
0.089278 
0.092722 
0.089278 
0.091574 
0.089278 
0.078183 
0.086427 
0.094672 
0.086427 
0.088131 
0.092111 
0.085854 
0.092111 
0.088131 
0.088705 
0.091000 
0.086983 
0.091556 
0.086983 
0.091000 
0.088705 
0.089278 
0.091574 
0.089278 
0.092722 
0.089278 
0.092722 
0.089278 
0.091574 
0.089278 
0.078183 
0.086427 
0.094672 
0.086427 
0.088131 
0.092111 
0.085854 
0.092111 
0.088131 
0.088705 
0.091000 
0.086983 
0.091556 
0.086983 
0.091000 
0.088705 
0.089278 
0.091574 
0.089278 
0.092722 
0.089278 
0.092722 
0.089278 
0.091574 
0.089278 
0.078183 
0.086427 
0.094672 
0.086427 
0.088131 
0.092111 
0.085854 
0.092111 
0.088131 
0.088705 
0.091000 
0.086983 
0.091556 
0.086983 
0.091000 
0.088705 
0.089278 
0.091574 
0.089278 
0.092722 
0.089278 
0.092722 
0.089278 
0.091574 
0.089278 
0.078183 
0.086427 
0.094672 
0.086427 
0.088131 
0.092111 
0.085854 
0.092111 
0.088131 
0.088705 
0.091000 
0.086983 
0.091556 
0.086983 
0.091000 
0.088705 
0.089278 
0.091574 
0.089278 
0.092722 
0.089278 
0.092722 
0.089278 
0.091574 
0.089278 
0.078183 
0.086427 
0.094672 
0.086427 
0.088131 
0.092111 
0.085854 
0.092111 
0.088131 
0.088705 
0.091000 
0.086983 
0.091556 
0.086983 
0.091000 
0.088705 
0.089278 
0.091574 
0.089278 
0.092722 
0.089278 
0.092722 
0.089278 
0.091574 
0.089278 
SCALARS MASS float 
LOOKUP_TABLE default 
0.078183 
0.086427 
0.094672 
0.086427 
0.088131 
0.092111 
0.085854 
0.092111 
0.088131 
0.088705 
0.091000 
0.086983 
0.091556 
0.086983 
0.091000 
0.088705 
0.089278 
0.091574 
0.089278 
0.092722 
0.089278 
0.092722 
0.089278 
0.091574 
0.089278 
0.078183 
0.086427 
0.094672 
0.086427 
0.088131 
0.092111 
0.085854 
0.092111 
0.088131 
0.088705 
0.091000 
0.086983 
0.091556 
0.086983 
0.091000 
0.088705 
0.089278 
0.091574 
0.089278 
0.092722 
0.089278 
0.092722 
0.089278 
0.091574 
0.089278 
0.078183 
0.086427 
0.094672 
0.086427 
0.088131 
0.092111 
0.085854 
0.092111 
0.088131 
0.088705 
0.091000 
0.086983 
0.091556 
0.086983 
0.091000 
0.088705 
0.089278 
0.091574 
0.089278 
0.092722 
0.089278 
0.092722 
0.089278 
0.091574 
0.089278 
0.078183 
0.086427 
0.094672 
0.086427 
0.088131 
0.092111 
0.085854 
0.092111 
0.088131 
0.088705 
0.091000 
0.086983 
0.091556 
0.086983 
0.091000 
0.088705 
0.089278 
0.091574 
0.089278 
0.092722 
0.089278 
0.092722 
0.089278 
0.091574 
0.089278 
0.078183 
0.086427 
0.094672 
0.086427 
0.088131 
0.092111 
0.085854 
0.092111 
0.088131 
0.088705 
0.091000 
0.086983 
0.091556 
0.086983 
0.091000 
0.088705 
0.089278 
0.091574 
0.089278 
0.092722 
0.089278 
0.092722 
0.089278 
0.091574 
0.089278 
0.078183 
0.086427 
0.094672 
0.086427 
0.088131 
0.092111 
0.085854 
0.092111 
0.088131 
0.088705 
0.091000 
0.086983 
0.091556 
0.086983 
0.091000 
0.088705 
0.089278 
0.091574 
0.089278 
0.092722 
0.089278 
0.092722 
0.089278 
0.091574 
0.089278 
0.078183 
0.086427 
0.094672 
0.086427 
0.088131 
0.092111 
0.085854 
0.092111 
0.088131 
0.088705 
0.091000 
0.086983 
0.091556 
0.086983 
0.091000 
0.088705 
0.089278 
0.091574 
0.089278 
0.092722 
0.089278 
0.092722 
0.089278 
0.091574 
0.089278 
SCALARS DENSITY float 
LOOKUP_TABLE default 
20.000000 
20.000000 
20.000000 
20.000000 
20.000000 
20.000000 
20.000000 
20.000000 
20.000000 
20.000000 
20.000000 
20.000000 
20.000000 
20.000000 
20.000000 
20.000000 
20.000000 
20.000000 
20.000000 
20.000000 
20.000000 
20.000000 
20.000000 
20.000000 
20.000000 
20.000000 
20.000000 
20.000000 
20.000000 
20.000000 
20.000000 
20.000000 
20.000000 
20.000000 
20.000000 
20.000000 
20.000000 
20.000000 
20.000000 
20.000000 
20.000000 
20.000000 
20.000000 
20.000000 
20.000000 
20.000000 
20.000000 
20.000000 
20.000000 
20.000000 
20.000000 
20.000000 
20.000000 
20.000000 
20.000000 
20.000000 
20.000000 
20.000000 
20.000000 
20.000000 
20.000000 
20.000000 
20.000000 
20.000000 
20.000000 
20.000000 
20.000000 
20.000000 
20.000000 
20.000000 
20.000000 
20.000000 
20.000000 
20.000000 
20.000000 
20.000000 
20.000000 
20.000000 
20.000000 
20.000000 
20.000000 
20.000000 
20.000000 
20.000000 
20.000000 
20.000000 
20.000000 
20.000000 
20.000000 
20.000000 
20.000000 
20.000000 
20.000000 
20.000000 
20.000000 
20.000000 
20.000000 
20.000000 
20.000000 
20.000000 
20.000000 
20.000000 
20.000000 
20.000000 
20.000000 
20.000000 
20.000000 
20.000000 
20.000000 
20.000000 
20.000000 
20.000000 
20.000000 
20.000000 
20.000000 
20.000000 
20.000000 
20.000000 
20.000000 
20.000000 
20.000000 
20.000000 
20.000000 
20.000000 
20.000000 
20.000000 
20.000000 
20.000000 
20.000000 
20.000000 
20.000000 
20.000000 
20.000000 
20.000000 
20.000000 
20.000000 
20.000000 
20.000000 
20.000000 
20.000000 
20.000000 
20.000000 
20.000000 
20.000000 
20.000000 
20.000000 
20.000000 
20.000000 
20.000000 
20.000000 
20.000000 
20.000000 
20.000000 
20.000000 
20.000000 
20.000000 
20.000000 
20.000000 
20.000000 
20.000000 
20.000000 
20.000000 
20.000000 
20.000000 
20.000000 
20.000000 
20.000000 
20.000000 
20.000000 
20.000000 
20.000000 
20.000000 
20.000000 
20.000000 
20.000000 
SCALARS ELEM_i float 
LOOKUP_TABLE default 
179 
207 
180 
180 
207 
207 
208 
181 
181 
235 
208 
208 
208 
208 
181 
182 
235 
235 
236 
209 
209 
209 
209 
182 
182 
179 
206 
206 
207 
233 
206 
234 
207 
207 
233 
233 
233 
234 
234 
234 
234 
260 
260 
260 
260 
261 
261 
261 
235 
235 
179 
205 
206 
206 
205 
205 
205 
205 
233 
204 
204 
231 
232 
232 
232 
232 
203 
231 
231 
231 
231 
232 
259 
259 
259 
179 
178 
178 
178 
150 
178 
177 
178 
204 
150 
150 
177 
177 
177 
204 
204 
149 
149 
149 
176 
176 
176 
203 
203 
203 
179 
152 
152 
151 
125 
151 
151 
151 
151 
124 
124 
124 
124 
123 
150 
150 
97 
97 
97 
124 
123 
123 
123 
123 
149 
179 
153 
152 
152 
153 
153 
126 
152 
125 
126 
126 
126 
126 
125 
125 
125 
127 
127 
99 
99 
99 
98 
98 
98 
98 
179 
180 
180 
153 
181 
181 
154 
153 
153 
182 
181 
154 
154 
154 
154 
127 
182 
182 
155 
155 
155 
155 
128 
127 
127 
VECTORS VELOCITY float 
-0.000000 -2.762496 0.000000 
0.000000 -2.762496 0.000000 
0.000000 -2.762496 0.000000 
0.000000 -2.762496 0.000000 
0.000000 -2.762496 0.000000 
0.000000 -2.762496 0.000000 
-0.000000 -2.762496 0.000000 
0.000000 -2.762496 0.000000 
0.000000 -2.762496 0.000000 
-0.000000 -2.762496 0.000000 
-0.000000 -2.762496 0.000000 
-0.000000 -2.762496 0.000000 
-0.000000 -2.762496 0.000000 
-0.000000 -2.762496 0.000000 
-0.000000 -2.762496 0.000000 
-0.000000 -2.762496 0.000000 
0.000000 -2.762496 0.000000 
-0.000000 -2.762496 0.000000 
0.000000 -2.762496 0.000000 
0.000000 -2.762496 0.000000 
0.000000 -2.762496 0.000000 
0.000000 -2.762496 0.000000 
-0.000000 -2.762496 0.000000 
-0.000000 -2.762496 0.000000 
0.000000 -2.762496 0.000000 
-0.000000 -2.762496 0.000000 
-0.000000 -2.762496 0.000000 
-0.000000 -2.762496 0.000000 
-0.000000 -2.762496 0.000000 
-0.000000 -2.762496 0.000000 
-0.000000 -2.762496 0.000000 
-0.000000 -2.762496 0.000000 
-0.000000 -2.762496 0.000000 
-0.000000 -2.762496 0.000000 
-0.000000 -2.762496 0.000000 
0.000000 -2.762496 0.000000 
0.000000 -2.762496 0.000000 
0.000000 -2.762496 0.000000 
-0.000000 -2.762496 0.000000 
-0.000000 -2.762496 0.000000 
-0.000000 -2.762496 0.000000 
-0.000000 -2.762496 0.000000 
-0.000000 -2.762496 0.000000 
0.000000 -2.762496 0.000000 
0.000000 -2.762496 0.000000 
0.000000 -2.762496 0.000000 
-0.000000 -2.762496 0.000000 
-0.000000 -2.762496 0.000000 
0.000000 -2.762496 0.000000 
0.000000 -2.762496 0.000000 
-0.000000 -2.762496 0.000000 
0.000000 -2.762496 0.000000 
0.000000 -2.762496 0.000000 
-0.000000 -2.762496 0.000000 
0.000000 -2.762496 0.000000 
0.000000 -2.762496 0.000000 
0.000000 -2.762496 0.000000 
-0.000000 -2.762496 0.000000 
0.000000 -2.762496 0.000000 
0.000000 -2.762496 0.000000 
0.000000 -2.762496 0.000000 
0.000000 -2.762496 0.000000 
0.000000 -2.762496 0.000000 
-0.000000 -2.762496 0.000000 
-0.000000 -2.762496 0.000000 
-0.000000 -2.762496 0.000000 
-0.000000 -2.762496 0.000000 
-0.000000 -2.762496 0.000000 
-0.000000 -2.762496 0.000000 
-0.000000 -2.762496 0.000000 
-0.000000 -2.762496 0.000000 
-0.000000 -2.762496 0.000000 
-0.000000 -2.762496 0.000000 
-0.000000 -2.762496 0.000000 
-0.000000 -2.762496 0.000000 
-0.000000 -2.762496 0.000000 
-0.000000 -2.762496 0.000000 
-0.000000 -2.762496 0.000000 
-0.000000 -2.762496 0.000000 
0.000000 -2.762496 0.000000 
-0.000000 -2.762496 0.000000 
-0.000000 -2.762496 0.000000 
-0.000000 -2.762496 0.000000 
-0.000000 -2.762496 0.000000 
0.000000 -2.762496 0.000000 
0.000000 -2.762496 0.000000 
0.000000 -2.762496 0.000000 
0.000000 -2.762496 0.000000 
0.000000 -2.762496 0.000000 
-0.000000 -2.762496 0.000000 
0.000000 -2.762496 0.000000 
-0.000000 -2.762496 0.000000 
-0.000000 -2.762496 0.000000 
-0.000000 -2.762496 0.000000 
-0.000000 -2.762496 0.000000 
-0.000000 -2.762496 0.000000 
0.000000 -2.762496 0.000000 
-0.000000 -2.762496 0.000000 
-0.000000 -2.762496 0.000000 
-0.000000 -2.762496 0.000000 
-0.000000 -2.762496 0.000000 
-0.000000 -2.762496 0.000000 
-0.000000 -2.762496 0.000000 
-0.000000 -2.762496 0.000000 
-0.000000 -2.762496 0.000000 
-0.000000 -2.762496 0.000000 
0.000000 -2.762496 0.000000 
-0.000000 -2.762496 0.000000 
0.000000 -2.762496 0.000000 
-0.000000 -2.762496 0.000000 
-0.000000 -2.762496 0.000000 
-0.000000 -2.762496 0.000000 
0.000000 -2.762496 0.000000 
0.000000 -2.762496 0.000000 
0.000000 -2.762496 0.000000 
0.000000 -2.762496 0.000000 
0.000000 -2.762496 0.000000 
-0.000000 -2.762496 0.000000 
-0.000000 -2.762496 0.000000 
-0.000000 -2.762496 0.000000 
0.000000 -2.762496 0.000000 
0.000000 -2.762496 0.000000 
0.000000 -2.762496 0.000000 
0.000000 -2.762496 0.000000 
-0.000000 -2.762496 0.000000 
-0.000000 -2.762496 0.000000 
-0.000000 -2.762496 0.000000 
-0.000000 -2.762496 0.000000 
0.000000 -2.762496 0.000000 
0.000000 -2.762496 0.000000 
0.000000 -2.762496 0.000000 
0.000000 -2.762496 0.000000 
0.000000 -2.762496 0.000000 
0.000000 -2.762496 0.000000 
0.000000 -2.762496 0.000000 
0.000000 -2.762496 0.000000 
-0.000000 -2.762496 0.000000 
-0.000000 -2.762496 0.000000 
0.000000 -2.762496 0.000000 
-0.000000 -2.762496 0.000000 
-0.000000 -2.762496 0.000000 
0.000000 -2.762496 0.000000 
0.000000 -2.762496 0.000000 
0.000000 -2.762496 0.000000 
-0.000000 -2.762496 0.000000 
0.000000 -2.762496 0.000000 
0.000000 -2.762496 0.000000 
0.000000 -2.762496 0.000000 
-0.000000 -2.762496 0.000000 
-0.000000 -2.762496 0.000000 
-0.000000 -2.762496 0.000000 
0.000000 -2.762496 0.000000 
0.000000 -2.762496 0.000000 
0.000000 -2.762496 0.000000 
0.000000 -2.762496 0.000000 
0.000000 -2.762496 0.000000 
0.000000 -2.762496 0.000000 
0.000000 -2.762496 0.000000 
0.000000 -2.762496 0.000000 
-0.000000 -2.762496 0.000000 
0.000000 -2.762496 0.000000 
-0.000000 -2.762496 0.000000 
-0.000000 -2.762496 0.000000 
-0.000000 -2.762496 0.000000 
0.000000 -2.762496 0.000000 
0.000000 -2.762496 0.000000 
0.000000 -2.762496 0.000000 
0.000000 -2.762496 0.000000 
-0.000000 -2.762496 0.000000 
0.000000 -2.762496 0.000000 
0.000000 -2.762496 0.000000 
-0.000000 -2.762496 0.000000 
0.000000 -2.762496 0.000000 
-0.000000 -2.762496 0.000000 
0.000000 -2.762496 0.000000 
TENSORS STRESS float 
0.000000 -0.000000 0.000000 
0.000000 0.000000 0.000000 
0.000000 0.000000 0.000000 

-0.000000 -0.000000 0.000000 
0.000000 0.000000 0.000000 
0.000000 0.000000 0.000000 

0.000000 -0.000000 0.000000 
0.000000 0.000000 0.000000 
0.000000 0.000000 0.000000 

0.000000 0.000000 0.000000 
0.000000 0.000000 0.000000 
0.000000 0.000000 0.000000 

-0.000000 -0.000000 0.000000 
0.000000 -0.000000 0.000000 
0.000000 0.000000 0.000000 

-0.000000 -0.000000 0.000000 
0.000000 0.000000 0.000000 
0.000000 0.000000 0.000000 

-0.000000 -0.000000 0.000000 
0.000000 -0.000000 0.000000 
0.000000 0.000000 0.000000 

-0.000000 0.000000 0.000000 
0.000000 -0.000000 0.000000 
0.000000 0.000000 0.000000 

-0.000000 -0.000000 0.000000 
0.000000 -0.000000 0.000000 
0.000000 0.000000 0.000000 

-0.000000 0.000000 0.000000 
0.000000 -0.000000 0.000000 
0.000000 0.000000 0.000000 

-0.000000 -0.000000 0.000000 
0.000000 -0.000000 0.000000 
0.000000 0.000000 0.000000 

-0.000000 0.000000 0.000000 
0.000000 -0.000000 0.000000 
0.000000 0.000000 0.000000 

-0.000000 -0.000000 0.000000 
0.000000 -0.000000 0.000000 
0.000000 0.000000 0.000000 

0.000000 0.000000 0.000000 
0.000000 0.000000 0.000000 
0.000000 0.000000 0.000000 

-0.000000 0.000000 0.000000 
0.000000 -0.000000 0.000000 
0.000000 0.000000 0.000000 

0.000000 0.000000 0.000000 
0.000000 0.000000 0.000000 
0.000000 0.000000 0.000000 

0.000000 -0.000000 0.000000 
0.000000 0.000000 0.000000 
0.000000 0.000000 0.000000 

-0.000000 -0.000000 0.000000 
0.000000 0.000000 0.000000 
0.000000 0.000000 0.000000 

0.000000 -0.000000 0.000000 
0.000000 0.000000 0.000000 
0.000000 0.000000 0.000000 

0.000000 0.000000 0.000000 
0.000000 0.000000 0.000000 
0.000000 0.000000 0.000000 

-0.000000 0.000000 0.000000 
0.000000 -0.000000 0.000000 
0.000000 0.000000 0.000000 

0.000000 -0.000000 0.000000 
0.000000 0.000000 0.000000 
0.000000 0.000000 0.000000 

0.000000 0.000000 0.000000 
0.000000 0.000000 0.000000 
0.000000 0.000000 0.000000 

-0.000000 0.000000 0.000000 
0.000000 -0.000000 0.000000 
0.000000 0.000000 0.000000 

0.000000 0.000000 0.000000 
0.000000 0.000000 0.000000 
0.000000 0.000000 0.000000 

0.000000 -0.000000 0.000000 
0.000000 0.000000 0.000000 
0.000000 0.000000 0.000000 

0.000000 -0.000000 0.000000 
0.000000 0.000000 0.000000 
0.000000 0.000000 0.000000 

-0.000000 -0.000000 0.000000 
0.000000 0.000000 0.000000 
0.000000 0.000000 0.000000 

-0.000000 -0.000000 0.000000 
0.000000 -0.000000 0.000000 
0.000000 0.000000 0.000000 

0.000000 0.000000 0.000000 
0.000000 -0.000000 0.000000 
0.000000 0.000000 0.000000 

-0.000000 -0.000000 0.000000 
0.000000 -0.000000 0.000000 
0.000000 0.000000 0.000000 

-0.000000 -0.000000 0.000000 
0.000000 -0.000000 0.000000 
0.000000 0.000000 0.000000 

-0.000000 -0.000000 0.000000 
0.000000 -0.000000 0.000000 
0.000000 0.000000 0.000000 

-0.000000 0.000000 0.000000 
0.000000 -0.000000 0.000000 
0.000000 0.000000 0.000000 

-0.000000 -0.000000 0.000000 
0.000000 -0.000000 0.000000 
0.000000 0.000000 0.000000 

0.000000 0.000000 0.000000 
0.000000 0.000000 0.000000 
0.000000 0.000000 0.000000 

0.000000 0.000000 0.000000 
0.000000 0.000000 0.000000 
0.000000 0.000000 0.000000 

-0.000000 0.000000 0.000000 
0.000000 -0.000000 0.000000 
0.000000 0.000000 0.000000 

-0.000000 -0.000000 0.000000 
0.000000 -0.000000 0.000000 
0.000000 0.000000 0.000000 

-0.000000 0.000000 0.000000 
0.000000 -0.000000 0.000000 
0.000000 0.000000 0.000000 

-0.000000 -0.000000 0.000000 
0.000000 -0.000000 0.000000 
0.000000 0.000000 0.000000 

0.000000 -0.000000 0.000000 
0.000000 0.000000 0.000000 
0.000000 0.000000 0.000000 

0.000000 -0.000000 0.000000 
0.000000 0.000000 0.000000 
0.000000 0.000000 0.000000 

0.000000 -0.000000 0.000000 
0.000000 0.000000 0.000000 
0.000000 0.000000 0.000000 

0.000000 0.000000 0.000000 
0.000000 0.000000 0.000000 
0.000000 0.000000 0.000000 

0.000000 -0.000000 0.000000 
0.000000 -0.000000 0.000000 
0.000000 0.000000 0.000000 

0.000000 -0.000000 0.000000 
0.000000 0.000000 0.000000 
0.000000 0.000000 0.000000 

0.000000 -0.000000 0.000000 
0.000000 0.000000 0.000000 
0.000000 0.000000 0.000000 

-0.000000 0.000000 0.000000 
0.000000 -0.000000 0.000000 
0.000000 0.000000 0.000000 

-0.000000 -0.000000 0.000000 
0.000000 -0.000000 0.000000 
0.000000 0.000000 0.000000 

0.000000 0.000000 0.000000 
0.000000 0.000000 0.000000 
0.000000 0.000000 0.000000 

-0.000000 -0.000000 0.000000 
0.000000 -0.000000 0.000000 
0.000000 0.000000 0.000000 

0.000000 0.000000 0.000000 
0.000000 0.000000 0.000000 
0.000000 0.000000 0.000000 

0.000000 -0.000000 0.000000 
0.000000 0.000000 0.000000 
0.000000 0.000000 0.000000 

0.000000 -0.000000 0.000000 
0.000000 -0.000000 0.000000 
0.000000 0.000000 0.000000 

0.000000 -0.000000 0.000000 
0.000000 -0.000000 0.000000 
0.000000 0.000000 0.000000 

0.000000 -0.000000 0.000000 
0.000000 0.000000 0.000000 
0.000000 0.000000 0.000000 

0.000000 -0.000000 0.000000 
0.000000 0.000000 0.000000 
0.000000 0.000000 0.000000 

-0.000000 0.000000 0.000000 
0.000000 0.000000 0.000000 
0.000000 0.000000 0.000000 

0.000000 0.000000 0.000000 
0.000000 0.000000 0.000000 
0.000000 0.000000 0.000000 

0.000000 -0.000000 0.000000 
0.000000 -0.000000 0.000000 
0.000000 0.000000 0.000000 

-0.000000 -0.000000 0.000000 
0.000000 -0.000000 0.000000 
0.000000 0.000000 0.000000 

0.000000 -0.000000 0.000000 
0.000000 0.000000 0.000000 
0.000000 0.000000 0.000000 

-0.000000 -0.000000 0.000000 
0.000000 -0.000000 0.000000 
0.000000 0.000000 0.000000 

-0.000000 -0.000000 0.000000 
0.000000 0.000000 0.000000 
0.000000 0.000000 0.000000 

-0.000000 -0.000000 0.000000 
0.000000 -0.000000 0.000000 
0.000000 0.000000 0.000000 

-0.000000 0.000000 0.000000 
0.000000 -0.000000 0.000000 
0.000000 0.000000 0.000000 

-0.000000 -0.000000 0.000000 
0.000000 -0.000000 0.000000 
0.000000 0.000000 0.000000 

0.000000 -0.000000 0.000000 
0.000000 0.000000 0.000000 
0.000000 0.000000 0.000000 

-0.000000 -0.000000 0.000000 
0.000000 -0.000000 0.000000 
0.000000 0.000000 0.000000 

0.000000 -0.000000 0.000000 
0.000000 -0.000000 0.000000 
0.000000 0.000000 0.000000 

-0.000000 -0.000000 0.000000 
0.000000 -0.000000 0.000000 
0.000000 0.000000 0.000000 

0.000000 -0.000000 0.000000 
0.000000 0.000000 0.000000 
0.000000 0.000000 0.000000 

-0.000000 0.000000 0.000000 
0.000000 -0.000000 0.000000 
0.000000 0.000000 0.000000 

-0.000000 0.000000 0.000000 
0.000000 -0.000000 0.000000 
0.000000 0.000000 0.000000 

0.000000 0.000000 0.000000 
0.000000 -0.000000 0.000000 
0.000000 0.000000 0.000000 

0.000000 -0.000000 0.000000 
0.000000 -0.000000 0.000000 
0.000000 0.000000 0.000000 

0.000000 -0.000000 0.000000 
0.000000 0.000000 0.000000 
0.000000 0.000000 0.000000 

0.000000 -0.000000 0.000000 
0.000000 0.000000 0.000000 
0.000000 0.000000 0.000000 

-0.000000 0.000000 0.000000 
0.000000 -0.000000 0.000000 
0.000000 0.000000 0.000000 

0.000000 -0.000000 0.000000 
0.000000 0.000000 0.000000 
0.000000 0.000000 0.000000 

0.000000 -0.000000 0.000000 
0.000000 -0.000000 0.000000 
0.000000 0.000000 0.000000 

-0.000000 -0.000000 0.000000 
0.000000 -0.000000 0.000000 
0.000000 0.000000 0.000000 

0.000000 0.000000 0.000000 
0.000000 0.000000 0.000000 
0.000000 0.000000 0.000000 

-0.000000 0.000000 0.000000 
0.000000 -0.000000 0.000000 
0.000000 0.000000 0.000000 

-0.000000 -0.000000 0.000000 
0.000000 -0.000000 0.000000 
0.000000 0.000000 0.000000 

0.000000 -0.000000 0.000000 
0.000000 -0.000000 0.000000 
0.000000 0.000000 0.000000 

-0.000000 -0.000000 0.000000 
0.000000 -0.000000 0.000000 
0.000000 0.000000 0.000000 

0.000000 -0.000000 0.000000 
0.000000 0.000000 0.000000 
0.000000 0.000000 0.000000 

0.000000 0.000000 0.000000 
0.000000 0.000000 0.000000 
0.000000 0.000000 0.000000 

-0.000000 0.000000 0.000000 
0.000000 -0.000000 0.000000 
0.000000 0.000000 0.000000 

-0.000000 0.000000 0.000000 
0.000000 -0.000000 0.000000 
0.000000 0.000000 0.000000 

-0.000000 0.000000 0.000000 
0.000000 -0.000000 0.000000 
0.000000 0.000000 0.000000 

-0.000000 -0.000000 0.000000 
0.000000 0.000000 0.000000 
0.000000 0.000000 0.000000 

-0.000000 -0.000000 0.000000 
0.000000 -0.000000 0.000000 
0.000000 0.000000 0.000000 

0.000000 0.000000 0.000000 
0.000000 -0.000000 0.000000 
0.000000 0.000000 0.000000 

-0.000000 0.000000 0.000000 
0.000000 -0.000000 0.000000 
0.000000 0.000000 0.000000 

-0.000000 -0.000000 0.000000 
0.000000 -0.000000 0.000000 
0.000000 0.000000 0.000000 

-0.000000 -0.000000 0.000000 
0.000000 -0.000000 0.000000 
0.000000 0.000000 0.000000 

-0.000000 -0.000000 0.000000 
0.000000 -0.000000 0.000000 
0.000000 0.000000 0.000000 

0.000000 0.000000 0.000000 
0.000000 -0.000000 0.000000 
0.000000 0.000000 0.000000 

-0.000000 0.000000 0.000000 
0.000000 -0.000000 0.000000 
0.000000 0.000000 0.000000 

-0.000000 0.000000 0.000000 
0.000000 -0.000000 0.000000 
0.000000 0.000000 0.000000 

0.000000 0.000000 0.000000 
0.000000 0.000000 0.000000 
0.000000 0.000000 0.000000 

-0.000000 -0.000000 0.000000 
0.000000 -0.000000 0.000000 
0.000000 0.000000 0.000000 

0.000000 -0.000000 0.000000 
0.000000 -0.000000 0.000000 
0.000000 0.000000 0.000000 

-0.000000 0.000000 0.000000 
0.000000 0.000000 0.000000 
0.000000 0.000000 0.000000 

-0.000000 -0.000000 0.000000 
0.000000 -0.000000 0.000000 
0.000000 0.000000 0.000000 

0.000000 0.000000 0.000000 
0.000000 -0.000000 0.000000 
0.000000 0.000000 0.000000 

-0.000000 -0.000000 0.000000 
0.000000 -0.000000 0.000000 
0.000000 0.000000 0.000000 

-0.000000 0.000000 0.000000 
0.000000 -0.000000 0.000000 
0.000000 0.000000 0.000000 

0.000000 0.000000 0.000000 
0.000000 0.000000 0.000000 
0.000000 0.000000 0.000000 

0.000000 0.000000 0.000000 
0.000000 0.000000 0.000000 
0.000000 0.000000 0.000000 

0.000000 -0.000000 0.000000 
0.000000 -0.000000 0.000000 
0.000000 0.000000 0.000000 

-0.000000 0.000000 0.000000 
0.000000 0.000000 0.000000 
0.000000 0.000000 0.000000 

0.000000 0.000000 0.000000 
0.000000 0.000000 0.000000 
0.000000 0.000000 0.000000 

0.000000 -0.000000 0.000000 
0.000000 -0.000000 0.000000 
0.000000 0.000000 0.000000 

0.000000 0.000000 0.000000 
0.000000 0.000000 0.000000 
0.000000 0.000000 0.000000 

0.000000 0.000000 0.000000 
0.000000 0.000000 0.000000 
0.000000 0.000000 0.000000 

-0.000000 -0.000000 0.000000 
0.000000 -0.000000 0.000000 
0.000000 0.000000 0.000000 

0.000000 0.000000 0.000000 
0.000000 0.000000 0.000000 
0.000000 0.000000 0.000000 

0.000000 -0.000000 0.000000 
0.000000 0.000000 0.000000 
0.000000 0.000000 0.000000 

0.000000 -0.000000 0.000000 
0.000000 0.000000 0.000000 
0.000000 0.000000 0.000000 

0.000000 0.000000 0.000000 
0.000000 0.000000 0.000000 
0.000000 0.000000 0.000000 

0.000000 0.000000 0.000000 
0.000000 0.000000 0.000000 
0.000000 0.000000 0.000000 

0.000000 -0.000000 0.000000 
0.000000 -0.000000 0.000000 
0.000000 0.000000 0.000000 

-0.000000 0.000000 0.000000 
0.000000 0.000000 0.000000 
0.000000 0.000000 0.000000 

-0.000000 0.000000 0.000000 
0.000000 -0.000000 0.000000 
0.000000 0.000000 0.000000 

-0.000000 0.000000 0.000000 
0.000000 0.000000 0.000000 
0.000000 0.000000 0.000000 

-0.000000 -0.000000 0.000000 
0.000000 -0.000000 0.000000 
0.000000 0.000000 0.000000 

-0.000000 -0.000000 0.000000 
0.000000 -0.000000 0.000000 
0.000000 0.000000 0.000000 

-0.000000 -0.000000 0.000000 
0.000000 -0.000000 0.000000 
0.000000 0.000000 0.000000 

-0.000000 0.000000 0.000000 
0.000000 0.000000 0.000000 
0.000000 0.000000 0.000000 

-0.000000 0.000000 0.000000 
0.000000 0.000000 0.000000 
0.000000 0.000000 0.000000 

-0.000000 -0.000000 0.000000 
0.000000 0.000000 0.000000 
0.000000 0.000000 0.000000 

-0.000000 0.000000 0.000000 
0.000000 0.000000 0.000000 
0.000000 0.000000 0.000000 

-0.000000 -0.000000 0.000000 
0.000000 -0.000000 0.000000 
0.000000 0.000000 0.000000 

-0.000000 -0.000000 0.000000 
0.000000 -0.000000 0.000000 
0.000000 0.000000 0.000000 

-0.000000 0.000000 0.000000 
0.000000 -0.000000 0.000000 
0.000000 0.000000 0.000000 

-0.000000 -0.000000 0.000000 
0.000000 -0.000000 0.000000 
0.000000 0.000000 0.000000 

-0.000000 0.000000 0.000000 
0.000000 -0.000000 0.000000 
0.000000 0.000000 0.000000 

-0.000000 0.000000 0.000000 
0.000000 -0.000000 0.000000 
0.000000 0.000000 0.000000 

-0.000000 0.000000 0.000000 
0.000000 -0.000000 0.000000 
0.000000 0.000000 0.000000 

0.000000 0.000000 0.000000 
0.000000 -0.000000 0.000000 
0.000000 0.000000 0.000000 

0.000000 -0.000000 0.000000 
0.000000 0.000000 0.000000 
0.000000 0.000000 0.000000 

-0.000000 -0.000000 0.000000 
0.000000 -0.000000 0.000000 
0.000000 0.000000 0.000000 

-0.000000 0.000000 0.000000 
0.000000 -0.000000 0.000000 
0.000000 0.000000 0.000000 

0.000000 -0.000000 0.000000 
0.000000 -0.000000 0.000000 
0.000000 0.000000 0.000000 

0.000000 0.000000 0.000000 
0.000000 -0.000000 0.000000 
0.000000 0.000000 0.000000 

0.000000 0.000000 0.000000 
0.000000 -0.000000 0.000000 
0.000000 0.000000 0.000000 

0.000000 -0.000000 0.000000 
0.000000 0.000000 0.000000 
0.000000 0.000000 0.000000 

0.000000 0.000000 0.000000 
0.000000 0.000000 0.000000 
0.000000 0.000000 0.000000 

0.000000 -0.000000 0.000000 
0.000000 0.000000 0.000000 
0.000000 0.000000 0.000000 

-0.000000 -0.000000 0.000000 
0.000000 0.000000 0.000000 
0.000000 0.000000 0.000000 

-0.000000 -0.000000 0.000000 
0.000000 -0.000000 0.000000 
0.000000 0.000000 0.000000 

-0.000000 0.000000 0.000000 
0.000000 0.000000 0.000000 
0.000000 0.000000 0.000000 

0.000000 -0.000000 0.000000 
0.000000 0.000000 0.000000 
0.000000 0.000000 0.000000 

0.000000 -0.000000 0.000000 
0.000000 0.000000 0.000000 
0.000000 0.000000 0.000000 

0.000000 0.000000 0.000000 
0.000000 0.000000 0.000000 
0.000000 0.000000 0.000000 

-0.000000 0.000000 0.000000 
0.000000 -0.000000 0.000000 
0.000000 0.000000 0.000000 

0.000000 0.000000 0.000000 
0.000000 0.000000 0.000000 
0.000000 0.000000 0.000000 

-0.000000 -0.000000 0.000000 
0.000000 -0.000000 0.000000 
0.000000 0.000000 0.000000 

0.000000 -0.000000 0.000000 
0.000000 0.000000 0.000000 
0.000000 0.000000 0.000000 

0.000000 -0.000000 0.000000 
0.000000 -0.000000 0.000000 
0.000000 0.000000 0.000000 

0.000000 -0.000000 0.000000 
0.000000 0.000000 0.000000 
0.000000 0.000000 0.000000 

-0.000000 -0.000000 0.000000 
0.000000 0.000000 0.000000 
0.000000 0.000000 0.000000 

-0.000000 0.000000 0.000000 
0.000000 -0.000000 0.000000 
0.000000 0.000000 0.000000 

0.000000 0.000000 0.000000 
0.000000 0.000000 0.000000 
0.000000 0.000000 0.000000 

-0.000000 0.000000 0.000000 
0.000000 -0.000000 0.000000 
0.000000 0.000000 0.000000 

-0.000000 -0.000000 0.000000 
0.000000 -0.000000 0.000000 
0.000000 0.000000 0.000000 

-0.000000 -0.000000 0.000000 
0.000000 -0.000000 0.000000 
0.000000 0.000000 0.000000 

-0.000000 0.000000 0.000000 
0.000000 -0.000000 0.000000 
0.000000 0.000000 0.000000 

-0.000000 -0.000000 0.000000 
0.000000 -0.000000 0.000000 
0.000000 0.000000 0.000000 

-0.000000 -0.000000 0.000000 
0.000000 -0.000000 0.000000 
0.000000 0.000000 0.000000 

0.000000 0.000000 0.000000 
0.000000 0.000000 0.000000 
0.000000 0.000000 0.000000 

TENSORS STRAIN float 
0.000000 -0.000000 0.000000 
0.000000 0.000000 0.000000 
0.000000 0.000000 0.000000 

-0.000000 -0.000000 0.000000 
0.000000 0.000000 0.000000 
0.000000 0.000000 0.000000 

0.000000 -0.000000 0.000000 
0.000000 0.000000 0.000000 
0.000000 0.000000 0.000000 

0.000000 0.000000 0.000000 
0.000000 -0.000000 0.000000 
0.000000 0.000000 0.000000 

-0.000000 -0.000000 0.000000 
0.000000 -0.000000 0.000000 
0.000000 0.000000 0.000000 

-0.000000 -0.000000 0.000000 
0.000000 0.000000 0.000000 
0.000000 0.000000 0.000000 

-0.000000 -0.000000 0.000000 
0.000000 -0.000000 0.000000 
0.000000 0.000000 0.000000 

-0.000000 0.000000 0.000000 
0.000000 -0.000000 0.000000 
0.000000 0.000000 0.000000 

-0.000000 -0.000000 0.000000 
0.000000 -0.000000 0.000000 
0.000000 0.000000 0.000000 

-0.000000 0.000000 0.000000 
0.000000 -0.000000 0.000000 
0.000000 0.000000 0.000000 

-0.000000 -0.000000 0.000000 
0.000000 -0.000000 0.000000 
0.000000 0.000000 0.000000 

-0.000000 0.000000 0.000000 
0.000000 -0.000000 0.000000 
0.000000 0.000000 0.000000 

-0.000000 -0.000000 0.000000 
0.000000 -0.000000 0.000000 
0.000000 0.000000 0.000000 

-0.000000 0.000000 0.000000 
0.000000 0.000000 0.000000 
0.000000 0.000000 0.000000 

-0.000000 0.000000 0.000000 
0.000000 -0.000000 0.000000 
0.000000 0.000000 0.000000 

-0.000000 0.000000 0.000000 
0.000000 0.000000 0.000000 
0.000000 0.000000 0.000000 

-0.000000 -0.000000 0.000000 
0.000000 0.000000 0.000000 
0.000000 0.000000 0.000000 

-0.000000 -0.000000 0.000000 
0.000000 0.000000 0.000000 
0.000000 0.000000 0.000000 

0.000000 -0.000000 0.000000 
0.000000 -0.000000 0.000000 
0.000000 0.000000 0.000000 

-0.000000 0.000000 0.000000 
0.000000 0.000000 0.000000 
0.000000 0.000000 0.000000 

0.000000 0.000000 0.000000 
0.000000 -0.000000 0.000000 
0.000000 0.000000 0.000000 

-0.000000 -0.000000 0.000000 
0.000000 0.000000 0.000000 
0.000000 0.000000 0.000000 

-0.000000 0.000000 0.000000 
0.000000 0.000000 0.000000 
0.000000 0.000000 0.000000 

-0.000000 0.000000 0.000000 
0.000000 -0.000000 0.000000 
0.000000 0.000000 0.000000 

-0.000000 0.000000 0.000000 
0.000000 0.000000 0.000000 
0.000000 0.000000 0.000000 

0.000000 -0.000000 0.000000 
0.000000 0.000000 0.000000 
0.000000 0.000000 0.000000 

-0.000000 -0.000000 0.000000 
0.000000 0.000000 0.000000 
0.000000 0.000000 0.000000 

-0.000000 -0.000000 0.000000 
0.000000 0.000000 0.000000 
0.000000 0.000000 0.000000 

-0.000000 -0.000000 0.000000 
0.000000 -0.000000 0.000000 
0.000000 0.000000 0.000000 

0.000000 0.000000 0.000000 
0.000000 -0.000000 0.000000 
0.000000 0.000000 0.000000 

-0.000000 -0.000000 0.000000 
0.000000 0.000000 0.000000 
0.000000 0.000000 0.000000 

0.000000 -0.000000 0.000000 
0.000000 -0.000000 0.000000 
0.000000 0.000000 0.000000 

-0.000000 -0.000000 0.000000 
0.000000 -0.000000 0.000000 
0.000000 0.000000 0.000000 

-0.000000 0.000000 0.000000 
0.000000 -0.000000 0.000000 
0.000000 0.000000 0.000000 

-0.000000 -0.000000 0.000000 
0.000000 -0.000000 0.000000 
0.000000 0.000000 0.000000 

0.000000 0.000000 0.000000 
0.000000 -0.000000 0.000000 
0.000000 0.000000 0.000000 

0.000000 0.000000 0.000000 
0.000000 0.000000 0.000000 
0.000000 0.000000 0.000000 

0.000000 0.000000 0.000000 
0.000000 -0.000000 0.000000 
0.000000 0.000000 0.000000 

-0.000000 -0.000000 0.000000 
0.000000 -0.000000 0.000000 
0.000000 0.000000 0.000000 

-0.000000 0.000000 0.000000 
0.000000 -0.000000 0.000000 
0.000000 0.000000 0.000000 

-0.000000 -0.000000 0.000000 
0.000000 -0.000000 0.000000 
0.000000 0.000000 0.000000 

0.000000 -0.000000 0.000000 
0.000000 0.000000 0.000000 
0.000000 0.000000 0.000000 

0.000000 -0.000000 0.000000 
0.000000 0.000000 0.000000 
0.000000 0.000000 0.000000 

0.000000 -0.000000 0.000000 
0.000000 0.000000 0.000000 
0.000000 0.000000 0.000000 

0.000000 0.000000 0.000000 
0.000000 0.000000 0.000000 
0.000000 0.000000 0.000000 

0.000000 -0.000000 0.000000 
0.000000 -0.000000 0.000000 
0.000000 0.000000 0.000000 

0.000000 -0.000000 0.000000 
0.000000 0.000000 0.000000 
0.000000 0.000000 0.000000 

0.000000 -0.000000 0.000000 
0.000000 0.000000 0.000000 
0.000000 0.000000 0.000000 

-0.000000 0.000000 0.000000 
0.000000 -0.000000 0.000000 
0.000000 0.000000 0.000000 

-0.000000 -0.000000 0.000000 
0.000000 -0.000000 0.000000 
0.000000 0.000000 0.000000 

0.000000 0.000000 0.000000 
0.000000 0.000000 0.000000 
0.000000 0.000000 0.000000 

0.000000 -0.000000 0.000000 
0.000000 -0.000000 0.000000 
0.000000 0.000000 0.000000 

-0.000000 0.000000 0.000000 
0.000000 0.000000 0.000000 
0.000000 0.000000 0.000000 

-0.000000 -0.000000 0.000000 
0.000000 0.000000 0.000000 
0.000000 0.000000 0.000000 

0.000000 -0.000000 0.000000 
0.000000 -0.000000 0.000000 
0.000000 0.000000 0.000000 

0.000000 -0.000000 0.000000 
0.000000 -0.000000 0.000000 
0.000000 0.000000 0.000000 

0.000000 -0.000000 0.000000 
0.000000 0.000000 0.000000 
0.000000 0.000000 0.000000 

0.000000 -0.000000 0.000000 
0.000000 0.000000 0.000000 
0.000000 0.000000 0.000000 

-0.000000 0.000000 0.000000 
0.000000 0.000000 0.000000 
0.000000 0.000000 0.000000 

0.000000 0.000000 0.000000 
0.000000 0.000000 0.000000 
0.000000 0.000000 0.000000 

0.000000 -0.000000 0.000000 
0.000000 -0.000000 0.000000 
0.000000 0.000000 0.000000 

-0.000000 -0.000000 0.000000 
0.000000 -0.000000 0.000000 
0.000000 0.000000 0.000000 

-0.000000 -0.000000 0.000000 
0.000000 0.000000 0.000000 
0.000000 0.000000 0.000000 

-0.000000 -0.000000 0.000000 
0.000000 0.000000 0.000000 
0.000000 0.000000 0.000000 

-0.000000 -0.000000 0.000000 
0.000000 0.000000 0.000000 
0.000000 0.000000 0.000000 

-0.000000 -0.000000 0.000000 
0.000000 -0.000000 0.000000 
0.000000 0.000000 0.000000 

0.000000 0.000000 0.000000 
0.000000 -0.000000 0.000000 
0.000000 0.000000 0.000000 

0.000000 -0.000000 0.000000 
0.000000 -0.000000 0.000000 
0.000000 0.000000 0.000000 

0.000000 -0.000000 0.000000 
0.000000 0.000000 0.000000 
0.000000 0.000000 0.000000 

0.000000 -0.000000 0.000000 
0.000000 -0.000000 0.000000 
0.000000 0.000000 0.000000 

0.000000 -0.000000 0.000000 
0.000000 -0.000000 0.000000 
0.000000 0.000000 0.000000 

-0.000000 -0.000000 0.000000 
0.000000 -0.000000 0.000000 
0.000000 0.000000 0.000000 

-0.000000 -0.000000 0.000000 
0.000000 0.000000 0.000000 
0.000000 0.000000 0.000000 

0.000000 0.000000 0.000000 
0.000000 -0.000000 0.000000 
0.000000 0.000000 0.000000 

-0.000000 0.000000 0.000000 
0.000000 -0.000000 0.000000 
0.000000 0.000000 0.000000 

0.000000 0.000000 0.000000 
0.000000 -0.000000 0.000000 
0.000000 0.000000 0.000000 

0.000000 -0.000000 0.000000 
0.000000 -0.000000 0.000000 
0.000000 0.000000 0.000000 

0.000000 -0.000000 0.000000 
0.000000 0.000000 0.000000 
0.000000 0.000000 0.000000 

0.000000 -0.000000 0.000000 
0.000000 0.000000 0.000000 
0.000000 0.000000 0.000000 

-0.000000 0.000000 0.000000 
0.000000 -0.000000 0.000000 
0.000000 0.000000 0.000000 

-0.000000 -0.000000 0.000000 
0.000000 0.000000 0.000000 
0.000000 0.000000 0.000000 

0.000000 -0.000000 0.000000 
0.000000 -0.000000 0.000000 
0.000000 0.000000 0.000000 

-0.000000 -0.000000 0.000000 
0.000000 -0.000000 0.000000 
0.000000 0.000000 0.000000 

0.000000 0.000000 0.000000 
0.000000 0.000000 0.000000 
0.000000 0.000000 0.000000 

-0.000000 0.000000 0.000000 
0.000000 -0.000000 0.000000 
0.000000 0.000000 0.000000 

-0.000000 -0.000000 0.000000 
0.000000 -0.000000 0.000000 
0.000000 0.000000 0.000000 

0.000000 -0.000000 0.000000 
0.000000 -0.000000 0.000000 
0.000000 0.000000 0.000000 

0.000000 -0.000000 0.000000 
0.000000 -0.000000 0.000000 
0.000000 0.000000 0.000000 

0.000000 -0.000000 0.000000 
0.000000 0.000000 0.000000 
0.000000 0.000000 0.000000 

0.000000 0.000000 0.000000 
0.000000 0.000000 0.000000 
0.000000 0.000000 0.000000 

0.000000 0.000000 0.000000 
0.000000 -0.000000 0.000000 
0.000000 0.000000 0.000000 

-0.000000 0.000000 0.000000 
0.000000 -0.000000 0.000000 
0.000000 0.000000 0.000000 

-0.000000 0.000000 0.000000 
0.000000 -0.000000 0.000000 
0.000000 0.000000 0.000000 

-0.000000 -0.000000 0.000000 
0.000000 0.000000 0.000000 
0.000000 0.000000 0.000000 

-0.000000 -0.000000 0.000000 
0.000000 -0.000000 0.000000 
0.000000 0.000000 0.000000 

0.000000 0.000000 0.000000 
0.000000 -0.000000 0.000000 
0.000000 0.000000 0.000000 

-0.000000 0.000000 0.000000 
0.000000 -0.000000 0.000000 
0.000000 0.000000 0.000000 

-0.000000 -0.000000 0.000000 
0.000000 -0.000000 0.000000 
0.000000 0.000000 0.000000 

0.000000 -0.000000 0.000000 
0.000000 -0.000000 0.000000 
0.000000 0.000000 0.000000 

0.000000 -0.000000 0.000000 
0.000000 -0.000000 0.000000 
0.000000 0.000000 0.000000 

0.000000 0.000000 0.000000 
0.000000 -0.000000 0.000000 
0.000000 0.000000 0.000000 

-0.000000 0.000000 0.000000 
0.000000 -0.000000 0.000000 
0.000000 0.000000 0.000000 

-0.000000 0.000000 0.000000 
0.000000 -0.000000 0.000000 
0.000000 0.000000 0.000000 

0.000000 0.000000 0.000000 
0.000000 0.000000 0.000000 
0.000000 0.000000 0.000000 

-0.000000 -0.000000 0.000000 
0.000000 -0.000000 0.000000 
0.000000 0.000000 0.000000 

0.000000 -0.000000 0.000000 
0.000000 -0.000000 0.000000 
0.000000 0.000000 0.000000 

-0.000000 0.000000 0.000000 
0.000000 0.000000 0.000000 
0.000000 0.000000 0.000000 

-0.000000 -0.000000 0.000000 
0.000000 -0.000000 0.000000 
0.000000 0.000000 0.000000 

0.000000 0.000000 0.000000 
0.000000 -0.000000 0.000000 
0.000000 0.000000 0.000000 

-0.000000 -0.000000 0.000000 
0.000000 -0.000000 0.000000 
0.000000 0.000000 0.000000 

-0.000000 0.000000 0.000000 
0.000000 -0.000000 0.000000 
0.000000 0.000000 0.000000 

0.000000 0.000000 0.000000 
0.000000 0.000000 0.000000 
0.000000 0.000000 0.000000 

0.000000 0.000000 0.000000 
0.000000 0.000000 0.000000 
0.000000 0.000000 0.000000 

0.000000 -0.000000 0.000000 
0.000000 -0.000000 0.000000 
0.000000 0.000000 0.000000 

-0.000000 0.000000 0.000000 
0.000000 0.000000 0.000000 
0.000000 0.000000 0.000000 

-0.000000 0.000000 0.000000 
0.000000 0.000000 0.000000 
0.000000 0.000000 0.000000 

0.000000 -0.000000 0.000000 
0.000000 -0.000000 0.000000 
0.000000 0.000000 0.000000 

0.000000 0.000000 0.000000 
0.000000 0.000000 0.000000 
0.000000 0.000000 0.000000 

0.000000 0.000000 0.000000 
0.000000 -0.000000 0.000000 
0.000000 0.000000 0.000000 

-0.000000 -0.000000 0.000000 
0.000000 -0.000000 0.000000 
0.000000 0.000000 0.000000 

-0.000000 0.000000 0.000000 
0.000000 0.000000 0.000000 
0.000000 0.000000 0.000000 

-0.000000 -0.000000 0.000000 
0.000000 0.000000 0.000000 
0.000000 0.000000 0.000000 

0.000000 -0.000000 0.000000 
0.000000 0.000000 0.000000 
0.000000 0.000000 0.000000 

0.000000 0.000000 0.000000 
0.000000 -0.000000 0.000000 
0.000000 0.000000 0.000000 

-0.000000 0.000000 0.000000 
0.000000 0.000000 0.000000 
0.000000 0.000000 0.000000 

0.000000 -0.000000 0.000000 
0.000000 -0.000000 0.000000 
0.000000 0.000000 0.000000 

-0.000000 0.000000 0.000000 
0.000000 0.000000 0.000000 
0.000000 0.000000 0.000000 

-0.000000 0.000000 0.000000 
0.000000 0.000000 0.000000 
0.000000 0.000000 0.000000 

-0.000000 0.000000 0.000000 
0.000000 0.000000 0.000000 
0.000000 0.000000 0.000000 

0.000000 -0.000000 0.000000 
0.000000 -0.000000 0.000000 
0.000000 0.000000 0.000000 

-0.000000 -0.000000 0.000000 
0.000000 -0.000000 0.000000 
0.000000 0.000000 0.000000 

-0.000000 -0.000000 0.000000 
0.000000 -0.000000 0.000000 
0.000000 0.000000 0.000000 

-0.000000 0.000000 0.000000 
0.000000 0.000000 0.000000 
0.000000 0.000000 0.000000 

-0.000000 0.000000 0.000000 
0.000000 0.000000 0.000000 
0.000000 0.000000 0.000000 

-0.000000 -0.000000 0.000000 
0.000000 0.000000 0.000000 
0.000000 0.000000 0.000000 

-0.000000 0.000000 0.000000 
0.000000 0.000000 0.000000 
0.000000 0.000000 0.000000 

0.000000 -0.000000 0.000000 
0.000000 -0.000000 0.000000 
0.000000 0.000000 0.000000 

0.000000 -0.000000 0.000000 
0.000000 -0.000000 0.000000 
0.000000 0.000000 0.000000 

-0.000000 0.000000 0.000000 
0.000000 -0.000000 0.000000 
0.000000 0.000000 0.000000 

-0.000000 -0.000000 0.000000 
0.000000 -0.000000 0.000000 
0.000000 0.000000 0.000000 

-0.000000 0.000000 0.000000 
0.000000 -0.000000 0.000000 
0.000000 0.000000 0.000000 

-0.000000 0.000000 0.000000 
0.000000 0.000000 0.000000 
0.000000 0.000000 0.000000 

-0.000000 0.000000 0.000000 
0.000000 0.000000 0.000000 
0.000000 0.000000 0.000000 

0.000000 0.000000 0.000000 
0.000000 -0.000000 0.000000 
0.000000 0.000000 0.000000 

-0.000000 -0.000000 0.000000 
0.000000 0.000000 0.000000 
0.000000 0.000000 0.000000 

-0.000000 -0.000000 0.000000 
0.000000 0.000000 0.000000 
0.000000 0.000000 0.000000 

-0.000000 0.000000 0.000000 
0.000000 0.000000 0.000000 
0.000000 0.000000 0.000000 

0.000000 -0.000000 0.000000 
0.000000 -0.000000 0.000000 
0.000000 0.000000 0.000000 

0.000000 0.000000 0.000000 
0.000000 -0.000000 0.000000 
0.000000 0.000000 0.000000 

0.000000 0.000000 0.000000 
0.000000 -0.000000 0.000000 
0.000000 0.000000 0.000000 

0.000000 -0.000000 0.000000 
0.000000 0.000000 0.000000 
0.000000 0.000000 0.000000 

0.000000 0.000000 0.000000 
0.000000 0.000000 0.000000 
0.000000 0.000000 0.000000 

0.000000 -0.000000 0.000000 
0.000000 0.000000 0.000000 
0.000000 0.000000 0.000000 

-0.000000 -0.000000 0.000000 
0.000000 0.000000 0.000000 
0.000000 0.000000 0.000000 

-0.000000 -0.000000 0.000000 
0.000000 -0.000000 0.000000 
0.000000 0.000000 0.000000 

-0.000000 0.000000 0.000000 
0.000000 0.000000 0.000000 
0.000000 0.000000 0.000000 

0.000000 -0.000000 0.000000 
0.000000 -0.000000 0.000000 
0.000000 0.000000 0.000000 

0.000000 -0.000000 0.000000 
0.000000 0.000000 0.000000 
0.000000 0.000000 0.000000 

0.000000 0.000000 0.000000 
0.000000 0.000000 0.000000 
0.000000 0.000000 0.000000 

-0.000000 0.000000 0.000000 
0.000000 -0.000000 0.000000 
0.000000 0.000000 0.000000 

-0.000000 0.000000 0.000000 
0.000000 0.000000 0.000000 
0.000000 0.000000 0.000000 

-0.000000 -0.000000 0.000000 
0.000000 -0.000000 0.000000 
0.000000 0.000000 0.000000 

0.000000 -0.000000 0.000000 
0.000000 0.000000 0.000000 
0.000000 0.000000 0.000000 

0.000000 -0.000000 0.000000 
0.000000 -0.000000 0.000000 
0.000000 0.000000 0.000000 

0.000000 -0.000000 0.000000 
0.000000 0.000000 0.000000 
0.000000 0.000000 0.000000 

-0.000000 -0.000000 0.000000 
0.000000 0.000000 0.000000 
0.000000 0.000000 0.000000 

-0.000000 0.000000 0.000000 
0.000000 -0.000000 0.000000 
0.000000 0.000000 0.000000 

-0.000000 0.000000 0.000000 
0.000000 0.000000 0.000000 
0.000000 0.000000 0.000000 

-0.000000 0.000000 0.000000 
0.000000 0.000000 0.000000 
0.000000 0.000000 0.000000 

-0.000000 -0.000000 0.000000 
0.000000 -0.000000 0.000000 
0.000000 0.000000 0.000000 

-0.000000 -0.000000 0.000000 
0.000000 -0.000000 0.000000 
0.000000 0.000000 0.000000 

-0.000000 0.000000 0.000000 
0.000000 -0.000000 0.000000 
0.000000 0.000000 0.000000 

-0.000000 -0.000000 0.000000 
0.000000 -0.000000 0.000000 
0.000000 0.000000 0.000000 

-0.000000 -0.000000 0.000000 
0.000000 0.000000 0.000000 
0.000000 0.000000 0.000000 

-0.000000 0.000000 0.000000 
0.000000 0.000000 0.000000 
0.000000 0.000000 0.000000 

