# vtk DataFile Version 3.0 
vtk output 
ASCII 
DATASET UNSTRUCTURED_GRID 
POINTS 175 float 
-0.026061 -0.656703 0.000000 
-0.106992 -0.588647 0.000000 
-0.054870 -0.596880 0.000000 
-0.028809 -0.550996 0.000000 
-0.186430 -0.524572 0.000000 
-0.137056 -0.527098 0.000000 
-0.114311 -0.473451 0.000000 
-0.058186 -0.489116 0.000000 
-0.029377 -0.448939 0.000000 
-0.265318 -0.461416 0.000000 
-0.217198 -0.462216 0.000000 
-0.196633 -0.404919 0.000000 
-0.143120 -0.413628 0.000000 
-0.116563 -0.366359 0.000000 
-0.058945 -0.386005 0.000000 
-0.029568 -0.347885 0.000000 
-0.344206 -0.398260 0.000000 
-0.296791 -0.398253 0.000000 
-0.278030 -0.338310 0.000000 
-0.225992 -0.344177 0.000000 
-0.201664 -0.292060 0.000000 
-0.145749 -0.305534 0.000000 
-0.117890 -0.261191 0.000000 
-0.059328 -0.283897 0.000000 
-0.029759 -0.246831 0.000000 
-0.058559 -0.697454 0.000000 
-0.162226 -0.718296 0.000000 
-0.123292 -0.682679 0.000000 
-0.142917 -0.633695 0.000000 
-0.261851 -0.740453 0.000000 
-0.229092 -0.703425 0.000000 
-0.256854 -0.652194 0.000000 
-0.209613 -0.618081 0.000000 
-0.223062 -0.570507 0.000000 
-0.360414 -0.762753 0.000000 
-0.329787 -0.725630 0.000000 
-0.361761 -0.673828 0.000000 
-0.321587 -0.637419 0.000000 
-0.341985 -0.587185 0.000000 
-0.290702 -0.554386 0.000000 
-0.302189 -0.507651 0.000000 
-0.458977 -0.785053 0.000000 
-0.429420 -0.747978 0.000000 
-0.464588 -0.695936 0.000000 
-0.427556 -0.658909 0.000000 
-0.453135 -0.607394 0.000000 
-0.407738 -0.572079 0.000000 
-0.425037 -0.522651 0.000000 
-0.370772 -0.491022 0.000000 
-0.381315 -0.444794 0.000000 
-0.046960 -0.748269 0.000000 
-0.095301 -0.842315 0.000000 
-0.098873 -0.789667 0.000000 
-0.149405 -0.774470 0.000000 
-0.140093 -0.934019 0.000000 
-0.148617 -0.885320 0.000000 
-0.205981 -0.875083 0.000000 
-0.203197 -0.816880 0.000000 
-0.248777 -0.797733 0.000000 
-0.184111 -1.024982 0.000000 
-0.194039 -0.977891 0.000000 
-0.254475 -0.970592 0.000000 
-0.257893 -0.916482 0.000000 
-0.309886 -0.901110 0.000000 
-0.303554 -0.840564 0.000000 
-0.347255 -0.820406 0.000000 
-0.228129 -1.115946 0.000000 
-0.238687 -1.069722 0.000000 
-0.301302 -1.064770 0.000000 
-0.307162 -1.012731 0.000000 
-0.363386 -1.000610 0.000000 
-0.362692 -0.943098 0.000000 
-0.412122 -0.925805 0.000000 
-0.403017 -0.863659 0.000000 
-0.445733 -0.843080 0.000000 
-0.000000 -0.770884 0.000000 
0.043388 -0.867314 0.000000 
-0.000000 -0.837282 0.000000 
-0.043388 -0.867314 0.000000 
0.087158 -0.959511 0.000000 
0.043769 -0.935812 0.000000 
-0.000000 -0.974278 0.000000 
-0.043769 -0.935812 0.000000 
-0.087158 -0.959511 0.000000 
0.130831 -1.050641 0.000000 
0.087824 -1.029042 0.000000 
0.044436 -1.071742 0.000000 
-0.000000 -1.040677 0.000000 
-0.044436 -1.071742 0.000000 
-0.087824 -1.029042 0.000000 
-0.130831 -1.050641 0.000000 
0.174505 -1.141770 0.000000 
0.131782 -1.121204 0.000000 
0.088871 -1.167071 0.000000 
0.044532 -1.139207 0.000000 
-0.000000 -1.175607 0.000000 
-0.044532 -1.139207 0.000000 
-0.088871 -1.167071 0.000000 
-0.131782 -1.121204 0.000000 
-0.174505 -1.141770 0.000000 
0.046960 -0.748269 0.000000 
0.149405 -0.774470 0.000000 
0.098873 -0.789667 0.000000 
0.095301 -0.842315 0.000000 
0.248777 -0.797733 0.000000 
0.203197 -0.816880 0.000000 
0.205981 -0.875083 0.000000 
0.148617 -0.885320 0.000000 
0.140093 -0.934019 0.000000 
0.347255 -0.820406 0.000000 
0.303554 -0.840564 0.000000 
0.309886 -0.901110 0.000000 
0.257893 -0.916482 0.000000 
0.254475 -0.970592 0.000000 
0.194039 -0.977891 0.000000 
0.184111 -1.024982 0.000000 
0.445733 -0.843080 0.000000 
0.403017 -0.863659 0.000000 
0.412122 -0.925805 0.000000 
0.362692 -0.943098 0.000000 
0.363386 -1.000610 0.000000 
0.307162 -1.012731 0.000000 
0.301302 -1.064770 0.000000 
0.238687 -1.069722 0.000000 
0.228129 -1.115946 0.000000 
0.058559 -0.697454 0.000000 
0.142917 -0.633695 0.000000 
0.123292 -0.682679 0.000000 
0.162226 -0.718296 0.000000 
0.223062 -0.570507 0.000000 
0.209613 -0.618081 0.000000 
0.256854 -0.652194 0.000000 
0.229092 -0.703425 0.000000 
0.261851 -0.740453 0.000000 
0.302189 -0.507651 0.000000 
0.290702 -0.554386 0.000000 
0.341985 -0.587185 0.000000 
0.321587 -0.637419 0.000000 
0.361761 -0.673828 0.000000 
0.329787 -0.725630 0.000000 
0.360414 -0.762753 0.000000 
0.381315 -0.444794 0.000000 
0.370772 -0.491022 0.000000 
0.425037 -0.522651 0.000000 
0.407738 -0.572079 0.000000 
0.453135 -0.607394 0.000000 
0.427556 -0.658909 0.000000 
0.464588 -0.695936 0.000000 
0.429420 -0.747978 0.000000 
0.458977 -0.785053 0.000000 
0.026061 -0.656703 0.000000 
0.028809 -0.550996 0.000000 
0.054870 -0.596880 0.000000 
0.106992 -0.588647 0.000000 
0.029377 -0.448939 0.000000 
0.058186 -0.489116 0.000000 
0.114311 -0.473451 0.000000 
0.137056 -0.527098 0.000000 
0.186430 -0.524572 0.000000 
0.029568 -0.347885 0.000000 
0.058945 -0.386005 0.000000 
0.116563 -0.366359 0.000000 
0.143120 -0.413628 0.000000 
0.196633 -0.404919 0.000000 
0.217198 -0.462216 0.000000 
0.265318 -0.461416 0.000000 
0.029759 -0.246831 0.000000 
0.059328 -0.283897 0.000000 
0.117890 -0.261191 0.000000 
0.145749 -0.305534 0.000000 
0.201664 -0.292060 0.000000 
0.225992 -0.344177 0.000000 
0.278030 -0.338310 0.000000 
0.296791 -0.398253 0.000000 
0.344206 -0.398260 0.000000 
CELLS 175 350 
1 0 
1 1 
1 2 
1 3 
1 4 
1 5 
1 6 
1 7 
1 8 
1 9 
1 10 
1 11 
1 12 
1 13 
1 14 
1 15 
1 16 
1 17 
1 18 
1 19 
1 20 
1 21 
1 22 
1 23 
1 24 
1 25 
1 26 
1 27 
1 28 
1 29 
1 30 
1 31 
1 32 
1 33 
1 34 
1 35 
1 36 
1 37 
1 38 
1 39 
1 40 
1 41 
1 42 
1 43 
1 44 
1 45 
1 46 
1 47 
1 48 
1 49 
1 50 
1 51 
1 52 
1 53 
1 54 
1 55 
1 56 
1 57 
1 58 
1 59 
1 60 
1 61 
1 62 
1 63 
1 64 
1 65 
1 66 
1 67 
1 68 
1 69 
1 70 
1 71 
1 72 
1 73 
1 74 
1 75 
1 76 
1 77 
1 78 
1 79 
1 80 
1 81 
1 82 
1 83 
1 84 
1 85 
1 86 
1 87 
1 88 
1 89 
1 90 
1 91 
1 92 
1 93 
1 94 
1 95 
1 96 
1 97 
1 98 
1 99 
1 100 
1 101 
1 102 
1 103 
1 104 
1 105 
1 106 
1 107 
1 108 
1 109 
1 110 
1 111 
1 112 
1 113 
1 114 
1 115 
1 116 
1 117 
1 118 
1 119 
1 120 
1 121 
1 122 
1 123 
1 124 
1 125 
1 126 
1 127 
1 128 
1 129 
1 130 
1 131 
1 132 
1 133 
1 134 
1 135 
1 136 
1 137 
1 138 
1 139 
1 140 
1 141 
1 142 
1 143 
1 144 
1 145 
1 146 
1 147 
1 148 
1 149 
1 150 
1 151 
1 152 
1 153 
1 154 
1 155 
1 156 
1 157 
1 158 
1 159 
1 160 
1 161 
1 162 
1 163 
1 164 
1 165 
1 166 
1 167 
1 168 
1 169 
1 170 
1 171 
1 172 
1 173 
1 174 
CELL_TYPES 175 
1 
1 
1 
1 
1 
1 
1 
1 
1 
1 
1 
1 
1 
1 
1 
1 
1 
1 
1 
1 
1 
1 
1 
1 
1 
1 
1 
1 
1 
1 
1 
1 
1 
1 
1 
1 
1 
1 
1 
1 
1 
1 
1 
1 
1 
1 
1 
1 
1 
1 
1 
1 
1 
1 
1 
1 
1 
1 
1 
1 
1 
1 
1 
1 
1 
1 
1 
1 
1 
1 
1 
1 
1 
1 
1 
1 
1 
1 
1 
1 
1 
1 
1 
1 
1 
1 
1 
1 
1 
1 
1 
1 
1 
1 
1 
1 
1 
1 
1 
1 
1 
1 
1 
1 
1 
1 
1 
1 
1 
1 
1 
1 
1 
1 
1 
1 
1 
1 
1 
1 
1 
1 
1 
1 
1 
1 
1 
1 
1 
1 
1 
1 
1 
1 
1 
1 
1 
1 
1 
1 
1 
1 
1 
1 
1 
1 
1 
1 
1 
1 
1 
1 
1 
1 
1 
1 
1 
1 
1 
1 
1 
1 
1 
1 
1 
1 
1 
1 
1 
1 
1 
1 
1 
1 
1 
POINT_DATA 175 
VECTORS X_GC float 
-0.026061 -0.656703 0.000000 
-0.106992 -0.588647 0.000000 
-0.054870 -0.596880 0.000000 
-0.028809 -0.550996 0.000000 
-0.186430 -0.524572 0.000000 
-0.137056 -0.527098 0.000000 
-0.114311 -0.473451 0.000000 
-0.058186 -0.489116 0.000000 
-0.029377 -0.448939 0.000000 
-0.265318 -0.461416 0.000000 
-0.217198 -0.462216 0.000000 
-0.196633 -0.404919 0.000000 
-0.143120 -0.413628 0.000000 
-0.116563 -0.366359 0.000000 
-0.058945 -0.386005 0.000000 
-0.029568 -0.347885 0.000000 
-0.344206 -0.398260 0.000000 
-0.296791 -0.398253 0.000000 
-0.278030 -0.338310 0.000000 
-0.225992 -0.344177 0.000000 
-0.201664 -0.292060 0.000000 
-0.145749 -0.305534 0.000000 
-0.117890 -0.261191 0.000000 
-0.059328 -0.283897 0.000000 
-0.029759 -0.246831 0.000000 
-0.058559 -0.697454 0.000000 
-0.162226 -0.718296 0.000000 
-0.123292 -0.682679 0.000000 
-0.142917 -0.633695 0.000000 
-0.261851 -0.740453 0.000000 
-0.229092 -0.703425 0.000000 
-0.256854 -0.652194 0.000000 
-0.209613 -0.618081 0.000000 
-0.223062 -0.570507 0.000000 
-0.360414 -0.762753 0.000000 
-0.329787 -0.725630 0.000000 
-0.361761 -0.673828 0.000000 
-0.321587 -0.637419 0.000000 
-0.341985 -0.587185 0.000000 
-0.290702 -0.554386 0.000000 
-0.302189 -0.507651 0.000000 
-0.458977 -0.785053 0.000000 
-0.429420 -0.747978 0.000000 
-0.464588 -0.695936 0.000000 
-0.427556 -0.658909 0.000000 
-0.453135 -0.607394 0.000000 
-0.407738 -0.572079 0.000000 
-0.425037 -0.522651 0.000000 
-0.370772 -0.491022 0.000000 
-0.381315 -0.444794 0.000000 
-0.046960 -0.748269 0.000000 
-0.095301 -0.842315 0.000000 
-0.098873 -0.789667 0.000000 
-0.149405 -0.774470 0.000000 
-0.140093 -0.934019 0.000000 
-0.148617 -0.885320 0.000000 
-0.205981 -0.875083 0.000000 
-0.203197 -0.816880 0.000000 
-0.248777 -0.797733 0.000000 
-0.184111 -1.024982 0.000000 
-0.194039 -0.977891 0.000000 
-0.254475 -0.970592 0.000000 
-0.257893 -0.916482 0.000000 
-0.309886 -0.901110 0.000000 
-0.303554 -0.840564 0.000000 
-0.347255 -0.820406 0.000000 
-0.228129 -1.115946 0.000000 
-0.238687 -1.069722 0.000000 
-0.301302 -1.064770 0.000000 
-0.307162 -1.012731 0.000000 
-0.363386 -1.000610 0.000000 
-0.362692 -0.943098 0.000000 
-0.412122 -0.925805 0.000000 
-0.403017 -0.863659 0.000000 
-0.445733 -0.843080 0.000000 
-0.000000 -0.770884 0.000000 
0.043388 -0.867314 0.000000 
-0.000000 -0.837282 0.000000 
-0.043388 -0.867314 0.000000 
0.087158 -0.959511 0.000000 
0.043769 -0.935812 0.000000 
-0.000000 -0.974278 0.000000 
-0.043769 -0.935812 0.000000 
-0.087158 -0.959511 0.000000 
0.130831 -1.050641 0.000000 
0.087824 -1.029042 0.000000 
0.044436 -1.071742 0.000000 
-0.000000 -1.040677 0.000000 
-0.044436 -1.071742 0.000000 
-0.087824 -1.029042 0.000000 
-0.130831 -1.050641 0.000000 
0.174505 -1.141770 0.000000 
0.131782 -1.121204 0.000000 
0.088871 -1.167071 0.000000 
0.044532 -1.139207 0.000000 
-0.000000 -1.175607 0.000000 
-0.044532 -1.139207 0.000000 
-0.088871 -1.167071 0.000000 
-0.131782 -1.121204 0.000000 
-0.174505 -1.141770 0.000000 
0.046960 -0.748269 0.000000 
0.149405 -0.774470 0.000000 
0.098873 -0.789667 0.000000 
0.095301 -0.842315 0.000000 
0.248777 -0.797733 0.000000 
0.203197 -0.816880 0.000000 
0.205981 -0.875083 0.000000 
0.148617 -0.885320 0.000000 
0.140093 -0.934019 0.000000 
0.347255 -0.820406 0.000000 
0.303554 -0.840564 0.000000 
0.309886 -0.901110 0.000000 
0.257893 -0.916482 0.000000 
0.254475 -0.970592 0.000000 
0.194039 -0.977891 0.000000 
0.184111 -1.024982 0.000000 
0.445733 -0.843080 0.000000 
0.403017 -0.863659 0.000000 
0.412122 -0.925805 0.000000 
0.362692 -0.943098 0.000000 
0.363386 -1.000610 0.000000 
0.307162 -1.012731 0.000000 
0.301302 -1.064770 0.000000 
0.238687 -1.069722 0.000000 
0.228129 -1.115946 0.000000 
0.058559 -0.697454 0.000000 
0.142917 -0.633695 0.000000 
0.123292 -0.682679 0.000000 
0.162226 -0.718296 0.000000 
0.223062 -0.570507 0.000000 
0.209613 -0.618081 0.000000 
0.256854 -0.652194 0.000000 
0.229092 -0.703425 0.000000 
0.261851 -0.740453 0.000000 
0.302189 -0.507651 0.000000 
0.290702 -0.554386 0.000000 
0.341985 -0.587185 0.000000 
0.321587 -0.637419 0.000000 
0.361761 -0.673828 0.000000 
0.329787 -0.725630 0.000000 
0.360414 -0.762753 0.000000 
0.381315 -0.444794 0.000000 
0.370772 -0.491022 0.000000 
0.425037 -0.522651 0.000000 
0.407738 -0.572079 0.000000 
0.453135 -0.607394 0.000000 
0.427556 -0.658909 0.000000 
0.464588 -0.695936 0.000000 
0.429420 -0.747978 0.000000 
0.458977 -0.785053 0.000000 
0.026061 -0.656703 0.000000 
0.028809 -0.550996 0.000000 
0.054870 -0.596880 0.000000 
0.106992 -0.588647 0.000000 
0.029377 -0.448939 0.000000 
0.058186 -0.489116 0.000000 
0.114311 -0.473451 0.000000 
0.137056 -0.527098 0.000000 
0.186430 -0.524572 0.000000 
0.029568 -0.347885 0.000000 
0.058945 -0.386005 0.000000 
0.116563 -0.366359 0.000000 
0.143120 -0.413628 0.000000 
0.196633 -0.404919 0.000000 
0.217198 -0.462216 0.000000 
0.265318 -0.461416 0.000000 
0.029759 -0.246831 0.000000 
0.059328 -0.283897 0.000000 
0.117890 -0.261191 0.000000 
0.145749 -0.305534 0.000000 
0.201664 -0.292060 0.000000 
0.225992 -0.344177 0.000000 
0.278030 -0.338310 0.000000 
0.296791 -0.398253 0.000000 
0.344206 -0.398260 0.000000 
VECTORS X_EC float 
0.338794 -0.634512 0.000000 
-0.609100 0.446740 0.000000 
0.713312 0.557881 0.000000 
0.374519 -0.061549 0.000000 
0.423588 -0.418279 0.000000 
-0.218274 -0.384176 0.000000 
-0.513962 0.891585 0.000000 
0.756418 -0.896929 0.000000 
0.381900 0.560679 0.000000 
-0.550868 0.729117 0.000000 
0.823577 0.739913 0.000000 
0.556234 -0.033591 0.000000 
-0.139443 0.083978 0.000000 
-0.484677 -0.554147 0.000000 
0.766286 -0.288932 0.000000 
0.384386 -0.803552 0.000000 
0.474677 -0.123486 0.000000 
-0.141715 -0.123582 0.000000 
-0.385608 -0.932810 0.000000 
0.937896 -0.853615 0.000000 
0.621631 0.442805 0.000000 
-0.105264 0.624704 0.000000 
-0.467428 0.026078 0.000000 
0.771260 0.332607 0.000000 
0.386873 -0.167783 0.000000 
0.761262 -0.084377 0.000000 
0.108942 0.196999 0.000000 
-0.397202 -0.283840 0.000000 
-0.142083 -0.945115 0.000000 
-0.595936 0.496110 0.000000 
0.978194 -0.003756 0.000000 
-0.660903 -0.695381 0.000000 
0.724964 0.844099 0.000000 
0.899809 0.201850 0.000000 
0.685384 0.797162 0.000000 
0.287229 0.296004 0.000000 
0.702895 -0.403325 0.000000 
0.180633 -0.894843 0.000000 
0.445811 0.426997 0.000000 
-0.220880 -0.015789 0.000000 
-0.071546 -0.646715 0.000000 
-0.033296 -0.901786 0.000000 
-0.417537 0.597705 0.000000 
0.039645 -0.104858 0.000000 
-0.441768 -0.604729 0.000000 
-0.109248 0.699820 0.000000 
-0.699407 0.223065 0.000000 
-0.474522 -0.444214 0.000000 
0.820030 -0.871208 0.000000 
0.957100 0.504721 0.000000 
0.610485 0.601629 0.000000 
-0.761092 -0.128751 0.000000 
-0.714655 -0.839489 0.000000 
-0.057734 0.955344 0.000000 
-0.178789 -0.890747 0.000000 
-0.067979 0.451827 0.000000 
0.677748 0.313623 0.000000 
0.641556 -0.472122 0.000000 
-0.765897 -0.730601 0.000000 
0.393446 0.337262 0.000000 
0.522510 -0.298468 0.000000 
-0.691820 -0.397012 0.000000 
-0.647393 0.872505 0.000000 
0.028512 0.664978 0.000000 
-0.053800 -0.152382 0.000000 
0.514316 -0.424513 0.000000 
0.965681 -0.434729 0.000000 
-0.897068 0.941242 0.000000 
-0.083078 0.874389 0.000000 
-0.006893 0.171865 0.000000 
0.724017 0.008232 0.000000 
0.714996 -0.768172 0.000000 
-0.642413 0.998371 0.000000 
-0.760780 0.159390 0.000000 
-0.205471 -0.118425 0.000000 
0.000000 0.906931 0.000000 
-0.564049 0.208744 0.000000 
0.000000 -0.196692 0.000000 
0.564049 0.208744 0.000000 
0.866949 -0.546601 0.000000 
-0.569003 -0.866532 0.000000 
0.000000 -0.347244 0.000000 
0.569003 -0.866532 0.000000 
-0.866949 -0.546601 0.000000 
0.299194 0.683649 0.000000 
0.858290 0.392065 0.000000 
-0.577662 0.968511 0.000000 
0.000000 0.549133 0.000000 
0.577662 0.968511 0.000000 
-0.858290 0.392065 0.000000 
-0.299194 0.683649 0.000000 
-0.268560 -0.086101 0.000000 
0.286830 -0.363743 0.000000 
0.844677 0.255456 0.000000 
-0.578910 -0.120707 0.000000 
0.000000 0.370697 0.000000 
0.578910 -0.120707 0.000000 
-0.844677 0.255456 0.000000 
-0.286830 -0.363743 0.000000 
0.268560 -0.086101 0.000000 
-0.610485 0.601629 0.000000 
0.057734 0.955344 0.000000 
0.714655 -0.839489 0.000000 
0.761092 -0.128751 0.000000 
0.765897 -0.730601 0.000000 
-0.641556 -0.472122 0.000000 
-0.677748 0.313623 0.000000 
0.067979 0.451827 0.000000 
0.178789 -0.890747 0.000000 
-0.514316 -0.424513 0.000000 
0.053800 -0.152382 0.000000 
-0.028512 0.664978 0.000000 
0.647393 0.872505 0.000000 
0.691820 -0.397012 0.000000 
-0.522510 -0.298468 0.000000 
-0.393446 0.337262 0.000000 
0.205471 -0.118425 0.000000 
0.760780 0.159390 0.000000 
0.642413 0.998371 0.000000 
-0.714996 -0.768172 0.000000 
-0.724017 0.008232 0.000000 
0.006894 0.171865 0.000000 
0.083078 0.874389 0.000000 
0.897068 0.941242 0.000000 
-0.965681 -0.434729 0.000000 
-0.761262 -0.084377 0.000000 
0.142083 -0.945115 0.000000 
0.397202 -0.283840 0.000000 
-0.108942 0.196999 0.000000 
-0.899809 0.201850 0.000000 
-0.724964 0.844099 0.000000 
0.660903 -0.695381 0.000000 
-0.978194 -0.003756 0.000000 
0.595936 0.496110 0.000000 
0.071546 -0.646714 0.000000 
0.220880 -0.015789 0.000000 
-0.445811 0.426997 0.000000 
-0.180633 -0.894843 0.000000 
-0.702895 -0.403325 0.000000 
-0.287229 0.296004 0.000000 
-0.685384 0.797162 0.000000 
-0.957100 0.504721 0.000000 
-0.820030 -0.871208 0.000000 
0.474522 -0.444214 0.000000 
0.699407 0.223065 0.000000 
0.109248 0.699820 0.000000 
0.441768 -0.604729 0.000000 
-0.039645 -0.104858 0.000000 
0.417537 0.597705 0.000000 
0.033296 -0.901786 0.000000 
-0.338794 -0.634512 0.000000 
-0.374519 -0.061549 0.000000 
-0.713312 0.557881 0.000000 
0.609100 0.446740 0.000000 
-0.381900 0.560679 0.000000 
-0.756418 -0.896929 0.000000 
0.513962 0.891585 0.000000 
0.218274 -0.384176 0.000000 
-0.423588 -0.418279 0.000000 
-0.384386 -0.803552 0.000000 
-0.766286 -0.288932 0.000000 
0.484677 -0.554147 0.000000 
0.139443 0.083978 0.000000 
-0.556234 -0.033591 0.000000 
-0.823577 0.739913 0.000000 
0.550868 0.729117 0.000000 
-0.386873 -0.167783 0.000000 
-0.771260 0.332607 0.000000 
0.467428 0.026078 0.000000 
0.105264 0.624704 0.000000 
-0.621631 0.442805 0.000000 
-0.937896 -0.853615 0.000000 
0.385608 -0.932810 0.000000 
0.141715 -0.123582 0.000000 
-0.474677 -0.123486 0.000000 
CELL_DATA 175 
SCALARS MASS float 
LOOKUP_TABLE default 
0.078183 
0.086427 
0.094672 
0.086427 
0.088131 
0.092111 
0.085854 
0.092111 
0.088131 
0.088705 
0.091000 
0.086983 
0.091556 
0.086983 
0.091000 
0.088705 
0.089278 
0.091574 
0.089278 
0.092722 
0.089278 
0.092722 
0.089278 
0.091574 
0.089278 
0.078183 
0.086427 
0.094672 
0.086427 
0.088131 
0.092111 
0.085854 
0.092111 
0.088131 
0.088705 
0.091000 
0.086983 
0.091556 
0.086983 
0.091000 
0.088705 
0.089278 
0.091574 
0.089278 
0.092722 
0.089278 
0.092722 
0.089278 
0.091574 
0.089278 
0.078183 
0.086427 
0.094672 
0.086427 
0.088131 
0.092111 
0.085854 
0.092111 
0.088131 
0.088705 
0.091000 
0.086983 
0.091556 
0.086983 
0.091000 
0.088705 
0.089278 
0.091574 
0.089278 
0.092722 
0.089278 
0.092722 
0.089278 
0.091574 
0.089278 
0.078183 
0.086427 
0.094672 
0.086427 
0.088131 
0.092111 
0.085854 
0.092111 
0.088131 
0.088705 
0.091000 
0.086983 
0.091556 
0.086983 
0.091000 
0.088705 
0.089278 
0.091574 
0.089278 
0.092722 
0.089278 
0.092722 
0.089278 
0.091574 
0.089278 
0.078183 
0.086427 
0.094672 
0.086427 
0.088131 
0.092111 
0.085854 
0.092111 
0.088131 
0.088705 
0.091000 
0.086983 
0.091556 
0.086983 
0.091000 
0.088705 
0.089278 
0.091574 
0.089278 
0.092722 
0.089278 
0.092722 
0.089278 
0.091574 
0.089278 
0.078183 
0.086427 
0.094672 
0.086427 
0.088131 
0.092111 
0.085854 
0.092111 
0.088131 
0.088705 
0.091000 
0.086983 
0.091556 
0.086983 
0.091000 
0.088705 
0.089278 
0.091574 
0.089278 
0.092722 
0.089278 
0.092722 
0.089278 
0.091574 
0.089278 
0.078183 
0.086427 
0.094672 
0.086427 
0.088131 
0.092111 
0.085854 
0.092111 
0.088131 
0.088705 
0.091000 
0.086983 
0.091556 
0.086983 
0.091000 
0.088705 
0.089278 
0.091574 
0.089278 
0.092722 
0.089278 
0.092722 
0.089278 
0.091574 
0.089278 
SCALARS MASS float 
LOOKUP_TABLE default 
0.078183 
0.086427 
0.094672 
0.086427 
0.088131 
0.092111 
0.085854 
0.092111 
0.088131 
0.088705 
0.091000 
0.086983 
0.091556 
0.086983 
0.091000 
0.088705 
0.089278 
0.091574 
0.089278 
0.092722 
0.089278 
0.092722 
0.089278 
0.091574 
0.089278 
0.078183 
0.086427 
0.094672 
0.086427 
0.088131 
0.092111 
0.085854 
0.092111 
0.088131 
0.088705 
0.091000 
0.086983 
0.091556 
0.086983 
0.091000 
0.088705 
0.089278 
0.091574 
0.089278 
0.092722 
0.089278 
0.092722 
0.089278 
0.091574 
0.089278 
0.078183 
0.086427 
0.094672 
0.086427 
0.088131 
0.092111 
0.085854 
0.092111 
0.088131 
0.088705 
0.091000 
0.086983 
0.091556 
0.086983 
0.091000 
0.088705 
0.089278 
0.091574 
0.089278 
0.092722 
0.089278 
0.092722 
0.089278 
0.091574 
0.089278 
0.078183 
0.086427 
0.094672 
0.086427 
0.088131 
0.092111 
0.085854 
0.092111 
0.088131 
0.088705 
0.091000 
0.086983 
0.091556 
0.086983 
0.091000 
0.088705 
0.089278 
0.091574 
0.089278 
0.092722 
0.089278 
0.092722 
0.089278 
0.091574 
0.089278 
0.078183 
0.086427 
0.094672 
0.086427 
0.088131 
0.092111 
0.085854 
0.092111 
0.088131 
0.088705 
0.091000 
0.086983 
0.091556 
0.086983 
0.091000 
0.088705 
0.089278 
0.091574 
0.089278 
0.092722 
0.089278 
0.092722 
0.089278 
0.091574 
0.089278 
0.078183 
0.086427 
0.094672 
0.086427 
0.088131 
0.092111 
0.085854 
0.092111 
0.088131 
0.088705 
0.091000 
0.086983 
0.091556 
0.086983 
0.091000 
0.088705 
0.089278 
0.091574 
0.089278 
0.092722 
0.089278 
0.092722 
0.089278 
0.091574 
0.089278 
0.078183 
0.086427 
0.094672 
0.086427 
0.088131 
0.092111 
0.085854 
0.092111 
0.088131 
0.088705 
0.091000 
0.086983 
0.091556 
0.086983 
0.091000 
0.088705 
0.089278 
0.091574 
0.089278 
0.092722 
0.089278 
0.092722 
0.089278 
0.091574 
0.089278 
SCALARS DENSITY float 
LOOKUP_TABLE default 
20.000000 
20.000000 
20.000000 
20.000000 
20.000000 
20.000000 
20.000000 
20.000000 
20.000000 
20.000000 
20.000000 
20.000000 
20.000000 
20.000000 
20.000000 
20.000000 
20.000000 
20.000000 
20.000000 
20.000000 
20.000000 
20.000000 
20.000000 
20.000000 
20.000000 
20.000000 
20.000000 
20.000000 
20.000000 
20.000000 
20.000000 
20.000000 
20.000000 
20.000000 
20.000000 
20.000000 
20.000000 
20.000000 
20.000000 
20.000000 
20.000000 
20.000000 
20.000000 
20.000000 
20.000000 
20.000000 
20.000000 
20.000000 
20.000000 
20.000000 
20.000000 
20.000000 
20.000000 
20.000000 
20.000000 
20.000000 
20.000000 
20.000000 
20.000000 
20.000000 
20.000000 
20.000000 
20.000000 
20.000000 
20.000000 
20.000000 
20.000000 
20.000000 
20.000000 
20.000000 
20.000000 
20.000000 
20.000000 
20.000000 
20.000000 
20.000000 
20.000000 
20.000000 
20.000000 
20.000000 
20.000000 
20.000000 
20.000000 
20.000000 
20.000000 
20.000000 
20.000000 
20.000000 
20.000000 
20.000000 
20.000000 
20.000000 
20.000000 
20.000000 
20.000000 
20.000000 
20.000000 
20.000000 
20.000000 
20.000000 
20.000000 
20.000000 
20.000000 
20.000000 
20.000000 
20.000000 
20.000000 
20.000000 
20.000000 
20.000000 
20.000000 
20.000000 
20.000000 
20.000000 
20.000000 
20.000000 
20.000000 
20.000000 
20.000000 
20.000000 
20.000000 
20.000000 
20.000000 
20.000000 
20.000000 
20.000000 
20.000000 
20.000000 
20.000000 
20.000000 
20.000000 
20.000000 
20.000000 
20.000000 
20.000000 
20.000000 
20.000000 
20.000000 
20.000000 
20.000000 
20.000000 
20.000000 
20.000000 
20.000000 
20.000000 
20.000000 
20.000000 
20.000000 
20.000000 
20.000000 
20.000000 
20.000000 
20.000000 
20.000000 
20.000000 
20.000000 
20.000000 
20.000000 
20.000000 
20.000000 
20.000000 
20.000000 
20.000000 
20.000000 
20.000000 
20.000000 
20.000000 
20.000000 
20.000000 
20.000000 
20.000000 
20.000000 
20.000000 
20.000000 
20.000000 
SCALARS ELEM_i float 
LOOKUP_TABLE default 
177 
205 
178 
178 
205 
205 
206 
178 
179 
233 
206 
206 
206 
206 
179 
179 
233 
233 
233 
206 
207 
207 
207 
180 
180 
177 
204 
204 
204 
231 
204 
231 
205 
205 
231 
231 
231 
231 
232 
232 
232 
257 
258 
258 
258 
259 
259 
259 
232 
233 
177 
203 
203 
204 
202 
203 
203 
203 
230 
202 
202 
229 
230 
230 
230 
230 
201 
229 
229 
229 
229 
229 
257 
257 
257 
177 
176 
176 
176 
148 
175 
175 
175 
202 
148 
148 
175 
175 
175 
202 
202 
147 
147 
147 
174 
174 
174 
201 
201 
201 
177 
150 
149 
149 
122 
149 
149 
149 
148 
122 
122 
122 
122 
121 
148 
148 
95 
95 
95 
121 
121 
121 
121 
121 
147 
177 
150 
150 
150 
151 
151 
123 
150 
123 
124 
124 
124 
123 
123 
123 
123 
125 
124 
97 
97 
97 
96 
96 
96 
95 
177 
178 
178 
151 
179 
178 
152 
151 
151 
179 
179 
152 
152 
152 
152 
125 
180 
180 
153 
153 
153 
152 
125 
125 
125 
VECTORS VELOCITY float 
0.000000 -3.734078 0.000000 
0.000000 -3.734078 0.000000 
0.000000 -3.734078 0.000000 
0.000000 -3.734078 0.000000 
0.000000 -3.734078 0.000000 
0.000000 -3.734078 0.000000 
-0.000000 -3.734078 0.000000 
0.000000 -3.734078 0.000000 
-0.000000 -3.734078 0.000000 
0.000000 -3.734078 0.000000 
-0.000000 -3.734078 0.000000 
0.000000 -3.734078 0.000000 
-0.000000 -3.734078 0.000000 
-0.000000 -3.734078 0.000000 
-0.000000 -3.734078 0.000000 
0.000000 -3.734078 0.000000 
0.000000 -3.734078 0.000000 
0.000000 -3.734078 0.000000 
0.000000 -3.734078 0.000000 
0.000000 -3.734078 0.000000 
-0.000000 -3.734078 0.000000 
0.000000 -3.734078 0.000000 
-0.000000 -3.734078 0.000000 
0.000000 -3.734078 0.000000 
-0.000000 -3.734078 0.000000 
0.000000 -3.734078 0.000000 
-0.000000 -3.734078 0.000000 
0.000000 -3.734078 0.000000 
0.000000 -3.734078 0.000000 
-0.000000 -3.734078 0.000000 
-0.000000 -3.734078 0.000000 
-0.000000 -3.734078 0.000000 
-0.000000 -3.734078 0.000000 
-0.000000 -3.734078 0.000000 
-0.000000 -3.734078 0.000000 
0.000000 -3.734078 0.000000 
0.000000 -3.734078 0.000000 
0.000000 -3.734078 0.000000 
-0.000000 -3.734078 0.000000 
-0.000000 -3.734078 0.000000 
-0.000000 -3.734078 0.000000 
0.000000 -3.734078 0.000000 
0.000000 -3.734078 0.000000 
0.000000 -3.734078 0.000000 
0.000000 -3.734078 0.000000 
0.000000 -3.734078 0.000000 
0.000000 -3.734078 0.000000 
-0.000000 -3.734078 0.000000 
0.000000 -3.734078 0.000000 
0.000000 -3.734078 0.000000 
-0.000000 -3.734078 0.000000 
-0.000000 -3.734078 0.000000 
-0.000000 -3.734078 0.000000 
-0.000000 -3.734078 0.000000 
0.000000 -3.734078 0.000000 
-0.000000 -3.734078 0.000000 
-0.000000 -3.734078 0.000000 
-0.000000 -3.734078 0.000000 
-0.000000 -3.734078 0.000000 
0.000000 -3.734078 0.000000 
0.000000 -3.734078 0.000000 
0.000000 -3.734078 0.000000 
0.000000 -3.734078 0.000000 
0.000000 -3.734078 0.000000 
-0.000000 -3.734078 0.000000 
-0.000000 -3.734078 0.000000 
0.000000 -3.734078 0.000000 
-0.000000 -3.734078 0.000000 
-0.000000 -3.734078 0.000000 
0.000000 -3.734078 0.000000 
0.000000 -3.734078 0.000000 
0.000000 -3.734078 0.000000 
0.000000 -3.734078 0.000000 
-0.000000 -3.734078 0.000000 
-0.000000 -3.734078 0.000000 
-0.000000 -3.734078 0.000000 
-0.000000 -3.734078 0.000000 
-0.000000 -3.734078 0.000000 
0.000000 -3.734078 0.000000 
-0.000000 -3.734078 0.000000 
0.000000 -3.734078 0.000000 
0.000000 -3.734078 0.000000 
0.000000 -3.734078 0.000000 
0.000000 -3.734078 0.000000 
-0.000000 -3.734078 0.000000 
0.000000 -3.734078 0.000000 
0.000000 -3.734078 0.000000 
-0.000000 -3.734078 0.000000 
0.000000 -3.734078 0.000000 
0.000000 -3.734078 0.000000 
0.000000 -3.734078 0.000000 
0.000000 -3.734078 0.000000 
0.000000 -3.734078 0.000000 
-0.000000 -3.734078 0.000000 
0.000000 -3.734078 0.000000 
0.000000 -3.734078 0.000000 
0.000000 -3.734078 0.000000 
0.000000 -3.734078 0.000000 
-0.000000 -3.734078 0.000000 
0.000000 -3.734078 0.000000 
-0.000000 -3.734078 0.000000 
0.000000 -3.734078 0.000000 
-0.000000 -3.734078 0.000000 
-0.000000 -3.734078 0.000000 
0.000000 -3.734078 0.000000 
0.000000 -3.734078 0.000000 
0.000000 -3.734078 0.000000 
-0.000000 -3.734078 0.000000 
-0.000000 -3.734078 0.000000 
0.000000 -3.734078 0.000000 
0.000000 -3.734078 0.000000 
-0.000000 -3.734078 0.000000 
-0.000000 -3.734078 0.000000 
-0.000000 -3.734078 0.000000 
-0.000000 -3.734078 0.000000 
-0.000000 -3.734078 0.000000 
-0.000000 -3.734078 0.000000 
-0.000000 -3.734078 0.000000 
-0.000000 -3.734078 0.000000 
-0.000000 -3.734078 0.000000 
-0.000000 -3.734078 0.000000 
-0.000000 -3.734078 0.000000 
0.000000 -3.734078 0.000000 
-0.000000 -3.734078 0.000000 
-0.000000 -3.734078 0.000000 
-0.000000 -3.734078 0.000000 
-0.000000 -3.734078 0.000000 
-0.000000 -3.734078 0.000000 
0.000000 -3.734078 0.000000 
0.000000 -3.734078 0.000000 
-0.000000 -3.734078 0.000000 
0.000000 -3.734078 0.000000 
0.000000 -3.734078 0.000000 
0.000000 -3.734078 0.000000 
0.000000 -3.734078 0.000000 
-0.000000 -3.734078 0.000000 
-0.000000 -3.734078 0.000000 
0.000000 -3.734078 0.000000 
0.000000 -3.734078 0.000000 
-0.000000 -3.734078 0.000000 
-0.000000 -3.734078 0.000000 
0.000000 -3.734078 0.000000 
-0.000000 -3.734078 0.000000 
-0.000000 -3.734078 0.000000 
-0.000000 -3.734078 0.000000 
0.000000 -3.734078 0.000000 
-0.000000 -3.734078 0.000000 
-0.000000 -3.734078 0.000000 
-0.000000 -3.734078 0.000000 
-0.000000 -3.734078 0.000000 
-0.000000 -3.734078 0.000000 
0.000000 -3.734078 0.000000 
-0.000000 -3.734078 0.000000 
-0.000000 -3.734078 0.000000 
0.000000 -3.734078 0.000000 
0.000000 -3.734078 0.000000 
0.000000 -3.734078 0.000000 
0.000000 -3.734078 0.000000 
0.000000 -3.734078 0.000000 
0.000000 -3.734078 0.000000 
0.000000 -3.734078 0.000000 
-0.000000 -3.734078 0.000000 
0.000000 -3.734078 0.000000 
0.000000 -3.734078 0.000000 
0.000000 -3.734078 0.000000 
0.000000 -3.734078 0.000000 
-0.000000 -3.734078 0.000000 
0.000000 -3.734078 0.000000 
0.000000 -3.734078 0.000000 
-0.000000 -3.734078 0.000000 
-0.000000 -3.734078 0.000000 
-0.000000 -3.734078 0.000000 
-0.000000 -3.734078 0.000000 
-0.000000 -3.734078 0.000000 
-0.000000 -3.734078 0.000000 
TENSORS STRESS float 
0.000000 0.000000 0.000000 
0.000000 0.000000 0.000000 
0.000000 0.000000 0.000000 

0.000000 0.000000 0.000000 
0.000000 0.000000 0.000000 
0.000000 0.000000 0.000000 

-0.000000 0.000000 0.000000 
0.000000 -0.000000 0.000000 
0.000000 0.000000 0.000000 

-0.000000 0.000000 0.000000 
0.000000 -0.000000 0.000000 
0.000000 0.000000 0.000000 

0.000000 0.000000 0.000000 
0.000000 -0.000000 0.000000 
0.000000 0.000000 0.000000 

0.000000 0.000000 0.000000 
0.000000 0.000000 0.000000 
0.000000 0.000000 0.000000 

-0.000000 0.000000 0.000000 
0.000000 -0.000000 0.000000 
0.000000 0.000000 0.000000 

-0.000000 0.000000 0.000000 
0.000000 -0.000000 0.000000 
0.000000 0.000000 0.000000 

-0.000000 0.000000 0.000000 
0.000000 -0.000000 0.000000 
0.000000 0.000000 0.000000 

-0.000000 0.000000 0.000000 
0.000000 -0.000000 0.000000 
0.000000 0.000000 0.000000 

-0.000000 -0.000000 0.000000 
0.000000 -0.000000 0.000000 
0.000000 0.000000 0.000000 

-0.000000 0.000000 0.000000 
0.000000 -0.000000 0.000000 
0.000000 0.000000 0.000000 

-0.000000 -0.000000 0.000000 
0.000000 0.000000 0.000000 
0.000000 0.000000 0.000000 

-0.000000 -0.000000 0.000000 
0.000000 0.000000 0.000000 
0.000000 0.000000 0.000000 

0.000000 0.000000 0.000000 
0.000000 0.000000 0.000000 
0.000000 0.000000 0.000000 

0.000000 0.000000 0.000000 
0.000000 0.000000 0.000000 
0.000000 0.000000 0.000000 

0.000000 -0.000000 0.000000 
0.000000 -0.000000 0.000000 
0.000000 0.000000 0.000000 

0.000000 -0.000000 0.000000 
0.000000 0.000000 0.000000 
0.000000 0.000000 0.000000 

-0.000000 0.000000 0.000000 
0.000000 -0.000000 0.000000 
0.000000 0.000000 0.000000 

-0.000000 -0.000000 0.000000 
0.000000 0.000000 0.000000 
0.000000 0.000000 0.000000 

-0.000000 0.000000 0.000000 
0.000000 0.000000 0.000000 
0.000000 0.000000 0.000000 

0.000000 0.000000 0.000000 
0.000000 0.000000 0.000000 
0.000000 0.000000 0.000000 

0.000000 0.000000 0.000000 
0.000000 -0.000000 0.000000 
0.000000 0.000000 0.000000 

0.000000 -0.000000 0.000000 
0.000000 0.000000 0.000000 
0.000000 0.000000 0.000000 

0.000000 0.000000 0.000000 
0.000000 0.000000 0.000000 
0.000000 0.000000 0.000000 

0.000000 0.000000 0.000000 
0.000000 0.000000 0.000000 
0.000000 0.000000 0.000000 

0.000000 0.000000 0.000000 
0.000000 0.000000 0.000000 
0.000000 0.000000 0.000000 

0.000000 0.000000 0.000000 
0.000000 0.000000 0.000000 
0.000000 0.000000 0.000000 

-0.000000 0.000000 0.000000 
0.000000 -0.000000 0.000000 
0.000000 0.000000 0.000000 

0.000000 0.000000 0.000000 
0.000000 0.000000 0.000000 
0.000000 0.000000 0.000000 

0.000000 0.000000 0.000000 
0.000000 0.000000 0.000000 
0.000000 0.000000 0.000000 

-0.000000 -0.000000 0.000000 
0.000000 -0.000000 0.000000 
0.000000 0.000000 0.000000 

0.000000 -0.000000 0.000000 
0.000000 0.000000 0.000000 
0.000000 0.000000 0.000000 

0.000000 0.000000 0.000000 
0.000000 0.000000 0.000000 
0.000000 0.000000 0.000000 

-0.000000 -0.000000 0.000000 
0.000000 -0.000000 0.000000 
0.000000 0.000000 0.000000 

-0.000000 0.000000 0.000000 
0.000000 0.000000 0.000000 
0.000000 0.000000 0.000000 

-0.000000 -0.000000 0.000000 
0.000000 -0.000000 0.000000 
0.000000 0.000000 0.000000 

-0.000000 0.000000 0.000000 
0.000000 -0.000000 0.000000 
0.000000 0.000000 0.000000 

-0.000000 -0.000000 0.000000 
0.000000 -0.000000 0.000000 
0.000000 0.000000 0.000000 

-0.000000 0.000000 0.000000 
0.000000 0.000000 0.000000 
0.000000 0.000000 0.000000 

-0.000000 0.000000 0.000000 
0.000000 0.000000 0.000000 
0.000000 0.000000 0.000000 

0.000000 0.000000 0.000000 
0.000000 0.000000 0.000000 
0.000000 0.000000 0.000000 

0.000000 0.000000 0.000000 
0.000000 0.000000 0.000000 
0.000000 0.000000 0.000000 

-0.000000 -0.000000 0.000000 
0.000000 -0.000000 0.000000 
0.000000 0.000000 0.000000 

0.000000 0.000000 0.000000 
0.000000 0.000000 0.000000 
0.000000 0.000000 0.000000 

0.000000 0.000000 0.000000 
0.000000 0.000000 0.000000 
0.000000 0.000000 0.000000 

0.000000 0.000000 0.000000 
0.000000 0.000000 0.000000 
0.000000 0.000000 0.000000 

-0.000000 0.000000 0.000000 
0.000000 0.000000 0.000000 
0.000000 0.000000 0.000000 

-0.000000 -0.000000 0.000000 
0.000000 0.000000 0.000000 
0.000000 0.000000 0.000000 

-0.000000 -0.000000 0.000000 
0.000000 -0.000000 0.000000 
0.000000 0.000000 0.000000 

0.000000 -0.000000 0.000000 
0.000000 0.000000 0.000000 
0.000000 0.000000 0.000000 

0.000000 -0.000000 0.000000 
0.000000 -0.000000 0.000000 
0.000000 0.000000 0.000000 

0.000000 -0.000000 0.000000 
0.000000 0.000000 0.000000 
0.000000 0.000000 0.000000 

0.000000 0.000000 0.000000 
0.000000 0.000000 0.000000 
0.000000 0.000000 0.000000 

0.000000 0.000000 0.000000 
0.000000 -0.000000 0.000000 
0.000000 0.000000 0.000000 

0.000000 0.000000 0.000000 
0.000000 -0.000000 0.000000 
0.000000 0.000000 0.000000 

0.000000 0.000000 0.000000 
0.000000 0.000000 0.000000 
0.000000 0.000000 0.000000 

0.000000 0.000000 0.000000 
0.000000 0.000000 0.000000 
0.000000 0.000000 0.000000 

0.000000 0.000000 0.000000 
0.000000 0.000000 0.000000 
0.000000 0.000000 0.000000 

0.000000 0.000000 0.000000 
0.000000 0.000000 0.000000 
0.000000 0.000000 0.000000 

0.000000 0.000000 0.000000 
0.000000 0.000000 0.000000 
0.000000 0.000000 0.000000 

0.000000 -0.000000 0.000000 
0.000000 0.000000 0.000000 
0.000000 0.000000 0.000000 

0.000000 0.000000 0.000000 
0.000000 -0.000000 0.000000 
0.000000 0.000000 0.000000 

0.000000 0.000000 0.000000 
0.000000 0.000000 0.000000 
0.000000 0.000000 0.000000 

0.000000 0.000000 0.000000 
0.000000 0.000000 0.000000 
0.000000 0.000000 0.000000 

0.000000 0.000000 0.000000 
0.000000 0.000000 0.000000 
0.000000 0.000000 0.000000 

0.000000 0.000000 0.000000 
0.000000 0.000000 0.000000 
0.000000 0.000000 0.000000 

0.000000 0.000000 0.000000 
0.000000 0.000000 0.000000 
0.000000 0.000000 0.000000 

-0.000000 -0.000000 0.000000 
0.000000 0.000000 0.000000 
0.000000 0.000000 0.000000 

0.000000 -0.000000 0.000000 
0.000000 0.000000 0.000000 
0.000000 0.000000 0.000000 

0.000000 0.000000 0.000000 
0.000000 0.000000 0.000000 
0.000000 0.000000 0.000000 

-0.000000 -0.000000 0.000000 
0.000000 -0.000000 0.000000 
0.000000 0.000000 0.000000 

0.000000 -0.000000 0.000000 
0.000000 -0.000000 0.000000 
0.000000 0.000000 0.000000 

-0.000000 0.000000 0.000000 
0.000000 -0.000000 0.000000 
0.000000 0.000000 0.000000 

0.000000 -0.000000 0.000000 
0.000000 0.000000 0.000000 
0.000000 0.000000 0.000000 

-0.000000 -0.000000 0.000000 
0.000000 -0.000000 0.000000 
0.000000 0.000000 0.000000 

-0.000000 -0.000000 0.000000 
0.000000 -0.000000 0.000000 
0.000000 0.000000 0.000000 

-0.000000 -0.000000 0.000000 
0.000000 0.000000 0.000000 
0.000000 0.000000 0.000000 

0.000000 -0.000000 0.000000 
0.000000 0.000000 0.000000 
0.000000 0.000000 0.000000 

-0.000000 -0.000000 0.000000 
0.000000 -0.000000 0.000000 
0.000000 0.000000 0.000000 

0.000000 0.000000 0.000000 
0.000000 0.000000 0.000000 
0.000000 0.000000 0.000000 

-0.000000 0.000000 0.000000 
0.000000 -0.000000 0.000000 
0.000000 0.000000 0.000000 

-0.000000 0.000000 0.000000 
0.000000 0.000000 0.000000 
0.000000 0.000000 0.000000 

-0.000000 0.000000 0.000000 
0.000000 -0.000000 0.000000 
0.000000 0.000000 0.000000 

0.000000 -0.000000 0.000000 
0.000000 0.000000 0.000000 
0.000000 0.000000 0.000000 

0.000000 0.000000 0.000000 
0.000000 0.000000 0.000000 
0.000000 0.000000 0.000000 

0.000000 -0.000000 0.000000 
0.000000 0.000000 0.000000 
0.000000 0.000000 0.000000 

0.000000 -0.000000 0.000000 
0.000000 0.000000 0.000000 
0.000000 0.000000 0.000000 

0.000000 0.000000 0.000000 
0.000000 0.000000 0.000000 
0.000000 0.000000 0.000000 

-0.000000 0.000000 0.000000 
0.000000 -0.000000 0.000000 
0.000000 0.000000 0.000000 

-0.000000 0.000000 0.000000 
0.000000 -0.000000 0.000000 
0.000000 0.000000 0.000000 

-0.000000 0.000000 0.000000 
0.000000 -0.000000 0.000000 
0.000000 0.000000 0.000000 

0.000000 0.000000 0.000000 
0.000000 -0.000000 0.000000 
0.000000 0.000000 0.000000 

0.000000 0.000000 0.000000 
0.000000 0.000000 0.000000 
0.000000 0.000000 0.000000 

0.000000 0.000000 0.000000 
0.000000 0.000000 0.000000 
0.000000 0.000000 0.000000 

0.000000 -0.000000 0.000000 
0.000000 -0.000000 0.000000 
0.000000 0.000000 0.000000 

0.000000 -0.000000 0.000000 
0.000000 -0.000000 0.000000 
0.000000 0.000000 0.000000 

0.000000 -0.000000 0.000000 
0.000000 0.000000 0.000000 
0.000000 0.000000 0.000000 

0.000000 -0.000000 0.000000 
0.000000 0.000000 0.000000 
0.000000 0.000000 0.000000 

0.000000 0.000000 0.000000 
0.000000 0.000000 0.000000 
0.000000 0.000000 0.000000 

0.000000 -0.000000 0.000000 
0.000000 0.000000 0.000000 
0.000000 0.000000 0.000000 

0.000000 0.000000 0.000000 
0.000000 0.000000 0.000000 
0.000000 0.000000 0.000000 

-0.000000 0.000000 0.000000 
0.000000 -0.000000 0.000000 
0.000000 0.000000 0.000000 

0.000000 0.000000 0.000000 
0.000000 0.000000 0.000000 
0.000000 0.000000 0.000000 

-0.000000 0.000000 0.000000 
0.000000 -0.000000 0.000000 
0.000000 0.000000 0.000000 

0.000000 0.000000 0.000000 
0.000000 0.000000 0.000000 
0.000000 0.000000 0.000000 

-0.000000 -0.000000 0.000000 
0.000000 -0.000000 0.000000 
0.000000 0.000000 0.000000 

-0.000000 -0.000000 0.000000 
0.000000 -0.000000 0.000000 
0.000000 0.000000 0.000000 

0.000000 -0.000000 0.000000 
0.000000 0.000000 0.000000 
0.000000 0.000000 0.000000 

0.000000 -0.000000 0.000000 
0.000000 -0.000000 0.000000 
0.000000 0.000000 0.000000 

0.000000 -0.000000 0.000000 
0.000000 0.000000 0.000000 
0.000000 0.000000 0.000000 

0.000000 0.000000 0.000000 
0.000000 0.000000 0.000000 
0.000000 0.000000 0.000000 

0.000000 -0.000000 0.000000 
0.000000 -0.000000 0.000000 
0.000000 0.000000 0.000000 

-0.000000 -0.000000 0.000000 
0.000000 -0.000000 0.000000 
0.000000 0.000000 0.000000 

0.000000 -0.000000 0.000000 
0.000000 0.000000 0.000000 
0.000000 0.000000 0.000000 

0.000000 -0.000000 0.000000 
0.000000 0.000000 0.000000 
0.000000 0.000000 0.000000 

-0.000000 -0.000000 0.000000 
0.000000 -0.000000 0.000000 
0.000000 0.000000 0.000000 

0.000000 0.000000 0.000000 
0.000000 0.000000 0.000000 
0.000000 0.000000 0.000000 

0.000000 -0.000000 0.000000 
0.000000 0.000000 0.000000 
0.000000 0.000000 0.000000 

-0.000000 0.000000 0.000000 
0.000000 -0.000000 0.000000 
0.000000 0.000000 0.000000 

0.000000 0.000000 0.000000 
0.000000 0.000000 0.000000 
0.000000 0.000000 0.000000 

0.000000 -0.000000 0.000000 
0.000000 0.000000 0.000000 
0.000000 0.000000 0.000000 

-0.000000 -0.000000 0.000000 
0.000000 -0.000000 0.000000 
0.000000 0.000000 0.000000 

-0.000000 -0.000000 0.000000 
0.000000 0.000000 0.000000 
0.000000 0.000000 0.000000 

0.000000 0.000000 0.000000 
0.000000 0.000000 0.000000 
0.000000 0.000000 0.000000 

-0.000000 -0.000000 0.000000 
0.000000 -0.000000 0.000000 
0.000000 0.000000 0.000000 

-0.000000 -0.000000 0.000000 
0.000000 -0.000000 0.000000 
0.000000 0.000000 0.000000 

-0.000000 -0.000000 0.000000 
0.000000 0.000000 0.000000 
0.000000 0.000000 0.000000 

0.000000 0.000000 0.000000 
0.000000 0.000000 0.000000 
0.000000 0.000000 0.000000 

-0.000000 0.000000 0.000000 
0.000000 -0.000000 0.000000 
0.000000 0.000000 0.000000 

0.000000 -0.000000 0.000000 
0.000000 0.000000 0.000000 
0.000000 0.000000 0.000000 

0.000000 -0.000000 0.000000 
0.000000 0.000000 0.000000 
0.000000 0.000000 0.000000 

-0.000000 -0.000000 0.000000 
0.000000 0.000000 0.000000 
0.000000 0.000000 0.000000 

0.000000 0.000000 0.000000 
0.000000 0.000000 0.000000 
0.000000 0.000000 0.000000 

-0.000000 -0.000000 0.000000 
0.000000 -0.000000 0.000000 
0.000000 0.000000 0.000000 

0.000000 -0.000000 0.000000 
0.000000 -0.000000 0.000000 
0.000000 0.000000 0.000000 

0.000000 -0.000000 0.000000 
0.000000 -0.000000 0.000000 
0.000000 0.000000 0.000000 

0.000000 0.000000 0.000000 
0.000000 0.000000 0.000000 
0.000000 0.000000 0.000000 

-0.000000 0.000000 0.000000 
0.000000 -0.000000 0.000000 
0.000000 0.000000 0.000000 

-0.000000 0.000000 0.000000 
0.000000 -0.000000 0.000000 
0.000000 0.000000 0.000000 

0.000000 -0.000000 0.000000 
0.000000 0.000000 0.000000 
0.000000 0.000000 0.000000 

-0.000000 0.000000 0.000000 
0.000000 -0.000000 0.000000 
0.000000 0.000000 0.000000 

0.000000 -0.000000 0.000000 
0.000000 -0.000000 0.000000 
0.000000 0.000000 0.000000 

0.000000 0.000000 0.000000 
0.000000 0.000000 0.000000 
0.000000 0.000000 0.000000 

0.000000 -0.000000 0.000000 
0.000000 0.000000 0.000000 
0.000000 0.000000 0.000000 

-0.000000 0.000000 0.000000 
0.000000 -0.000000 0.000000 
0.000000 0.000000 0.000000 

-0.000000 0.000000 0.000000 
0.000000 -0.000000 0.000000 
0.000000 0.000000 0.000000 

0.000000 0.000000 0.000000 
0.000000 0.000000 0.000000 
0.000000 0.000000 0.000000 

-0.000000 -0.000000 0.000000 
0.000000 0.000000 0.000000 
0.000000 0.000000 0.000000 

-0.000000 -0.000000 0.000000 
0.000000 -0.000000 0.000000 
0.000000 0.000000 0.000000 

0.000000 0.000000 0.000000 
0.000000 0.000000 0.000000 
0.000000 0.000000 0.000000 

0.000000 0.000000 0.000000 
0.000000 0.000000 0.000000 
0.000000 0.000000 0.000000 

0.000000 0.000000 0.000000 
0.000000 0.000000 0.000000 
0.000000 0.000000 0.000000 

0.000000 -0.000000 0.000000 
0.000000 0.000000 0.000000 
0.000000 0.000000 0.000000 

-0.000000 0.000000 0.000000 
0.000000 -0.000000 0.000000 
0.000000 0.000000 0.000000 

-0.000000 0.000000 0.000000 
0.000000 0.000000 0.000000 
0.000000 0.000000 0.000000 

-0.000000 0.000000 0.000000 
0.000000 -0.000000 0.000000 
0.000000 0.000000 0.000000 

0.000000 -0.000000 0.000000 
0.000000 -0.000000 0.000000 
0.000000 0.000000 0.000000 

0.000000 0.000000 0.000000 
0.000000 0.000000 0.000000 
0.000000 0.000000 0.000000 

0.000000 0.000000 0.000000 
0.000000 -0.000000 0.000000 
0.000000 0.000000 0.000000 

0.000000 0.000000 0.000000 
0.000000 -0.000000 0.000000 
0.000000 0.000000 0.000000 

0.000000 0.000000 0.000000 
0.000000 0.000000 0.000000 
0.000000 0.000000 0.000000 

-0.000000 -0.000000 0.000000 
0.000000 -0.000000 0.000000 
0.000000 0.000000 0.000000 

0.000000 0.000000 0.000000 
0.000000 -0.000000 0.000000 
0.000000 0.000000 0.000000 

0.000000 0.000000 0.000000 
0.000000 0.000000 0.000000 
0.000000 0.000000 0.000000 

-0.000000 0.000000 0.000000 
0.000000 -0.000000 0.000000 
0.000000 0.000000 0.000000 

-0.000000 0.000000 0.000000 
0.000000 -0.000000 0.000000 
0.000000 0.000000 0.000000 

0.000000 -0.000000 0.000000 
0.000000 -0.000000 0.000000 
0.000000 0.000000 0.000000 

-0.000000 0.000000 0.000000 
0.000000 -0.000000 0.000000 
0.000000 0.000000 0.000000 

-0.000000 0.000000 0.000000 
0.000000 -0.000000 0.000000 
0.000000 0.000000 0.000000 

0.000000 -0.000000 0.000000 
0.000000 0.000000 0.000000 
0.000000 0.000000 0.000000 

0.000000 0.000000 0.000000 
0.000000 0.000000 0.000000 
0.000000 0.000000 0.000000 

-0.000000 0.000000 0.000000 
0.000000 -0.000000 0.000000 
0.000000 0.000000 0.000000 

-0.000000 0.000000 0.000000 
0.000000 0.000000 0.000000 
0.000000 0.000000 0.000000 

0.000000 -0.000000 0.000000 
0.000000 0.000000 0.000000 
0.000000 0.000000 0.000000 

TENSORS STRAIN float 
0.000000 0.000000 0.000000 
0.000000 0.000000 0.000000 
0.000000 0.000000 0.000000 

0.000000 0.000000 0.000000 
0.000000 0.000000 0.000000 
0.000000 0.000000 0.000000 

0.000000 0.000000 0.000000 
0.000000 -0.000000 0.000000 
0.000000 0.000000 0.000000 

-0.000000 0.000000 0.000000 
0.000000 -0.000000 0.000000 
0.000000 0.000000 0.000000 

0.000000 0.000000 0.000000 
0.000000 -0.000000 0.000000 
0.000000 0.000000 0.000000 

0.000000 0.000000 0.000000 
0.000000 0.000000 0.000000 
0.000000 0.000000 0.000000 

-0.000000 0.000000 0.000000 
0.000000 -0.000000 0.000000 
0.000000 0.000000 0.000000 

-0.000000 0.000000 0.000000 
0.000000 0.000000 0.000000 
0.000000 0.000000 0.000000 

-0.000000 0.000000 0.000000 
0.000000 -0.000000 0.000000 
0.000000 0.000000 0.000000 

-0.000000 0.000000 0.000000 
0.000000 0.000000 0.000000 
0.000000 0.000000 0.000000 

-0.000000 -0.000000 0.000000 
0.000000 -0.000000 0.000000 
0.000000 0.000000 0.000000 

-0.000000 0.000000 0.000000 
0.000000 0.000000 0.000000 
0.000000 0.000000 0.000000 

-0.000000 -0.000000 0.000000 
0.000000 0.000000 0.000000 
0.000000 0.000000 0.000000 

-0.000000 -0.000000 0.000000 
0.000000 0.000000 0.000000 
0.000000 0.000000 0.000000 

0.000000 0.000000 0.000000 
0.000000 0.000000 0.000000 
0.000000 0.000000 0.000000 

0.000000 0.000000 0.000000 
0.000000 0.000000 0.000000 
0.000000 0.000000 0.000000 

0.000000 -0.000000 0.000000 
0.000000 -0.000000 0.000000 
0.000000 0.000000 0.000000 

0.000000 -0.000000 0.000000 
0.000000 -0.000000 0.000000 
0.000000 0.000000 0.000000 

-0.000000 0.000000 0.000000 
0.000000 -0.000000 0.000000 
0.000000 0.000000 0.000000 

-0.000000 -0.000000 0.000000 
0.000000 0.000000 0.000000 
0.000000 0.000000 0.000000 

-0.000000 0.000000 0.000000 
0.000000 0.000000 0.000000 
0.000000 0.000000 0.000000 

-0.000000 0.000000 0.000000 
0.000000 0.000000 0.000000 
0.000000 0.000000 0.000000 

0.000000 0.000000 0.000000 
0.000000 -0.000000 0.000000 
0.000000 0.000000 0.000000 

0.000000 -0.000000 0.000000 
0.000000 0.000000 0.000000 
0.000000 0.000000 0.000000 

0.000000 0.000000 0.000000 
0.000000 0.000000 0.000000 
0.000000 0.000000 0.000000 

0.000000 0.000000 0.000000 
0.000000 0.000000 0.000000 
0.000000 0.000000 0.000000 

0.000000 0.000000 0.000000 
0.000000 0.000000 0.000000 
0.000000 0.000000 0.000000 

0.000000 0.000000 0.000000 
0.000000 0.000000 0.000000 
0.000000 0.000000 0.000000 

0.000000 0.000000 0.000000 
0.000000 -0.000000 0.000000 
0.000000 0.000000 0.000000 

-0.000000 0.000000 0.000000 
0.000000 0.000000 0.000000 
0.000000 0.000000 0.000000 

0.000000 0.000000 0.000000 
0.000000 -0.000000 0.000000 
0.000000 0.000000 0.000000 

-0.000000 -0.000000 0.000000 
0.000000 -0.000000 0.000000 
0.000000 0.000000 0.000000 

0.000000 -0.000000 0.000000 
0.000000 0.000000 0.000000 
0.000000 0.000000 0.000000 

0.000000 0.000000 0.000000 
0.000000 0.000000 0.000000 
0.000000 0.000000 0.000000 

-0.000000 -0.000000 0.000000 
0.000000 0.000000 0.000000 
0.000000 0.000000 0.000000 

-0.000000 0.000000 0.000000 
0.000000 0.000000 0.000000 
0.000000 0.000000 0.000000 

-0.000000 -0.000000 0.000000 
0.000000 -0.000000 0.000000 
0.000000 0.000000 0.000000 

-0.000000 0.000000 0.000000 
0.000000 -0.000000 0.000000 
0.000000 0.000000 0.000000 

-0.000000 -0.000000 0.000000 
0.000000 -0.000000 0.000000 
0.000000 0.000000 0.000000 

-0.000000 0.000000 0.000000 
0.000000 0.000000 0.000000 
0.000000 0.000000 0.000000 

-0.000000 0.000000 0.000000 
0.000000 0.000000 0.000000 
0.000000 0.000000 0.000000 

0.000000 0.000000 0.000000 
0.000000 0.000000 0.000000 
0.000000 0.000000 0.000000 

-0.000000 0.000000 0.000000 
0.000000 0.000000 0.000000 
0.000000 0.000000 0.000000 

-0.000000 -0.000000 0.000000 
0.000000 0.000000 0.000000 
0.000000 0.000000 0.000000 

0.000000 0.000000 0.000000 
0.000000 0.000000 0.000000 
0.000000 0.000000 0.000000 

0.000000 0.000000 0.000000 
0.000000 0.000000 0.000000 
0.000000 0.000000 0.000000 

0.000000 0.000000 0.000000 
0.000000 -0.000000 0.000000 
0.000000 0.000000 0.000000 

-0.000000 0.000000 0.000000 
0.000000 0.000000 0.000000 
0.000000 0.000000 0.000000 

-0.000000 -0.000000 0.000000 
0.000000 0.000000 0.000000 
0.000000 0.000000 0.000000 

-0.000000 -0.000000 0.000000 
0.000000 -0.000000 0.000000 
0.000000 0.000000 0.000000 

0.000000 -0.000000 0.000000 
0.000000 0.000000 0.000000 
0.000000 0.000000 0.000000 

0.000000 -0.000000 0.000000 
0.000000 -0.000000 0.000000 
0.000000 0.000000 0.000000 

0.000000 -0.000000 0.000000 
0.000000 -0.000000 0.000000 
0.000000 0.000000 0.000000 

0.000000 0.000000 0.000000 
0.000000 0.000000 0.000000 
0.000000 0.000000 0.000000 

0.000000 0.000000 0.000000 
0.000000 -0.000000 0.000000 
0.000000 0.000000 0.000000 

0.000000 0.000000 0.000000 
0.000000 -0.000000 0.000000 
0.000000 0.000000 0.000000 

0.000000 0.000000 0.000000 
0.000000 0.000000 0.000000 
0.000000 0.000000 0.000000 

0.000000 0.000000 0.000000 
0.000000 -0.000000 0.000000 
0.000000 0.000000 0.000000 

0.000000 0.000000 0.000000 
0.000000 0.000000 0.000000 
0.000000 0.000000 0.000000 

-0.000000 0.000000 0.000000 
0.000000 0.000000 0.000000 
0.000000 0.000000 0.000000 

-0.000000 0.000000 0.000000 
0.000000 0.000000 0.000000 
0.000000 0.000000 0.000000 

0.000000 -0.000000 0.000000 
0.000000 0.000000 0.000000 
0.000000 0.000000 0.000000 

0.000000 0.000000 0.000000 
0.000000 -0.000000 0.000000 
0.000000 0.000000 0.000000 

0.000000 0.000000 0.000000 
0.000000 0.000000 0.000000 
0.000000 0.000000 0.000000 

0.000000 0.000000 0.000000 
0.000000 0.000000 0.000000 
0.000000 0.000000 0.000000 

-0.000000 0.000000 0.000000 
0.000000 0.000000 0.000000 
0.000000 0.000000 0.000000 

0.000000 0.000000 0.000000 
0.000000 0.000000 0.000000 
0.000000 0.000000 0.000000 

-0.000000 0.000000 0.000000 
0.000000 0.000000 0.000000 
0.000000 0.000000 0.000000 

-0.000000 -0.000000 0.000000 
0.000000 0.000000 0.000000 
0.000000 0.000000 0.000000 

0.000000 -0.000000 0.000000 
0.000000 0.000000 0.000000 
0.000000 0.000000 0.000000 

0.000000 0.000000 0.000000 
0.000000 0.000000 0.000000 
0.000000 0.000000 0.000000 

0.000000 -0.000000 0.000000 
0.000000 -0.000000 0.000000 
0.000000 0.000000 0.000000 

0.000000 -0.000000 0.000000 
0.000000 -0.000000 0.000000 
0.000000 0.000000 0.000000 

0.000000 0.000000 0.000000 
0.000000 -0.000000 0.000000 
0.000000 0.000000 0.000000 

0.000000 -0.000000 0.000000 
0.000000 0.000000 0.000000 
0.000000 0.000000 0.000000 

-0.000000 -0.000000 0.000000 
0.000000 -0.000000 0.000000 
0.000000 0.000000 0.000000 

-0.000000 -0.000000 0.000000 
0.000000 -0.000000 0.000000 
0.000000 0.000000 0.000000 

-0.000000 -0.000000 0.000000 
0.000000 0.000000 0.000000 
0.000000 0.000000 0.000000 

-0.000000 -0.000000 0.000000 
0.000000 0.000000 0.000000 
0.000000 0.000000 0.000000 

0.000000 -0.000000 0.000000 
0.000000 -0.000000 0.000000 
0.000000 0.000000 0.000000 

-0.000000 0.000000 0.000000 
0.000000 0.000000 0.000000 
0.000000 0.000000 0.000000 

-0.000000 0.000000 0.000000 
0.000000 -0.000000 0.000000 
0.000000 0.000000 0.000000 

-0.000000 0.000000 0.000000 
0.000000 0.000000 0.000000 
0.000000 0.000000 0.000000 

0.000000 0.000000 0.000000 
0.000000 -0.000000 0.000000 
0.000000 0.000000 0.000000 

0.000000 -0.000000 0.000000 
0.000000 0.000000 0.000000 
0.000000 0.000000 0.000000 

0.000000 0.000000 0.000000 
0.000000 0.000000 0.000000 
0.000000 0.000000 0.000000 

0.000000 -0.000000 0.000000 
0.000000 0.000000 0.000000 
0.000000 0.000000 0.000000 

-0.000000 -0.000000 0.000000 
0.000000 0.000000 0.000000 
0.000000 0.000000 0.000000 

0.000000 0.000000 0.000000 
0.000000 0.000000 0.000000 
0.000000 0.000000 0.000000 

-0.000000 0.000000 0.000000 
0.000000 -0.000000 0.000000 
0.000000 0.000000 0.000000 

-0.000000 0.000000 0.000000 
0.000000 -0.000000 0.000000 
0.000000 0.000000 0.000000 

-0.000000 0.000000 0.000000 
0.000000 -0.000000 0.000000 
0.000000 0.000000 0.000000 

0.000000 0.000000 0.000000 
0.000000 -0.000000 0.000000 
0.000000 0.000000 0.000000 

-0.000000 0.000000 0.000000 
0.000000 0.000000 0.000000 
0.000000 0.000000 0.000000 

0.000000 0.000000 0.000000 
0.000000 0.000000 0.000000 
0.000000 0.000000 0.000000 

0.000000 -0.000000 0.000000 
0.000000 -0.000000 0.000000 
0.000000 0.000000 0.000000 

0.000000 -0.000000 0.000000 
0.000000 -0.000000 0.000000 
0.000000 0.000000 0.000000 

0.000000 -0.000000 0.000000 
0.000000 0.000000 0.000000 
0.000000 0.000000 0.000000 

0.000000 -0.000000 0.000000 
0.000000 0.000000 0.000000 
0.000000 0.000000 0.000000 

0.000000 0.000000 0.000000 
0.000000 0.000000 0.000000 
0.000000 0.000000 0.000000 

0.000000 -0.000000 0.000000 
0.000000 0.000000 0.000000 
0.000000 0.000000 0.000000 

0.000000 0.000000 0.000000 
0.000000 -0.000000 0.000000 
0.000000 0.000000 0.000000 

0.000000 0.000000 0.000000 
0.000000 -0.000000 0.000000 
0.000000 0.000000 0.000000 

0.000000 0.000000 0.000000 
0.000000 0.000000 0.000000 
0.000000 0.000000 0.000000 

0.000000 0.000000 0.000000 
0.000000 -0.000000 0.000000 
0.000000 0.000000 0.000000 

0.000000 0.000000 0.000000 
0.000000 0.000000 0.000000 
0.000000 0.000000 0.000000 

-0.000000 -0.000000 0.000000 
0.000000 0.000000 0.000000 
0.000000 0.000000 0.000000 

-0.000000 -0.000000 0.000000 
0.000000 -0.000000 0.000000 
0.000000 0.000000 0.000000 

-0.000000 -0.000000 0.000000 
0.000000 0.000000 0.000000 
0.000000 0.000000 0.000000 

0.000000 -0.000000 0.000000 
0.000000 -0.000000 0.000000 
0.000000 0.000000 0.000000 

0.000000 -0.000000 0.000000 
0.000000 -0.000000 0.000000 
0.000000 0.000000 0.000000 

0.000000 0.000000 0.000000 
0.000000 -0.000000 0.000000 
0.000000 0.000000 0.000000 

0.000000 -0.000000 0.000000 
0.000000 -0.000000 0.000000 
0.000000 0.000000 0.000000 

0.000000 -0.000000 0.000000 
0.000000 -0.000000 0.000000 
0.000000 0.000000 0.000000 

0.000000 -0.000000 0.000000 
0.000000 0.000000 0.000000 
0.000000 0.000000 0.000000 

0.000000 -0.000000 0.000000 
0.000000 -0.000000 0.000000 
0.000000 0.000000 0.000000 

-0.000000 -0.000000 0.000000 
0.000000 -0.000000 0.000000 
0.000000 0.000000 0.000000 

0.000000 0.000000 0.000000 
0.000000 0.000000 0.000000 
0.000000 0.000000 0.000000 

0.000000 -0.000000 0.000000 
0.000000 0.000000 0.000000 
0.000000 0.000000 0.000000 

0.000000 0.000000 0.000000 
0.000000 -0.000000 0.000000 
0.000000 0.000000 0.000000 

0.000000 0.000000 0.000000 
0.000000 0.000000 0.000000 
0.000000 0.000000 0.000000 

-0.000000 -0.000000 0.000000 
0.000000 0.000000 0.000000 
0.000000 0.000000 0.000000 

-0.000000 -0.000000 0.000000 
0.000000 -0.000000 0.000000 
0.000000 0.000000 0.000000 

-0.000000 -0.000000 0.000000 
0.000000 0.000000 0.000000 
0.000000 0.000000 0.000000 

0.000000 0.000000 0.000000 
0.000000 0.000000 0.000000 
0.000000 0.000000 0.000000 

0.000000 -0.000000 0.000000 
0.000000 -0.000000 0.000000 
0.000000 0.000000 0.000000 

-0.000000 -0.000000 0.000000 
0.000000 -0.000000 0.000000 
0.000000 0.000000 0.000000 

-0.000000 -0.000000 0.000000 
0.000000 0.000000 0.000000 
0.000000 0.000000 0.000000 

-0.000000 0.000000 0.000000 
0.000000 0.000000 0.000000 
0.000000 0.000000 0.000000 

0.000000 0.000000 0.000000 
0.000000 -0.000000 0.000000 
0.000000 0.000000 0.000000 

-0.000000 -0.000000 0.000000 
0.000000 0.000000 0.000000 
0.000000 0.000000 0.000000 

0.000000 -0.000000 0.000000 
0.000000 -0.000000 0.000000 
0.000000 0.000000 0.000000 

-0.000000 -0.000000 0.000000 
0.000000 0.000000 0.000000 
0.000000 0.000000 0.000000 

0.000000 0.000000 0.000000 
0.000000 0.000000 0.000000 
0.000000 0.000000 0.000000 

0.000000 -0.000000 0.000000 
0.000000 -0.000000 0.000000 
0.000000 0.000000 0.000000 

0.000000 -0.000000 0.000000 
0.000000 -0.000000 0.000000 
0.000000 0.000000 0.000000 

0.000000 -0.000000 0.000000 
0.000000 -0.000000 0.000000 
0.000000 0.000000 0.000000 

0.000000 0.000000 0.000000 
0.000000 0.000000 0.000000 
0.000000 0.000000 0.000000 

0.000000 0.000000 0.000000 
0.000000 -0.000000 0.000000 
0.000000 0.000000 0.000000 

0.000000 0.000000 0.000000 
0.000000 -0.000000 0.000000 
0.000000 0.000000 0.000000 

0.000000 -0.000000 0.000000 
0.000000 0.000000 0.000000 
0.000000 0.000000 0.000000 

-0.000000 0.000000 0.000000 
0.000000 -0.000000 0.000000 
0.000000 0.000000 0.000000 

0.000000 -0.000000 0.000000 
0.000000 -0.000000 0.000000 
0.000000 0.000000 0.000000 

0.000000 0.000000 0.000000 
0.000000 0.000000 0.000000 
0.000000 0.000000 0.000000 

0.000000 -0.000000 0.000000 
0.000000 0.000000 0.000000 
0.000000 0.000000 0.000000 

-0.000000 0.000000 0.000000 
0.000000 -0.000000 0.000000 
0.000000 0.000000 0.000000 

-0.000000 0.000000 0.000000 
0.000000 -0.000000 0.000000 
0.000000 0.000000 0.000000 

0.000000 0.000000 0.000000 
0.000000 0.000000 0.000000 
0.000000 0.000000 0.000000 

-0.000000 -0.000000 0.000000 
0.000000 0.000000 0.000000 
0.000000 0.000000 0.000000 

-0.000000 -0.000000 0.000000 
0.000000 0.000000 0.000000 
0.000000 0.000000 0.000000 

0.000000 0.000000 0.000000 
0.000000 0.000000 0.000000 
0.000000 0.000000 0.000000 

-0.000000 0.000000 0.000000 
0.000000 0.000000 0.000000 
0.000000 0.000000 0.000000 

0.000000 0.000000 0.000000 
0.000000 0.000000 0.000000 
0.000000 0.000000 0.000000 

-0.000000 -0.000000 0.000000 
0.000000 0.000000 0.000000 
0.000000 0.000000 0.000000 

-0.000000 0.000000 0.000000 
0.000000 -0.000000 0.000000 
0.000000 0.000000 0.000000 

-0.000000 0.000000 0.000000 
0.000000 0.000000 0.000000 
0.000000 0.000000 0.000000 

0.000000 0.000000 0.000000 
0.000000 -0.000000 0.000000 
0.000000 0.000000 0.000000 

0.000000 -0.000000 0.000000 
0.000000 -0.000000 0.000000 
0.000000 0.000000 0.000000 

0.000000 0.000000 0.000000 
0.000000 0.000000 0.000000 
0.000000 0.000000 0.000000 

0.000000 0.000000 0.000000 
0.000000 -0.000000 0.000000 
0.000000 0.000000 0.000000 

0.000000 0.000000 0.000000 
0.000000 -0.000000 0.000000 
0.000000 0.000000 0.000000 

0.000000 0.000000 0.000000 
0.000000 0.000000 0.000000 
0.000000 0.000000 0.000000 

0.000000 -0.000000 0.000000 
0.000000 -0.000000 0.000000 
0.000000 0.000000 0.000000 

0.000000 0.000000 0.000000 
0.000000 -0.000000 0.000000 
0.000000 0.000000 0.000000 

0.000000 0.000000 0.000000 
0.000000 -0.000000 0.000000 
0.000000 0.000000 0.000000 

0.000000 0.000000 0.000000 
0.000000 -0.000000 0.000000 
0.000000 0.000000 0.000000 

0.000000 0.000000 0.000000 
0.000000 -0.000000 0.000000 
0.000000 0.000000 0.000000 

0.000000 -0.000000 0.000000 
0.000000 -0.000000 0.000000 
0.000000 0.000000 0.000000 

-0.000000 0.000000 0.000000 
0.000000 -0.000000 0.000000 
0.000000 0.000000 0.000000 

0.000000 0.000000 0.000000 
0.000000 -0.000000 0.000000 
0.000000 0.000000 0.000000 

0.000000 -0.000000 0.000000 
0.000000 0.000000 0.000000 
0.000000 0.000000 0.000000 

0.000000 0.000000 0.000000 
0.000000 0.000000 0.000000 
0.000000 0.000000 0.000000 

-0.000000 0.000000 0.000000 
0.000000 0.000000 0.000000 
0.000000 0.000000 0.000000 

-0.000000 0.000000 0.000000 
0.000000 0.000000 0.000000 
0.000000 0.000000 0.000000 

-0.000000 -0.000000 0.000000 
0.000000 0.000000 0.000000 
0.000000 0.000000 0.000000 

