# vtk DataFile Version 3.0 
vtk output 
ASCII 
DATASET UNSTRUCTURED_GRID 
POINTS 175 float 
-0.026061 -0.411796 0.000000 
-0.106992 -0.343741 0.000000 
-0.054870 -0.351973 0.000000 
-0.028809 -0.306090 0.000000 
-0.186430 -0.279665 0.000000 
-0.137056 -0.282191 0.000000 
-0.114311 -0.228544 0.000000 
-0.058186 -0.244210 0.000000 
-0.029377 -0.204032 0.000000 
-0.265318 -0.216509 0.000000 
-0.217198 -0.217309 0.000000 
-0.196633 -0.160012 0.000000 
-0.143120 -0.168721 0.000000 
-0.116563 -0.121453 0.000000 
-0.058945 -0.141098 0.000000 
-0.029568 -0.102978 0.000000 
-0.344206 -0.153354 0.000000 
-0.296791 -0.153346 0.000000 
-0.278030 -0.093404 0.000000 
-0.225992 -0.099270 0.000000 
-0.201664 -0.047153 0.000000 
-0.145749 -0.060627 0.000000 
-0.117890 -0.016284 0.000000 
-0.059328 -0.038990 0.000000 
-0.029759 -0.001924 0.000000 
-0.058559 -0.452547 0.000000 
-0.162226 -0.473389 0.000000 
-0.123292 -0.437772 0.000000 
-0.142917 -0.388788 0.000000 
-0.261851 -0.495546 0.000000 
-0.229092 -0.458519 0.000000 
-0.256854 -0.407287 0.000000 
-0.209613 -0.373175 0.000000 
-0.223062 -0.325601 0.000000 
-0.360414 -0.517846 0.000000 
-0.329787 -0.480723 0.000000 
-0.361761 -0.428921 0.000000 
-0.321587 -0.392512 0.000000 
-0.341985 -0.342278 0.000000 
-0.290702 -0.309479 0.000000 
-0.302189 -0.262744 0.000000 
-0.458977 -0.540146 0.000000 
-0.429420 -0.503071 0.000000 
-0.464588 -0.451030 0.000000 
-0.427556 -0.414002 0.000000 
-0.453135 -0.362487 0.000000 
-0.407738 -0.327172 0.000000 
-0.425037 -0.277744 0.000000 
-0.370772 -0.246115 0.000000 
-0.381315 -0.199887 0.000000 
-0.046960 -0.503362 0.000000 
-0.095301 -0.597408 0.000000 
-0.098873 -0.544761 0.000000 
-0.149405 -0.529563 0.000000 
-0.140093 -0.689112 0.000000 
-0.148617 -0.640414 0.000000 
-0.205981 -0.630176 0.000000 
-0.203197 -0.571973 0.000000 
-0.248777 -0.552827 0.000000 
-0.184111 -0.780076 0.000000 
-0.194039 -0.732984 0.000000 
-0.254475 -0.725685 0.000000 
-0.257893 -0.671575 0.000000 
-0.309886 -0.656203 0.000000 
-0.303554 -0.595658 0.000000 
-0.347255 -0.575500 0.000000 
-0.228129 -0.871039 0.000000 
-0.238687 -0.824815 0.000000 
-0.301302 -0.819863 0.000000 
-0.307162 -0.767824 0.000000 
-0.363386 -0.755703 0.000000 
-0.362692 -0.698192 0.000000 
-0.412122 -0.680898 0.000000 
-0.403017 -0.618752 0.000000 
-0.445733 -0.598173 0.000000 
-0.000000 -0.525977 0.000000 
0.043388 -0.622408 0.000000 
-0.000000 -0.592375 0.000000 
-0.043388 -0.622408 0.000000 
0.087158 -0.714604 0.000000 
0.043769 -0.690906 0.000000 
-0.000000 -0.729371 0.000000 
-0.043769 -0.690906 0.000000 
-0.087158 -0.714604 0.000000 
0.130831 -0.805734 0.000000 
0.087824 -0.784135 0.000000 
0.044436 -0.826835 0.000000 
-0.000000 -0.795770 0.000000 
-0.044436 -0.826835 0.000000 
-0.087824 -0.784135 0.000000 
-0.130831 -0.805734 0.000000 
0.174505 -0.896864 0.000000 
0.131782 -0.876297 0.000000 
0.088871 -0.922164 0.000000 
0.044532 -0.894300 0.000000 
-0.000000 -0.930700 0.000000 
-0.044532 -0.894300 0.000000 
-0.088871 -0.922164 0.000000 
-0.131782 -0.876297 0.000000 
-0.174505 -0.896864 0.000000 
0.046960 -0.503362 0.000000 
0.149405 -0.529563 0.000000 
0.098873 -0.544761 0.000000 
0.095301 -0.597408 0.000000 
0.248777 -0.552827 0.000000 
0.203197 -0.571973 0.000000 
0.205981 -0.630176 0.000000 
0.148617 -0.640414 0.000000 
0.140093 -0.689112 0.000000 
0.347255 -0.575500 0.000000 
0.303554 -0.595658 0.000000 
0.309886 -0.656203 0.000000 
0.257893 -0.671575 0.000000 
0.254475 -0.725685 0.000000 
0.194039 -0.732984 0.000000 
0.184111 -0.780076 0.000000 
0.445733 -0.598173 0.000000 
0.403017 -0.618752 0.000000 
0.412122 -0.680898 0.000000 
0.362692 -0.698192 0.000000 
0.363386 -0.755703 0.000000 
0.307162 -0.767824 0.000000 
0.301302 -0.819863 0.000000 
0.238687 -0.824815 0.000000 
0.228129 -0.871039 0.000000 
0.058559 -0.452547 0.000000 
0.142917 -0.388788 0.000000 
0.123292 -0.437772 0.000000 
0.162226 -0.473389 0.000000 
0.223062 -0.325601 0.000000 
0.209613 -0.373175 0.000000 
0.256854 -0.407287 0.000000 
0.229092 -0.458519 0.000000 
0.261851 -0.495546 0.000000 
0.302189 -0.262744 0.000000 
0.290702 -0.309479 0.000000 
0.341985 -0.342278 0.000000 
0.321587 -0.392512 0.000000 
0.361761 -0.428921 0.000000 
0.329787 -0.480723 0.000000 
0.360414 -0.517846 0.000000 
0.381315 -0.199887 0.000000 
0.370772 -0.246115 0.000000 
0.425037 -0.277744 0.000000 
0.407738 -0.327172 0.000000 
0.453135 -0.362487 0.000000 
0.427556 -0.414002 0.000000 
0.464588 -0.451030 0.000000 
0.429420 -0.503071 0.000000 
0.458977 -0.540146 0.000000 
0.026061 -0.411796 0.000000 
0.028809 -0.306090 0.000000 
0.054870 -0.351973 0.000000 
0.106992 -0.343741 0.000000 
0.029377 -0.204032 0.000000 
0.058186 -0.244210 0.000000 
0.114311 -0.228544 0.000000 
0.137056 -0.282191 0.000000 
0.186430 -0.279665 0.000000 
0.029568 -0.102978 0.000000 
0.058945 -0.141098 0.000000 
0.116563 -0.121453 0.000000 
0.143120 -0.168721 0.000000 
0.196633 -0.160012 0.000000 
0.217198 -0.217309 0.000000 
0.265318 -0.216509 0.000000 
0.029759 -0.001924 0.000000 
0.059328 -0.038990 0.000000 
0.117890 -0.016284 0.000000 
0.145749 -0.060627 0.000000 
0.201664 -0.047153 0.000000 
0.225992 -0.099270 0.000000 
0.278030 -0.093404 0.000000 
0.296791 -0.153346 0.000000 
0.344206 -0.153354 0.000000 
CELLS 175 350 
1 0 
1 1 
1 2 
1 3 
1 4 
1 5 
1 6 
1 7 
1 8 
1 9 
1 10 
1 11 
1 12 
1 13 
1 14 
1 15 
1 16 
1 17 
1 18 
1 19 
1 20 
1 21 
1 22 
1 23 
1 24 
1 25 
1 26 
1 27 
1 28 
1 29 
1 30 
1 31 
1 32 
1 33 
1 34 
1 35 
1 36 
1 37 
1 38 
1 39 
1 40 
1 41 
1 42 
1 43 
1 44 
1 45 
1 46 
1 47 
1 48 
1 49 
1 50 
1 51 
1 52 
1 53 
1 54 
1 55 
1 56 
1 57 
1 58 
1 59 
1 60 
1 61 
1 62 
1 63 
1 64 
1 65 
1 66 
1 67 
1 68 
1 69 
1 70 
1 71 
1 72 
1 73 
1 74 
1 75 
1 76 
1 77 
1 78 
1 79 
1 80 
1 81 
1 82 
1 83 
1 84 
1 85 
1 86 
1 87 
1 88 
1 89 
1 90 
1 91 
1 92 
1 93 
1 94 
1 95 
1 96 
1 97 
1 98 
1 99 
1 100 
1 101 
1 102 
1 103 
1 104 
1 105 
1 106 
1 107 
1 108 
1 109 
1 110 
1 111 
1 112 
1 113 
1 114 
1 115 
1 116 
1 117 
1 118 
1 119 
1 120 
1 121 
1 122 
1 123 
1 124 
1 125 
1 126 
1 127 
1 128 
1 129 
1 130 
1 131 
1 132 
1 133 
1 134 
1 135 
1 136 
1 137 
1 138 
1 139 
1 140 
1 141 
1 142 
1 143 
1 144 
1 145 
1 146 
1 147 
1 148 
1 149 
1 150 
1 151 
1 152 
1 153 
1 154 
1 155 
1 156 
1 157 
1 158 
1 159 
1 160 
1 161 
1 162 
1 163 
1 164 
1 165 
1 166 
1 167 
1 168 
1 169 
1 170 
1 171 
1 172 
1 173 
1 174 
CELL_TYPES 175 
1 
1 
1 
1 
1 
1 
1 
1 
1 
1 
1 
1 
1 
1 
1 
1 
1 
1 
1 
1 
1 
1 
1 
1 
1 
1 
1 
1 
1 
1 
1 
1 
1 
1 
1 
1 
1 
1 
1 
1 
1 
1 
1 
1 
1 
1 
1 
1 
1 
1 
1 
1 
1 
1 
1 
1 
1 
1 
1 
1 
1 
1 
1 
1 
1 
1 
1 
1 
1 
1 
1 
1 
1 
1 
1 
1 
1 
1 
1 
1 
1 
1 
1 
1 
1 
1 
1 
1 
1 
1 
1 
1 
1 
1 
1 
1 
1 
1 
1 
1 
1 
1 
1 
1 
1 
1 
1 
1 
1 
1 
1 
1 
1 
1 
1 
1 
1 
1 
1 
1 
1 
1 
1 
1 
1 
1 
1 
1 
1 
1 
1 
1 
1 
1 
1 
1 
1 
1 
1 
1 
1 
1 
1 
1 
1 
1 
1 
1 
1 
1 
1 
1 
1 
1 
1 
1 
1 
1 
1 
1 
1 
1 
1 
1 
1 
1 
1 
1 
1 
1 
1 
1 
1 
1 
1 
POINT_DATA 175 
VECTORS X_GC float 
-0.026061 -0.411796 0.000000 
-0.106992 -0.343741 0.000000 
-0.054870 -0.351973 0.000000 
-0.028809 -0.306090 0.000000 
-0.186430 -0.279665 0.000000 
-0.137056 -0.282191 0.000000 
-0.114311 -0.228544 0.000000 
-0.058186 -0.244210 0.000000 
-0.029377 -0.204032 0.000000 
-0.265318 -0.216509 0.000000 
-0.217198 -0.217309 0.000000 
-0.196633 -0.160012 0.000000 
-0.143120 -0.168721 0.000000 
-0.116563 -0.121453 0.000000 
-0.058945 -0.141098 0.000000 
-0.029568 -0.102978 0.000000 
-0.344206 -0.153354 0.000000 
-0.296791 -0.153346 0.000000 
-0.278030 -0.093404 0.000000 
-0.225992 -0.099270 0.000000 
-0.201664 -0.047153 0.000000 
-0.145749 -0.060627 0.000000 
-0.117890 -0.016284 0.000000 
-0.059328 -0.038990 0.000000 
-0.029759 -0.001924 0.000000 
-0.058559 -0.452547 0.000000 
-0.162226 -0.473389 0.000000 
-0.123292 -0.437772 0.000000 
-0.142917 -0.388788 0.000000 
-0.261851 -0.495546 0.000000 
-0.229092 -0.458519 0.000000 
-0.256854 -0.407287 0.000000 
-0.209613 -0.373175 0.000000 
-0.223062 -0.325601 0.000000 
-0.360414 -0.517846 0.000000 
-0.329787 -0.480723 0.000000 
-0.361761 -0.428921 0.000000 
-0.321587 -0.392512 0.000000 
-0.341985 -0.342278 0.000000 
-0.290702 -0.309479 0.000000 
-0.302189 -0.262744 0.000000 
-0.458977 -0.540146 0.000000 
-0.429420 -0.503071 0.000000 
-0.464588 -0.451030 0.000000 
-0.427556 -0.414002 0.000000 
-0.453135 -0.362487 0.000000 
-0.407738 -0.327172 0.000000 
-0.425037 -0.277744 0.000000 
-0.370772 -0.246115 0.000000 
-0.381315 -0.199887 0.000000 
-0.046960 -0.503362 0.000000 
-0.095301 -0.597408 0.000000 
-0.098873 -0.544761 0.000000 
-0.149405 -0.529563 0.000000 
-0.140093 -0.689112 0.000000 
-0.148617 -0.640414 0.000000 
-0.205981 -0.630176 0.000000 
-0.203197 -0.571973 0.000000 
-0.248777 -0.552827 0.000000 
-0.184111 -0.780076 0.000000 
-0.194039 -0.732984 0.000000 
-0.254475 -0.725685 0.000000 
-0.257893 -0.671575 0.000000 
-0.309886 -0.656203 0.000000 
-0.303554 -0.595658 0.000000 
-0.347255 -0.575500 0.000000 
-0.228129 -0.871039 0.000000 
-0.238687 -0.824815 0.000000 
-0.301302 -0.819863 0.000000 
-0.307162 -0.767824 0.000000 
-0.363386 -0.755703 0.000000 
-0.362692 -0.698192 0.000000 
-0.412122 -0.680898 0.000000 
-0.403017 -0.618752 0.000000 
-0.445733 -0.598173 0.000000 
-0.000000 -0.525977 0.000000 
0.043388 -0.622408 0.000000 
-0.000000 -0.592375 0.000000 
-0.043388 -0.622408 0.000000 
0.087158 -0.714604 0.000000 
0.043769 -0.690906 0.000000 
-0.000000 -0.729371 0.000000 
-0.043769 -0.690906 0.000000 
-0.087158 -0.714604 0.000000 
0.130831 -0.805734 0.000000 
0.087824 -0.784135 0.000000 
0.044436 -0.826835 0.000000 
-0.000000 -0.795770 0.000000 
-0.044436 -0.826835 0.000000 
-0.087824 -0.784135 0.000000 
-0.130831 -0.805734 0.000000 
0.174505 -0.896864 0.000000 
0.131782 -0.876297 0.000000 
0.088871 -0.922164 0.000000 
0.044532 -0.894300 0.000000 
-0.000000 -0.930700 0.000000 
-0.044532 -0.894300 0.000000 
-0.088871 -0.922164 0.000000 
-0.131782 -0.876297 0.000000 
-0.174505 -0.896864 0.000000 
0.046960 -0.503362 0.000000 
0.149405 -0.529563 0.000000 
0.098873 -0.544761 0.000000 
0.095301 -0.597408 0.000000 
0.248777 -0.552827 0.000000 
0.203197 -0.571973 0.000000 
0.205981 -0.630176 0.000000 
0.148617 -0.640414 0.000000 
0.140093 -0.689112 0.000000 
0.347255 -0.575500 0.000000 
0.303554 -0.595658 0.000000 
0.309886 -0.656203 0.000000 
0.257893 -0.671575 0.000000 
0.254475 -0.725685 0.000000 
0.194039 -0.732984 0.000000 
0.184111 -0.780076 0.000000 
0.445733 -0.598173 0.000000 
0.403017 -0.618752 0.000000 
0.412122 -0.680898 0.000000 
0.362692 -0.698192 0.000000 
0.363386 -0.755703 0.000000 
0.307162 -0.767824 0.000000 
0.301302 -0.819863 0.000000 
0.238687 -0.824815 0.000000 
0.228129 -0.871039 0.000000 
0.058559 -0.452547 0.000000 
0.142917 -0.388788 0.000000 
0.123292 -0.437772 0.000000 
0.162226 -0.473389 0.000000 
0.223062 -0.325601 0.000000 
0.209613 -0.373175 0.000000 
0.256854 -0.407287 0.000000 
0.229092 -0.458519 0.000000 
0.261851 -0.495546 0.000000 
0.302189 -0.262744 0.000000 
0.290702 -0.309479 0.000000 
0.341985 -0.342278 0.000000 
0.321587 -0.392512 0.000000 
0.361761 -0.428921 0.000000 
0.329787 -0.480723 0.000000 
0.360414 -0.517846 0.000000 
0.381315 -0.199887 0.000000 
0.370772 -0.246115 0.000000 
0.425037 -0.277744 0.000000 
0.407738 -0.327172 0.000000 
0.453135 -0.362487 0.000000 
0.427556 -0.414002 0.000000 
0.464588 -0.451030 0.000000 
0.429420 -0.503071 0.000000 
0.458977 -0.540146 0.000000 
0.026061 -0.411796 0.000000 
0.028809 -0.306090 0.000000 
0.054870 -0.351973 0.000000 
0.106992 -0.343741 0.000000 
0.029377 -0.204032 0.000000 
0.058186 -0.244210 0.000000 
0.114311 -0.228544 0.000000 
0.137056 -0.282191 0.000000 
0.186430 -0.279665 0.000000 
0.029568 -0.102978 0.000000 
0.058945 -0.141098 0.000000 
0.116563 -0.121453 0.000000 
0.143120 -0.168721 0.000000 
0.196633 -0.160012 0.000000 
0.217198 -0.217309 0.000000 
0.265318 -0.216509 0.000000 
0.029759 -0.001924 0.000000 
0.059328 -0.038990 0.000000 
0.117890 -0.016284 0.000000 
0.145749 -0.060627 0.000000 
0.201664 -0.047153 0.000000 
0.225992 -0.099270 0.000000 
0.278030 -0.093404 0.000000 
0.296791 -0.153346 0.000000 
0.344206 -0.153354 0.000000 
VECTORS X_EC float 
0.338794 0.059247 0.000000 
-0.609100 -0.859501 0.000000 
0.713312 -0.748361 0.000000 
0.374519 0.632210 0.000000 
0.423588 0.275479 0.000000 
-0.218274 0.309583 0.000000 
-0.513962 -0.414656 0.000000 
0.756418 -0.203170 0.000000 
0.381900 -0.745562 0.000000 
-0.550868 -0.577124 0.000000 
0.823577 -0.566328 0.000000 
0.556234 0.660168 0.000000 
-0.139443 0.777736 0.000000 
-0.484677 0.139612 0.000000 
0.766286 0.404827 0.000000 
0.384386 -0.109793 0.000000 
0.474677 0.570273 0.000000 
-0.141715 0.570177 0.000000 
-0.385608 -0.239052 0.000000 
0.937896 -0.159856 0.000000 
0.621631 -0.863436 0.000000 
-0.105264 -0.681537 0.000000 
-0.467428 0.719837 0.000000 
0.771260 -0.973635 0.000000 
0.386873 0.525976 0.000000 
0.761262 0.609381 0.000000 
0.108942 0.890758 0.000000 
-0.397202 0.409919 0.000000 
-0.142083 -0.251356 0.000000 
-0.595936 -0.810131 0.000000 
0.978194 0.690003 0.000000 
-0.660903 -0.001622 0.000000 
0.724964 -0.462142 0.000000 
0.899809 0.895609 0.000000 
0.685384 -0.509079 0.000000 
0.287229 0.989763 0.000000 
0.702895 0.290434 0.000000 
0.180633 -0.201085 0.000000 
0.445811 -0.879244 0.000000 
-0.220880 0.677970 0.000000 
-0.071546 0.047044 0.000000 
-0.033296 -0.208027 0.000000 
-0.417537 -0.708536 0.000000 
0.039645 0.588901 0.000000 
-0.441768 0.089030 0.000000 
-0.109248 -0.606421 0.000000 
-0.699407 0.916824 0.000000 
-0.474522 0.249544 0.000000 
0.820030 -0.177449 0.000000 
0.957100 -0.801521 0.000000 
0.610485 -0.704612 0.000000 
-0.761092 0.565007 0.000000 
-0.714655 -0.145730 0.000000 
-0.057734 -0.350897 0.000000 
-0.178789 -0.196989 0.000000 
-0.067979 -0.854415 0.000000 
0.677748 -0.992618 0.000000 
0.641556 0.221637 0.000000 
-0.765897 -0.036842 0.000000 
0.393446 -0.968979 0.000000 
0.522510 0.395291 0.000000 
-0.691820 0.296746 0.000000 
-0.647393 -0.433736 0.000000 
0.028512 -0.641263 0.000000 
-0.053800 0.541377 0.000000 
0.514316 0.269246 0.000000 
0.965681 0.259030 0.000000 
-0.897068 -0.364999 0.000000 
-0.083078 -0.431852 0.000000 
-0.006893 0.865623 0.000000 
0.724017 0.701990 0.000000 
0.714996 -0.074413 0.000000 
-0.642413 -0.307871 0.000000 
-0.760780 0.853149 0.000000 
-0.205471 0.575334 0.000000 
0.000000 -0.399311 0.000000 
-0.564049 0.902502 0.000000 
0.000000 0.497066 0.000000 
0.564049 0.902502 0.000000 
0.866949 0.147158 0.000000 
-0.569003 -0.172774 0.000000 
0.000000 0.346515 0.000000 
0.569003 -0.172774 0.000000 
-0.866949 0.147158 0.000000 
0.299194 -0.622592 0.000000 
0.858290 -0.914176 0.000000 
-0.577662 -0.337730 0.000000 
0.000000 -0.757109 0.000000 
0.577662 -0.337730 0.000000 
-0.858290 -0.914176 0.000000 
-0.299194 -0.622592 0.000000 
-0.268560 0.607658 0.000000 
0.286830 0.330016 0.000000 
0.844677 0.949214 0.000000 
-0.578910 0.573052 0.000000 
0.000000 -0.935544 0.000000 
0.578910 0.573052 0.000000 
-0.844677 0.949214 0.000000 
-0.286830 0.330016 0.000000 
0.268560 0.607658 0.000000 
-0.610485 -0.704612 0.000000 
0.057734 -0.350897 0.000000 
0.714655 -0.145730 0.000000 
0.761092 0.565007 0.000000 
0.765897 -0.036842 0.000000 
-0.641556 0.221637 0.000000 
-0.677748 -0.992618 0.000000 
0.067979 -0.854415 0.000000 
0.178789 -0.196989 0.000000 
-0.514316 0.269246 0.000000 
0.053800 0.541377 0.000000 
-0.028512 -0.641263 0.000000 
0.647393 -0.433736 0.000000 
0.691820 0.296746 0.000000 
-0.522510 0.395291 0.000000 
-0.393446 -0.968979 0.000000 
0.205471 0.575334 0.000000 
0.760780 0.853149 0.000000 
0.642413 -0.307871 0.000000 
-0.714996 -0.074413 0.000000 
-0.724017 0.701990 0.000000 
0.006894 0.865623 0.000000 
0.083078 -0.431852 0.000000 
0.897068 -0.364999 0.000000 
-0.965681 0.259030 0.000000 
-0.761262 0.609381 0.000000 
0.142083 -0.251356 0.000000 
0.397202 0.409919 0.000000 
-0.108942 0.890758 0.000000 
-0.899809 0.895609 0.000000 
-0.724964 -0.462142 0.000000 
0.660903 -0.001622 0.000000 
-0.978194 0.690003 0.000000 
0.595936 -0.810131 0.000000 
0.071546 0.047044 0.000000 
0.220880 0.677970 0.000000 
-0.445811 -0.879244 0.000000 
-0.180633 -0.201085 0.000000 
-0.702895 0.290434 0.000000 
-0.287229 0.989763 0.000000 
-0.685384 -0.509079 0.000000 
-0.957100 -0.801521 0.000000 
-0.820030 -0.177449 0.000000 
0.474522 0.249544 0.000000 
0.699407 0.916824 0.000000 
0.109248 -0.606421 0.000000 
0.441768 0.089030 0.000000 
-0.039645 0.588901 0.000000 
0.417537 -0.708536 0.000000 
0.033296 -0.208027 0.000000 
-0.338794 0.059247 0.000000 
-0.374519 0.632210 0.000000 
-0.713312 -0.748361 0.000000 
0.609100 -0.859501 0.000000 
-0.381900 -0.745562 0.000000 
-0.756418 -0.203170 0.000000 
0.513962 -0.414656 0.000000 
0.218274 0.309583 0.000000 
-0.423588 0.275479 0.000000 
-0.384386 -0.109793 0.000000 
-0.766286 0.404827 0.000000 
0.484677 0.139612 0.000000 
0.139443 0.777736 0.000000 
-0.556234 0.660168 0.000000 
-0.823577 -0.566328 0.000000 
0.550868 -0.577124 0.000000 
-0.386873 0.525976 0.000000 
-0.771260 -0.973635 0.000000 
0.467428 0.719837 0.000000 
0.105264 -0.681537 0.000000 
-0.621631 -0.863436 0.000000 
-0.937896 -0.159856 0.000000 
0.385608 -0.239052 0.000000 
0.141715 0.570177 0.000000 
-0.474677 0.570273 0.000000 
CELL_DATA 175 
SCALARS MASS float 
LOOKUP_TABLE default 
0.078183 
0.086427 
0.094672 
0.086427 
0.088131 
0.092111 
0.085854 
0.092111 
0.088131 
0.088705 
0.091000 
0.086983 
0.091556 
0.086983 
0.091000 
0.088705 
0.089278 
0.091574 
0.089278 
0.092722 
0.089278 
0.092722 
0.089278 
0.091574 
0.089278 
0.078183 
0.086427 
0.094672 
0.086427 
0.088131 
0.092111 
0.085854 
0.092111 
0.088131 
0.088705 
0.091000 
0.086983 
0.091556 
0.086983 
0.091000 
0.088705 
0.089278 
0.091574 
0.089278 
0.092722 
0.089278 
0.092722 
0.089278 
0.091574 
0.089278 
0.078183 
0.086427 
0.094672 
0.086427 
0.088131 
0.092111 
0.085854 
0.092111 
0.088131 
0.088705 
0.091000 
0.086983 
0.091556 
0.086983 
0.091000 
0.088705 
0.089278 
0.091574 
0.089278 
0.092722 
0.089278 
0.092722 
0.089278 
0.091574 
0.089278 
0.078183 
0.086427 
0.094672 
0.086427 
0.088131 
0.092111 
0.085854 
0.092111 
0.088131 
0.088705 
0.091000 
0.086983 
0.091556 
0.086983 
0.091000 
0.088705 
0.089278 
0.091574 
0.089278 
0.092722 
0.089278 
0.092722 
0.089278 
0.091574 
0.089278 
0.078183 
0.086427 
0.094672 
0.086427 
0.088131 
0.092111 
0.085854 
0.092111 
0.088131 
0.088705 
0.091000 
0.086983 
0.091556 
0.086983 
0.091000 
0.088705 
0.089278 
0.091574 
0.089278 
0.092722 
0.089278 
0.092722 
0.089278 
0.091574 
0.089278 
0.078183 
0.086427 
0.094672 
0.086427 
0.088131 
0.092111 
0.085854 
0.092111 
0.088131 
0.088705 
0.091000 
0.086983 
0.091556 
0.086983 
0.091000 
0.088705 
0.089278 
0.091574 
0.089278 
0.092722 
0.089278 
0.092722 
0.089278 
0.091574 
0.089278 
0.078183 
0.086427 
0.094672 
0.086427 
0.088131 
0.092111 
0.085854 
0.092111 
0.088131 
0.088705 
0.091000 
0.086983 
0.091556 
0.086983 
0.091000 
0.088705 
0.089278 
0.091574 
0.089278 
0.092722 
0.089278 
0.092722 
0.089278 
0.091574 
0.089278 
SCALARS MASS float 
LOOKUP_TABLE default 
0.078183 
0.086427 
0.094672 
0.086427 
0.088131 
0.092111 
0.085854 
0.092111 
0.088131 
0.088705 
0.091000 
0.086983 
0.091556 
0.086983 
0.091000 
0.088705 
0.089278 
0.091574 
0.089278 
0.092722 
0.089278 
0.092722 
0.089278 
0.091574 
0.089278 
0.078183 
0.086427 
0.094672 
0.086427 
0.088131 
0.092111 
0.085854 
0.092111 
0.088131 
0.088705 
0.091000 
0.086983 
0.091556 
0.086983 
0.091000 
0.088705 
0.089278 
0.091574 
0.089278 
0.092722 
0.089278 
0.092722 
0.089278 
0.091574 
0.089278 
0.078183 
0.086427 
0.094672 
0.086427 
0.088131 
0.092111 
0.085854 
0.092111 
0.088131 
0.088705 
0.091000 
0.086983 
0.091556 
0.086983 
0.091000 
0.088705 
0.089278 
0.091574 
0.089278 
0.092722 
0.089278 
0.092722 
0.089278 
0.091574 
0.089278 
0.078183 
0.086427 
0.094672 
0.086427 
0.088131 
0.092111 
0.085854 
0.092111 
0.088131 
0.088705 
0.091000 
0.086983 
0.091556 
0.086983 
0.091000 
0.088705 
0.089278 
0.091574 
0.089278 
0.092722 
0.089278 
0.092722 
0.089278 
0.091574 
0.089278 
0.078183 
0.086427 
0.094672 
0.086427 
0.088131 
0.092111 
0.085854 
0.092111 
0.088131 
0.088705 
0.091000 
0.086983 
0.091556 
0.086983 
0.091000 
0.088705 
0.089278 
0.091574 
0.089278 
0.092722 
0.089278 
0.092722 
0.089278 
0.091574 
0.089278 
0.078183 
0.086427 
0.094672 
0.086427 
0.088131 
0.092111 
0.085854 
0.092111 
0.088131 
0.088705 
0.091000 
0.086983 
0.091556 
0.086983 
0.091000 
0.088705 
0.089278 
0.091574 
0.089278 
0.092722 
0.089278 
0.092722 
0.089278 
0.091574 
0.089278 
0.078183 
0.086427 
0.094672 
0.086427 
0.088131 
0.092111 
0.085854 
0.092111 
0.088131 
0.088705 
0.091000 
0.086983 
0.091556 
0.086983 
0.091000 
0.088705 
0.089278 
0.091574 
0.089278 
0.092722 
0.089278 
0.092722 
0.089278 
0.091574 
0.089278 
SCALARS DENSITY float 
LOOKUP_TABLE default 
20.000000 
20.000000 
20.000000 
20.000000 
20.000000 
20.000000 
20.000000 
20.000000 
20.000000 
20.000000 
20.000000 
20.000000 
20.000000 
20.000000 
20.000000 
20.000000 
20.000000 
20.000000 
20.000000 
20.000000 
20.000000 
20.000000 
20.000000 
20.000000 
20.000000 
20.000000 
20.000000 
20.000000 
20.000000 
20.000000 
20.000000 
20.000000 
20.000000 
20.000000 
20.000000 
20.000000 
20.000000 
20.000000 
20.000000 
20.000000 
20.000000 
20.000000 
20.000000 
20.000000 
20.000000 
20.000000 
20.000000 
20.000000 
20.000000 
20.000000 
20.000000 
20.000000 
20.000000 
20.000000 
20.000000 
20.000000 
20.000000 
20.000000 
20.000000 
20.000000 
20.000000 
20.000000 
20.000000 
20.000000 
20.000000 
20.000000 
20.000000 
20.000000 
20.000000 
20.000000 
20.000000 
20.000000 
20.000000 
20.000000 
20.000000 
20.000000 
20.000000 
20.000000 
20.000000 
20.000000 
20.000000 
20.000000 
20.000000 
20.000000 
20.000000 
20.000000 
20.000000 
20.000000 
20.000000 
20.000000 
20.000000 
20.000000 
20.000000 
20.000000 
20.000000 
20.000000 
20.000000 
20.000000 
20.000000 
20.000000 
20.000000 
20.000000 
20.000000 
20.000000 
20.000000 
20.000000 
20.000000 
20.000000 
20.000000 
20.000000 
20.000000 
20.000000 
20.000000 
20.000000 
20.000000 
20.000000 
20.000000 
20.000000 
20.000000 
20.000000 
20.000000 
20.000000 
20.000000 
20.000000 
20.000000 
20.000000 
20.000000 
20.000000 
20.000000 
20.000000 
20.000000 
20.000000 
20.000000 
20.000000 
20.000000 
20.000000 
20.000000 
20.000000 
20.000000 
20.000000 
20.000000 
20.000000 
20.000000 
20.000000 
20.000000 
20.000000 
20.000000 
20.000000 
20.000000 
20.000000 
20.000000 
20.000000 
20.000000 
20.000000 
20.000000 
20.000000 
20.000000 
20.000000 
20.000000 
20.000000 
20.000000 
20.000000 
20.000000 
20.000000 
20.000000 
20.000000 
20.000000 
20.000000 
20.000000 
20.000000 
20.000000 
20.000000 
20.000000 
20.000000 
20.000000 
SCALARS ELEM_i float 
LOOKUP_TABLE default 
179 
206 
179 
180 
207 
207 
207 
180 
180 
234 
207 
208 
208 
208 
181 
181 
235 
235 
235 
208 
208 
208 
209 
181 
182 
179 
206 
206 
206 
232 
206 
233 
206 
207 
232 
233 
233 
233 
233 
234 
234 
259 
259 
260 
260 
260 
261 
261 
234 
234 
178 
205 
205 
205 
204 
204 
204 
205 
232 
203 
204 
231 
231 
231 
232 
232 
203 
230 
230 
231 
231 
231 
258 
259 
259 
178 
178 
178 
178 
150 
177 
177 
177 
204 
149 
149 
176 
176 
176 
203 
203 
149 
149 
149 
176 
175 
176 
203 
203 
203 
178 
151 
151 
151 
124 
151 
150 
150 
150 
124 
124 
123 
123 
123 
150 
149 
97 
97 
96 
123 
123 
123 
122 
122 
149 
179 
152 
152 
152 
153 
152 
125 
152 
124 
126 
126 
125 
125 
125 
125 
124 
126 
126 
99 
99 
98 
98 
98 
97 
97 
179 
180 
179 
152 
180 
180 
153 
153 
153 
181 
181 
154 
154 
154 
153 
126 
182 
181 
155 
154 
154 
154 
127 
127 
127 
VECTORS VELOCITY float 
-0.000000 -3.023050 0.000000 
0.000000 -3.023050 0.000000 
0.000000 -3.023050 0.000000 
0.000000 -3.023050 0.000000 
0.000000 -3.023050 0.000000 
0.000000 -3.023050 0.000000 
0.000000 -3.023050 0.000000 
-0.000000 -3.023050 0.000000 
-0.000000 -3.023050 0.000000 
0.000000 -3.023050 0.000000 
0.000000 -3.023050 0.000000 
-0.000000 -3.023050 0.000000 
-0.000000 -3.023050 0.000000 
-0.000000 -3.023050 0.000000 
0.000000 -3.023050 0.000000 
0.000000 -3.023050 0.000000 
0.000000 -3.023050 0.000000 
0.000000 -3.023050 0.000000 
0.000000 -3.023050 0.000000 
0.000000 -3.023050 0.000000 
0.000000 -3.023050 0.000000 
-0.000000 -3.023050 0.000000 
-0.000000 -3.023050 0.000000 
-0.000000 -3.023050 0.000000 
-0.000000 -3.023050 0.000000 
-0.000000 -3.023050 0.000000 
-0.000000 -3.023050 0.000000 
-0.000000 -3.023050 0.000000 
0.000000 -3.023050 0.000000 
0.000000 -3.023050 0.000000 
-0.000000 -3.023050 0.000000 
-0.000000 -3.023050 0.000000 
-0.000000 -3.023050 0.000000 
0.000000 -3.023050 0.000000 
-0.000000 -3.023050 0.000000 
-0.000000 -3.023050 0.000000 
0.000000 -3.023050 0.000000 
0.000000 -3.023050 0.000000 
0.000000 -3.023050 0.000000 
0.000000 -3.023050 0.000000 
0.000000 -3.023050 0.000000 
-0.000000 -3.023050 0.000000 
-0.000000 -3.023050 0.000000 
-0.000000 -3.023050 0.000000 
0.000000 -3.023050 0.000000 
0.000000 -3.023050 0.000000 
0.000000 -3.023050 0.000000 
0.000000 -3.023050 0.000000 
0.000000 -3.023050 0.000000 
0.000000 -3.023050 0.000000 
-0.000000 -3.023050 0.000000 
0.000000 -3.023050 0.000000 
0.000000 -3.023050 0.000000 
-0.000000 -3.023050 0.000000 
-0.000000 -3.023050 0.000000 
-0.000000 -3.023050 0.000000 
-0.000000 -3.023050 0.000000 
-0.000000 -3.023050 0.000000 
-0.000000 -3.023050 0.000000 
0.000000 -3.023050 0.000000 
0.000000 -3.023050 0.000000 
0.000000 -3.023050 0.000000 
-0.000000 -3.023050 0.000000 
0.000000 -3.023050 0.000000 
-0.000000 -3.023050 0.000000 
-0.000000 -3.023050 0.000000 
0.000000 -3.023050 0.000000 
0.000000 -3.023050 0.000000 
0.000000 -3.023050 0.000000 
0.000000 -3.023050 0.000000 
-0.000000 -3.023050 0.000000 
0.000000 -3.023050 0.000000 
-0.000000 -3.023050 0.000000 
0.000000 -3.023050 0.000000 
0.000000 -3.023050 0.000000 
-0.000000 -3.023050 0.000000 
0.000000 -3.023050 0.000000 
0.000000 -3.023050 0.000000 
0.000000 -3.023050 0.000000 
0.000000 -3.023050 0.000000 
0.000000 -3.023050 0.000000 
0.000000 -3.023050 0.000000 
0.000000 -3.023050 0.000000 
-0.000000 -3.023050 0.000000 
-0.000000 -3.023050 0.000000 
0.000000 -3.023050 0.000000 
0.000000 -3.023050 0.000000 
-0.000000 -3.023050 0.000000 
0.000000 -3.023050 0.000000 
-0.000000 -3.023050 0.000000 
0.000000 -3.023050 0.000000 
-0.000000 -3.023050 0.000000 
-0.000000 -3.023050 0.000000 
-0.000000 -3.023050 0.000000 
-0.000000 -3.023050 0.000000 
-0.000000 -3.023050 0.000000 
-0.000000 -3.023050 0.000000 
-0.000000 -3.023050 0.000000 
0.000000 -3.023050 0.000000 
0.000000 -3.023050 0.000000 
-0.000000 -3.023050 0.000000 
0.000000 -3.023050 0.000000 
-0.000000 -3.023050 0.000000 
0.000000 -3.023050 0.000000 
0.000000 -3.023050 0.000000 
0.000000 -3.023050 0.000000 
0.000000 -3.023050 0.000000 
0.000000 -3.023050 0.000000 
0.000000 -3.023050 0.000000 
-0.000000 -3.023050 0.000000 
-0.000000 -3.023050 0.000000 
-0.000000 -3.023050 0.000000 
-0.000000 -3.023050 0.000000 
-0.000000 -3.023050 0.000000 
-0.000000 -3.023050 0.000000 
-0.000000 -3.023050 0.000000 
0.000000 -3.023050 0.000000 
0.000000 -3.023050 0.000000 
0.000000 -3.023050 0.000000 
-0.000000 -3.023050 0.000000 
0.000000 -3.023050 0.000000 
-0.000000 -3.023050 0.000000 
-0.000000 -3.023050 0.000000 
-0.000000 -3.023050 0.000000 
-0.000000 -3.023050 0.000000 
-0.000000 -3.023050 0.000000 
-0.000000 -3.023050 0.000000 
-0.000000 -3.023050 0.000000 
0.000000 -3.023050 0.000000 
-0.000000 -3.023050 0.000000 
-0.000000 -3.023050 0.000000 
0.000000 -3.023050 0.000000 
0.000000 -3.023050 0.000000 
0.000000 -3.023050 0.000000 
-0.000000 -3.023050 0.000000 
-0.000000 -3.023050 0.000000 
-0.000000 -3.023050 0.000000 
0.000000 -3.023050 0.000000 
0.000000 -3.023050 0.000000 
0.000000 -3.023050 0.000000 
-0.000000 -3.023050 0.000000 
-0.000000 -3.023050 0.000000 
-0.000000 -3.023050 0.000000 
-0.000000 -3.023050 0.000000 
-0.000000 -3.023050 0.000000 
0.000000 -3.023050 0.000000 
0.000000 -3.023050 0.000000 
-0.000000 -3.023050 0.000000 
-0.000000 -3.023050 0.000000 
-0.000000 -3.023050 0.000000 
-0.000000 -3.023050 0.000000 
-0.000000 -3.023050 0.000000 
-0.000000 -3.023050 0.000000 
-0.000000 -3.023050 0.000000 
-0.000000 -3.023050 0.000000 
-0.000000 -3.023050 0.000000 
0.000000 -3.023050 0.000000 
-0.000000 -3.023050 0.000000 
0.000000 -3.023050 0.000000 
0.000000 -3.023050 0.000000 
0.000000 -3.023050 0.000000 
0.000000 -3.023050 0.000000 
0.000000 -3.023050 0.000000 
-0.000000 -3.023050 0.000000 
0.000000 -3.023050 0.000000 
0.000000 -3.023050 0.000000 
-0.000000 -3.023050 0.000000 
0.000000 -3.023050 0.000000 
-0.000000 -3.023050 0.000000 
0.000000 -3.023050 0.000000 
0.000000 -3.023050 0.000000 
-0.000000 -3.023050 0.000000 
-0.000000 -3.023050 0.000000 
-0.000000 -3.023050 0.000000 
-0.000000 -3.023050 0.000000 
TENSORS STRESS float 
0.000000 -0.000000 0.000000 
0.000000 0.000000 0.000000 
0.000000 0.000000 0.000000 

0.000000 0.000000 0.000000 
0.000000 0.000000 0.000000 
0.000000 0.000000 0.000000 

-0.000000 0.000000 0.000000 
0.000000 -0.000000 0.000000 
0.000000 0.000000 0.000000 

-0.000000 0.000000 0.000000 
0.000000 -0.000000 0.000000 
0.000000 0.000000 0.000000 

-0.000000 0.000000 0.000000 
0.000000 0.000000 0.000000 
0.000000 0.000000 0.000000 

0.000000 0.000000 0.000000 
0.000000 0.000000 0.000000 
0.000000 0.000000 0.000000 

-0.000000 0.000000 0.000000 
0.000000 -0.000000 0.000000 
0.000000 0.000000 0.000000 

-0.000000 -0.000000 0.000000 
0.000000 0.000000 0.000000 
0.000000 0.000000 0.000000 

-0.000000 -0.000000 0.000000 
0.000000 -0.000000 0.000000 
0.000000 0.000000 0.000000 

0.000000 0.000000 0.000000 
0.000000 0.000000 0.000000 
0.000000 0.000000 0.000000 

-0.000000 -0.000000 0.000000 
0.000000 -0.000000 0.000000 
0.000000 0.000000 0.000000 

-0.000000 -0.000000 0.000000 
0.000000 -0.000000 0.000000 
0.000000 0.000000 0.000000 

-0.000000 -0.000000 0.000000 
0.000000 -0.000000 0.000000 
0.000000 0.000000 0.000000 

0.000000 -0.000000 0.000000 
0.000000 0.000000 0.000000 
0.000000 0.000000 0.000000 

0.000000 -0.000000 0.000000 
0.000000 0.000000 0.000000 
0.000000 0.000000 0.000000 

0.000000 0.000000 0.000000 
0.000000 0.000000 0.000000 
0.000000 0.000000 0.000000 

0.000000 -0.000000 0.000000 
0.000000 0.000000 0.000000 
0.000000 0.000000 0.000000 

0.000000 -0.000000 0.000000 
0.000000 0.000000 0.000000 
0.000000 0.000000 0.000000 

-0.000000 -0.000000 0.000000 
0.000000 -0.000000 0.000000 
0.000000 0.000000 0.000000 

-0.000000 -0.000000 0.000000 
0.000000 0.000000 0.000000 
0.000000 0.000000 0.000000 

0.000000 -0.000000 0.000000 
0.000000 -0.000000 0.000000 
0.000000 0.000000 0.000000 

0.000000 -0.000000 0.000000 
0.000000 0.000000 0.000000 
0.000000 0.000000 0.000000 

0.000000 -0.000000 0.000000 
0.000000 0.000000 0.000000 
0.000000 0.000000 0.000000 

-0.000000 0.000000 0.000000 
0.000000 -0.000000 0.000000 
0.000000 0.000000 0.000000 

0.000000 -0.000000 0.000000 
0.000000 0.000000 0.000000 
0.000000 0.000000 0.000000 

0.000000 0.000000 0.000000 
0.000000 0.000000 0.000000 
0.000000 0.000000 0.000000 

0.000000 0.000000 0.000000 
0.000000 0.000000 0.000000 
0.000000 0.000000 0.000000 

0.000000 0.000000 0.000000 
0.000000 0.000000 0.000000 
0.000000 0.000000 0.000000 

0.000000 0.000000 0.000000 
0.000000 -0.000000 0.000000 
0.000000 0.000000 0.000000 

-0.000000 -0.000000 0.000000 
0.000000 -0.000000 0.000000 
0.000000 0.000000 0.000000 

0.000000 0.000000 0.000000 
0.000000 0.000000 0.000000 
0.000000 0.000000 0.000000 

-0.000000 -0.000000 0.000000 
0.000000 -0.000000 0.000000 
0.000000 0.000000 0.000000 

0.000000 0.000000 0.000000 
0.000000 0.000000 0.000000 
0.000000 0.000000 0.000000 

0.000000 0.000000 0.000000 
0.000000 0.000000 0.000000 
0.000000 0.000000 0.000000 

-0.000000 -0.000000 0.000000 
0.000000 -0.000000 0.000000 
0.000000 0.000000 0.000000 

-0.000000 0.000000 0.000000 
0.000000 -0.000000 0.000000 
0.000000 0.000000 0.000000 

0.000000 0.000000 0.000000 
0.000000 -0.000000 0.000000 
0.000000 0.000000 0.000000 

0.000000 0.000000 0.000000 
0.000000 0.000000 0.000000 
0.000000 0.000000 0.000000 

0.000000 -0.000000 0.000000 
0.000000 0.000000 0.000000 
0.000000 0.000000 0.000000 

0.000000 0.000000 0.000000 
0.000000 0.000000 0.000000 
0.000000 0.000000 0.000000 

0.000000 -0.000000 0.000000 
0.000000 0.000000 0.000000 
0.000000 0.000000 0.000000 

-0.000000 0.000000 0.000000 
0.000000 -0.000000 0.000000 
0.000000 0.000000 0.000000 

0.000000 0.000000 0.000000 
0.000000 0.000000 0.000000 
0.000000 0.000000 0.000000 

-0.000000 -0.000000 0.000000 
0.000000 0.000000 0.000000 
0.000000 0.000000 0.000000 

0.000000 0.000000 0.000000 
0.000000 0.000000 0.000000 
0.000000 0.000000 0.000000 

-0.000000 -0.000000 0.000000 
0.000000 -0.000000 0.000000 
0.000000 0.000000 0.000000 

-0.000000 -0.000000 0.000000 
0.000000 -0.000000 0.000000 
0.000000 0.000000 0.000000 

0.000000 0.000000 0.000000 
0.000000 -0.000000 0.000000 
0.000000 0.000000 0.000000 

0.000000 0.000000 0.000000 
0.000000 0.000000 0.000000 
0.000000 0.000000 0.000000 

-0.000000 0.000000 0.000000 
0.000000 -0.000000 0.000000 
0.000000 0.000000 0.000000 

0.000000 -0.000000 0.000000 
0.000000 0.000000 0.000000 
0.000000 0.000000 0.000000 

0.000000 -0.000000 0.000000 
0.000000 0.000000 0.000000 
0.000000 0.000000 0.000000 

0.000000 -0.000000 0.000000 
0.000000 -0.000000 0.000000 
0.000000 0.000000 0.000000 

0.000000 0.000000 0.000000 
0.000000 -0.000000 0.000000 
0.000000 0.000000 0.000000 

-0.000000 0.000000 0.000000 
0.000000 -0.000000 0.000000 
0.000000 0.000000 0.000000 

0.000000 -0.000000 0.000000 
0.000000 -0.000000 0.000000 
0.000000 0.000000 0.000000 

0.000000 -0.000000 0.000000 
0.000000 0.000000 0.000000 
0.000000 0.000000 0.000000 

0.000000 -0.000000 0.000000 
0.000000 -0.000000 0.000000 
0.000000 0.000000 0.000000 

-0.000000 0.000000 0.000000 
0.000000 -0.000000 0.000000 
0.000000 0.000000 0.000000 

-0.000000 0.000000 0.000000 
0.000000 0.000000 0.000000 
0.000000 0.000000 0.000000 

-0.000000 -0.000000 0.000000 
0.000000 0.000000 0.000000 
0.000000 0.000000 0.000000 

-0.000000 -0.000000 0.000000 
0.000000 0.000000 0.000000 
0.000000 0.000000 0.000000 

-0.000000 -0.000000 0.000000 
0.000000 0.000000 0.000000 
0.000000 0.000000 0.000000 

-0.000000 0.000000 0.000000 
0.000000 0.000000 0.000000 
0.000000 0.000000 0.000000 

-0.000000 0.000000 0.000000 
0.000000 -0.000000 0.000000 
0.000000 0.000000 0.000000 

-0.000000 -0.000000 0.000000 
0.000000 0.000000 0.000000 
0.000000 0.000000 0.000000 

-0.000000 0.000000 0.000000 
0.000000 0.000000 0.000000 
0.000000 0.000000 0.000000 

-0.000000 -0.000000 0.000000 
0.000000 0.000000 0.000000 
0.000000 0.000000 0.000000 

-0.000000 -0.000000 0.000000 
0.000000 -0.000000 0.000000 
0.000000 0.000000 0.000000 

-0.000000 -0.000000 0.000000 
0.000000 -0.000000 0.000000 
0.000000 0.000000 0.000000 

-0.000000 -0.000000 0.000000 
0.000000 -0.000000 0.000000 
0.000000 0.000000 0.000000 

-0.000000 -0.000000 0.000000 
0.000000 -0.000000 0.000000 
0.000000 0.000000 0.000000 

-0.000000 0.000000 0.000000 
0.000000 0.000000 0.000000 
0.000000 0.000000 0.000000 

-0.000000 0.000000 0.000000 
0.000000 -0.000000 0.000000 
0.000000 0.000000 0.000000 

-0.000000 0.000000 0.000000 
0.000000 0.000000 0.000000 
0.000000 0.000000 0.000000 

-0.000000 0.000000 0.000000 
0.000000 -0.000000 0.000000 
0.000000 0.000000 0.000000 

-0.000000 -0.000000 0.000000 
0.000000 0.000000 0.000000 
0.000000 0.000000 0.000000 

0.000000 0.000000 0.000000 
0.000000 0.000000 0.000000 
0.000000 0.000000 0.000000 

0.000000 -0.000000 0.000000 
0.000000 0.000000 0.000000 
0.000000 0.000000 0.000000 

0.000000 0.000000 0.000000 
0.000000 -0.000000 0.000000 
0.000000 0.000000 0.000000 

-0.000000 0.000000 0.000000 
0.000000 -0.000000 0.000000 
0.000000 0.000000 0.000000 

-0.000000 0.000000 0.000000 
0.000000 -0.000000 0.000000 
0.000000 0.000000 0.000000 

-0.000000 0.000000 0.000000 
0.000000 -0.000000 0.000000 
0.000000 0.000000 0.000000 

-0.000000 0.000000 0.000000 
0.000000 -0.000000 0.000000 
0.000000 0.000000 0.000000 

0.000000 0.000000 0.000000 
0.000000 0.000000 0.000000 
0.000000 0.000000 0.000000 

0.000000 0.000000 0.000000 
0.000000 0.000000 0.000000 
0.000000 0.000000 0.000000 

-0.000000 -0.000000 0.000000 
0.000000 -0.000000 0.000000 
0.000000 0.000000 0.000000 

-0.000000 -0.000000 0.000000 
0.000000 -0.000000 0.000000 
0.000000 0.000000 0.000000 

-0.000000 -0.000000 0.000000 
0.000000 -0.000000 0.000000 
0.000000 0.000000 0.000000 

-0.000000 0.000000 0.000000 
0.000000 -0.000000 0.000000 
0.000000 0.000000 0.000000 

-0.000000 -0.000000 0.000000 
0.000000 -0.000000 0.000000 
0.000000 0.000000 0.000000 

-0.000000 0.000000 0.000000 
0.000000 -0.000000 0.000000 
0.000000 0.000000 0.000000 

-0.000000 0.000000 0.000000 
0.000000 -0.000000 0.000000 
0.000000 0.000000 0.000000 

-0.000000 -0.000000 0.000000 
0.000000 0.000000 0.000000 
0.000000 0.000000 0.000000 

-0.000000 -0.000000 0.000000 
0.000000 -0.000000 0.000000 
0.000000 0.000000 0.000000 

0.000000 -0.000000 0.000000 
0.000000 0.000000 0.000000 
0.000000 0.000000 0.000000 

0.000000 -0.000000 0.000000 
0.000000 0.000000 0.000000 
0.000000 0.000000 0.000000 

-0.000000 -0.000000 0.000000 
0.000000 0.000000 0.000000 
0.000000 0.000000 0.000000 

-0.000000 -0.000000 0.000000 
0.000000 0.000000 0.000000 
0.000000 0.000000 0.000000 

-0.000000 0.000000 0.000000 
0.000000 -0.000000 0.000000 
0.000000 0.000000 0.000000 

-0.000000 -0.000000 0.000000 
0.000000 -0.000000 0.000000 
0.000000 0.000000 0.000000 

0.000000 -0.000000 0.000000 
0.000000 -0.000000 0.000000 
0.000000 0.000000 0.000000 

0.000000 -0.000000 0.000000 
0.000000 0.000000 0.000000 
0.000000 0.000000 0.000000 

0.000000 0.000000 0.000000 
0.000000 0.000000 0.000000 
0.000000 0.000000 0.000000 

0.000000 -0.000000 0.000000 
0.000000 -0.000000 0.000000 
0.000000 0.000000 0.000000 

0.000000 -0.000000 0.000000 
0.000000 -0.000000 0.000000 
0.000000 0.000000 0.000000 

0.000000 0.000000 0.000000 
0.000000 0.000000 0.000000 
0.000000 0.000000 0.000000 

0.000000 -0.000000 0.000000 
0.000000 0.000000 0.000000 
0.000000 0.000000 0.000000 

0.000000 -0.000000 0.000000 
0.000000 0.000000 0.000000 
0.000000 0.000000 0.000000 

-0.000000 -0.000000 0.000000 
0.000000 -0.000000 0.000000 
0.000000 0.000000 0.000000 

0.000000 -0.000000 0.000000 
0.000000 0.000000 0.000000 
0.000000 0.000000 0.000000 

0.000000 0.000000 0.000000 
0.000000 0.000000 0.000000 
0.000000 0.000000 0.000000 

0.000000 -0.000000 0.000000 
0.000000 0.000000 0.000000 
0.000000 0.000000 0.000000 

-0.000000 -0.000000 0.000000 
0.000000 -0.000000 0.000000 
0.000000 0.000000 0.000000 

0.000000 0.000000 0.000000 
0.000000 0.000000 0.000000 
0.000000 0.000000 0.000000 

0.000000 0.000000 0.000000 
0.000000 0.000000 0.000000 
0.000000 0.000000 0.000000 

-0.000000 -0.000000 0.000000 
0.000000 -0.000000 0.000000 
0.000000 0.000000 0.000000 

0.000000 0.000000 0.000000 
0.000000 0.000000 0.000000 
0.000000 0.000000 0.000000 

0.000000 0.000000 0.000000 
0.000000 -0.000000 0.000000 
0.000000 0.000000 0.000000 

-0.000000 -0.000000 0.000000 
0.000000 -0.000000 0.000000 
0.000000 0.000000 0.000000 

0.000000 0.000000 0.000000 
0.000000 0.000000 0.000000 
0.000000 0.000000 0.000000 

0.000000 -0.000000 0.000000 
0.000000 0.000000 0.000000 
0.000000 0.000000 0.000000 

0.000000 0.000000 0.000000 
0.000000 0.000000 0.000000 
0.000000 0.000000 0.000000 

-0.000000 0.000000 0.000000 
0.000000 -0.000000 0.000000 
0.000000 0.000000 0.000000 

-0.000000 0.000000 0.000000 
0.000000 -0.000000 0.000000 
0.000000 0.000000 0.000000 

-0.000000 0.000000 0.000000 
0.000000 -0.000000 0.000000 
0.000000 0.000000 0.000000 

-0.000000 0.000000 0.000000 
0.000000 -0.000000 0.000000 
0.000000 0.000000 0.000000 

0.000000 0.000000 0.000000 
0.000000 0.000000 0.000000 
0.000000 0.000000 0.000000 

0.000000 0.000000 0.000000 
0.000000 0.000000 0.000000 
0.000000 0.000000 0.000000 

-0.000000 -0.000000 0.000000 
0.000000 -0.000000 0.000000 
0.000000 0.000000 0.000000 

0.000000 -0.000000 0.000000 
0.000000 0.000000 0.000000 
0.000000 0.000000 0.000000 

-0.000000 -0.000000 0.000000 
0.000000 -0.000000 0.000000 
0.000000 0.000000 0.000000 

0.000000 0.000000 0.000000 
0.000000 0.000000 0.000000 
0.000000 0.000000 0.000000 

0.000000 0.000000 0.000000 
0.000000 0.000000 0.000000 
0.000000 0.000000 0.000000 

0.000000 -0.000000 0.000000 
0.000000 0.000000 0.000000 
0.000000 0.000000 0.000000 

0.000000 0.000000 0.000000 
0.000000 0.000000 0.000000 
0.000000 0.000000 0.000000 

0.000000 0.000000 0.000000 
0.000000 0.000000 0.000000 
0.000000 0.000000 0.000000 

0.000000 0.000000 0.000000 
0.000000 0.000000 0.000000 
0.000000 0.000000 0.000000 

-0.000000 0.000000 0.000000 
0.000000 0.000000 0.000000 
0.000000 0.000000 0.000000 

-0.000000 -0.000000 0.000000 
0.000000 -0.000000 0.000000 
0.000000 0.000000 0.000000 

0.000000 -0.000000 0.000000 
0.000000 0.000000 0.000000 
0.000000 0.000000 0.000000 

-0.000000 -0.000000 0.000000 
0.000000 -0.000000 0.000000 
0.000000 0.000000 0.000000 

-0.000000 -0.000000 0.000000 
0.000000 -0.000000 0.000000 
0.000000 0.000000 0.000000 

-0.000000 0.000000 0.000000 
0.000000 -0.000000 0.000000 
0.000000 0.000000 0.000000 

-0.000000 0.000000 0.000000 
0.000000 0.000000 0.000000 
0.000000 0.000000 0.000000 

-0.000000 0.000000 0.000000 
0.000000 0.000000 0.000000 
0.000000 0.000000 0.000000 

0.000000 0.000000 0.000000 
0.000000 0.000000 0.000000 
0.000000 0.000000 0.000000 

0.000000 0.000000 0.000000 
0.000000 0.000000 0.000000 
0.000000 0.000000 0.000000 

-0.000000 0.000000 0.000000 
0.000000 -0.000000 0.000000 
0.000000 0.000000 0.000000 

0.000000 0.000000 0.000000 
0.000000 0.000000 0.000000 
0.000000 0.000000 0.000000 

0.000000 -0.000000 0.000000 
0.000000 0.000000 0.000000 
0.000000 0.000000 0.000000 

0.000000 0.000000 0.000000 
0.000000 0.000000 0.000000 
0.000000 0.000000 0.000000 

0.000000 0.000000 0.000000 
0.000000 0.000000 0.000000 
0.000000 0.000000 0.000000 

-0.000000 -0.000000 0.000000 
0.000000 -0.000000 0.000000 
0.000000 0.000000 0.000000 

-0.000000 -0.000000 0.000000 
0.000000 -0.000000 0.000000 
0.000000 0.000000 0.000000 

-0.000000 -0.000000 0.000000 
0.000000 0.000000 0.000000 
0.000000 0.000000 0.000000 

0.000000 0.000000 0.000000 
0.000000 0.000000 0.000000 
0.000000 0.000000 0.000000 

-0.000000 -0.000000 0.000000 
0.000000 -0.000000 0.000000 
0.000000 0.000000 0.000000 

0.000000 0.000000 0.000000 
0.000000 0.000000 0.000000 
0.000000 0.000000 0.000000 

0.000000 0.000000 0.000000 
0.000000 -0.000000 0.000000 
0.000000 0.000000 0.000000 

0.000000 0.000000 0.000000 
0.000000 0.000000 0.000000 
0.000000 0.000000 0.000000 

-0.000000 -0.000000 0.000000 
0.000000 -0.000000 0.000000 
0.000000 0.000000 0.000000 

0.000000 0.000000 0.000000 
0.000000 0.000000 0.000000 
0.000000 0.000000 0.000000 

-0.000000 0.000000 0.000000 
0.000000 -0.000000 0.000000 
0.000000 0.000000 0.000000 

0.000000 -0.000000 0.000000 
0.000000 0.000000 0.000000 
0.000000 0.000000 0.000000 

-0.000000 -0.000000 0.000000 
0.000000 -0.000000 0.000000 
0.000000 0.000000 0.000000 

-0.000000 -0.000000 0.000000 
0.000000 -0.000000 0.000000 
0.000000 0.000000 0.000000 

0.000000 -0.000000 0.000000 
0.000000 0.000000 0.000000 
0.000000 0.000000 0.000000 

-0.000000 0.000000 0.000000 
0.000000 -0.000000 0.000000 
0.000000 0.000000 0.000000 

-0.000000 0.000000 0.000000 
0.000000 -0.000000 0.000000 
0.000000 0.000000 0.000000 

-0.000000 -0.000000 0.000000 
0.000000 0.000000 0.000000 
0.000000 0.000000 0.000000 

-0.000000 0.000000 0.000000 
0.000000 -0.000000 0.000000 
0.000000 0.000000 0.000000 

-0.000000 0.000000 0.000000 
0.000000 0.000000 0.000000 
0.000000 0.000000 0.000000 

-0.000000 -0.000000 0.000000 
0.000000 -0.000000 0.000000 
0.000000 0.000000 0.000000 

-0.000000 0.000000 0.000000 
0.000000 -0.000000 0.000000 
0.000000 0.000000 0.000000 

TENSORS STRAIN float 
0.000000 -0.000000 0.000000 
0.000000 0.000000 0.000000 
0.000000 0.000000 0.000000 

-0.000000 0.000000 0.000000 
0.000000 0.000000 0.000000 
0.000000 0.000000 0.000000 

0.000000 0.000000 0.000000 
0.000000 -0.000000 0.000000 
0.000000 0.000000 0.000000 

0.000000 0.000000 0.000000 
0.000000 -0.000000 0.000000 
0.000000 0.000000 0.000000 

-0.000000 0.000000 0.000000 
0.000000 0.000000 0.000000 
0.000000 0.000000 0.000000 

-0.000000 0.000000 0.000000 
0.000000 0.000000 0.000000 
0.000000 0.000000 0.000000 

-0.000000 0.000000 0.000000 
0.000000 -0.000000 0.000000 
0.000000 0.000000 0.000000 

-0.000000 -0.000000 0.000000 
0.000000 0.000000 0.000000 
0.000000 0.000000 0.000000 

-0.000000 -0.000000 0.000000 
0.000000 0.000000 0.000000 
0.000000 0.000000 0.000000 

-0.000000 0.000000 0.000000 
0.000000 0.000000 0.000000 
0.000000 0.000000 0.000000 

-0.000000 -0.000000 0.000000 
0.000000 0.000000 0.000000 
0.000000 0.000000 0.000000 

-0.000000 -0.000000 0.000000 
0.000000 -0.000000 0.000000 
0.000000 0.000000 0.000000 

-0.000000 -0.000000 0.000000 
0.000000 0.000000 0.000000 
0.000000 0.000000 0.000000 

-0.000000 -0.000000 0.000000 
0.000000 0.000000 0.000000 
0.000000 0.000000 0.000000 

0.000000 -0.000000 0.000000 
0.000000 0.000000 0.000000 
0.000000 0.000000 0.000000 

0.000000 0.000000 0.000000 
0.000000 0.000000 0.000000 
0.000000 0.000000 0.000000 

-0.000000 -0.000000 0.000000 
0.000000 0.000000 0.000000 
0.000000 0.000000 0.000000 

-0.000000 -0.000000 0.000000 
0.000000 0.000000 0.000000 
0.000000 0.000000 0.000000 

0.000000 -0.000000 0.000000 
0.000000 -0.000000 0.000000 
0.000000 0.000000 0.000000 

-0.000000 -0.000000 0.000000 
0.000000 0.000000 0.000000 
0.000000 0.000000 0.000000 

0.000000 -0.000000 0.000000 
0.000000 -0.000000 0.000000 
0.000000 0.000000 0.000000 

0.000000 -0.000000 0.000000 
0.000000 -0.000000 0.000000 
0.000000 0.000000 0.000000 

0.000000 -0.000000 0.000000 
0.000000 0.000000 0.000000 
0.000000 0.000000 0.000000 

0.000000 0.000000 0.000000 
0.000000 -0.000000 0.000000 
0.000000 0.000000 0.000000 

0.000000 -0.000000 0.000000 
0.000000 0.000000 0.000000 
0.000000 0.000000 0.000000 

-0.000000 0.000000 0.000000 
0.000000 0.000000 0.000000 
0.000000 0.000000 0.000000 

0.000000 0.000000 0.000000 
0.000000 0.000000 0.000000 
0.000000 0.000000 0.000000 

0.000000 0.000000 0.000000 
0.000000 -0.000000 0.000000 
0.000000 0.000000 0.000000 

0.000000 0.000000 0.000000 
0.000000 -0.000000 0.000000 
0.000000 0.000000 0.000000 

-0.000000 -0.000000 0.000000 
0.000000 -0.000000 0.000000 
0.000000 0.000000 0.000000 

0.000000 0.000000 0.000000 
0.000000 -0.000000 0.000000 
0.000000 0.000000 0.000000 

0.000000 -0.000000 0.000000 
0.000000 -0.000000 0.000000 
0.000000 0.000000 0.000000 

-0.000000 0.000000 0.000000 
0.000000 0.000000 0.000000 
0.000000 0.000000 0.000000 

-0.000000 0.000000 0.000000 
0.000000 0.000000 0.000000 
0.000000 0.000000 0.000000 

-0.000000 -0.000000 0.000000 
0.000000 -0.000000 0.000000 
0.000000 0.000000 0.000000 

-0.000000 0.000000 0.000000 
0.000000 -0.000000 0.000000 
0.000000 0.000000 0.000000 

0.000000 0.000000 0.000000 
0.000000 -0.000000 0.000000 
0.000000 0.000000 0.000000 

0.000000 0.000000 0.000000 
0.000000 0.000000 0.000000 
0.000000 0.000000 0.000000 

0.000000 -0.000000 0.000000 
0.000000 0.000000 0.000000 
0.000000 0.000000 0.000000 

0.000000 0.000000 0.000000 
0.000000 0.000000 0.000000 
0.000000 0.000000 0.000000 

0.000000 -0.000000 0.000000 
0.000000 0.000000 0.000000 
0.000000 0.000000 0.000000 

-0.000000 0.000000 0.000000 
0.000000 -0.000000 0.000000 
0.000000 0.000000 0.000000 

-0.000000 0.000000 0.000000 
0.000000 0.000000 0.000000 
0.000000 0.000000 0.000000 

-0.000000 -0.000000 0.000000 
0.000000 0.000000 0.000000 
0.000000 0.000000 0.000000 

-0.000000 0.000000 0.000000 
0.000000 0.000000 0.000000 
0.000000 0.000000 0.000000 

-0.000000 -0.000000 0.000000 
0.000000 -0.000000 0.000000 
0.000000 0.000000 0.000000 

-0.000000 -0.000000 0.000000 
0.000000 0.000000 0.000000 
0.000000 0.000000 0.000000 

0.000000 0.000000 0.000000 
0.000000 -0.000000 0.000000 
0.000000 0.000000 0.000000 

0.000000 0.000000 0.000000 
0.000000 0.000000 0.000000 
0.000000 0.000000 0.000000 

-0.000000 0.000000 0.000000 
0.000000 -0.000000 0.000000 
0.000000 0.000000 0.000000 

-0.000000 -0.000000 0.000000 
0.000000 0.000000 0.000000 
0.000000 0.000000 0.000000 

0.000000 -0.000000 0.000000 
0.000000 -0.000000 0.000000 
0.000000 0.000000 0.000000 

0.000000 -0.000000 0.000000 
0.000000 -0.000000 0.000000 
0.000000 0.000000 0.000000 

0.000000 0.000000 0.000000 
0.000000 -0.000000 0.000000 
0.000000 0.000000 0.000000 

0.000000 0.000000 0.000000 
0.000000 -0.000000 0.000000 
0.000000 0.000000 0.000000 

0.000000 -0.000000 0.000000 
0.000000 -0.000000 0.000000 
0.000000 0.000000 0.000000 

0.000000 -0.000000 0.000000 
0.000000 0.000000 0.000000 
0.000000 0.000000 0.000000 

0.000000 -0.000000 0.000000 
0.000000 -0.000000 0.000000 
0.000000 0.000000 0.000000 

-0.000000 0.000000 0.000000 
0.000000 -0.000000 0.000000 
0.000000 0.000000 0.000000 

-0.000000 0.000000 0.000000 
0.000000 0.000000 0.000000 
0.000000 0.000000 0.000000 

-0.000000 -0.000000 0.000000 
0.000000 0.000000 0.000000 
0.000000 0.000000 0.000000 

-0.000000 -0.000000 0.000000 
0.000000 0.000000 0.000000 
0.000000 0.000000 0.000000 

-0.000000 -0.000000 0.000000 
0.000000 0.000000 0.000000 
0.000000 0.000000 0.000000 

-0.000000 0.000000 0.000000 
0.000000 0.000000 0.000000 
0.000000 0.000000 0.000000 

-0.000000 0.000000 0.000000 
0.000000 0.000000 0.000000 
0.000000 0.000000 0.000000 

-0.000000 -0.000000 0.000000 
0.000000 0.000000 0.000000 
0.000000 0.000000 0.000000 

-0.000000 0.000000 0.000000 
0.000000 0.000000 0.000000 
0.000000 0.000000 0.000000 

-0.000000 -0.000000 0.000000 
0.000000 0.000000 0.000000 
0.000000 0.000000 0.000000 

-0.000000 -0.000000 0.000000 
0.000000 -0.000000 0.000000 
0.000000 0.000000 0.000000 

-0.000000 -0.000000 0.000000 
0.000000 -0.000000 0.000000 
0.000000 0.000000 0.000000 

0.000000 -0.000000 0.000000 
0.000000 -0.000000 0.000000 
0.000000 0.000000 0.000000 

-0.000000 -0.000000 0.000000 
0.000000 -0.000000 0.000000 
0.000000 0.000000 0.000000 

-0.000000 0.000000 0.000000 
0.000000 0.000000 0.000000 
0.000000 0.000000 0.000000 

-0.000000 0.000000 0.000000 
0.000000 0.000000 0.000000 
0.000000 0.000000 0.000000 

-0.000000 0.000000 0.000000 
0.000000 0.000000 0.000000 
0.000000 0.000000 0.000000 

-0.000000 0.000000 0.000000 
0.000000 -0.000000 0.000000 
0.000000 0.000000 0.000000 

-0.000000 -0.000000 0.000000 
0.000000 0.000000 0.000000 
0.000000 0.000000 0.000000 

-0.000000 0.000000 0.000000 
0.000000 0.000000 0.000000 
0.000000 0.000000 0.000000 

-0.000000 -0.000000 0.000000 
0.000000 0.000000 0.000000 
0.000000 0.000000 0.000000 

0.000000 0.000000 0.000000 
0.000000 -0.000000 0.000000 
0.000000 0.000000 0.000000 

-0.000000 0.000000 0.000000 
0.000000 0.000000 0.000000 
0.000000 0.000000 0.000000 

-0.000000 0.000000 0.000000 
0.000000 0.000000 0.000000 
0.000000 0.000000 0.000000 

-0.000000 0.000000 0.000000 
0.000000 0.000000 0.000000 
0.000000 0.000000 0.000000 

-0.000000 0.000000 0.000000 
0.000000 -0.000000 0.000000 
0.000000 0.000000 0.000000 

0.000000 0.000000 0.000000 
0.000000 0.000000 0.000000 
0.000000 0.000000 0.000000 

0.000000 0.000000 0.000000 
0.000000 0.000000 0.000000 
0.000000 0.000000 0.000000 

-0.000000 -0.000000 0.000000 
0.000000 -0.000000 0.000000 
0.000000 0.000000 0.000000 

-0.000000 -0.000000 0.000000 
0.000000 -0.000000 0.000000 
0.000000 0.000000 0.000000 

-0.000000 -0.000000 0.000000 
0.000000 -0.000000 0.000000 
0.000000 0.000000 0.000000 

-0.000000 0.000000 0.000000 
0.000000 0.000000 0.000000 
0.000000 0.000000 0.000000 

-0.000000 -0.000000 0.000000 
0.000000 -0.000000 0.000000 
0.000000 0.000000 0.000000 

-0.000000 0.000000 0.000000 
0.000000 -0.000000 0.000000 
0.000000 0.000000 0.000000 

-0.000000 0.000000 0.000000 
0.000000 -0.000000 0.000000 
0.000000 0.000000 0.000000 

-0.000000 -0.000000 0.000000 
0.000000 0.000000 0.000000 
0.000000 0.000000 0.000000 

-0.000000 -0.000000 0.000000 
0.000000 -0.000000 0.000000 
0.000000 0.000000 0.000000 

0.000000 -0.000000 0.000000 
0.000000 0.000000 0.000000 
0.000000 0.000000 0.000000 

-0.000000 -0.000000 0.000000 
0.000000 0.000000 0.000000 
0.000000 0.000000 0.000000 

-0.000000 -0.000000 0.000000 
0.000000 0.000000 0.000000 
0.000000 0.000000 0.000000 

-0.000000 -0.000000 0.000000 
0.000000 0.000000 0.000000 
0.000000 0.000000 0.000000 

-0.000000 0.000000 0.000000 
0.000000 -0.000000 0.000000 
0.000000 0.000000 0.000000 

-0.000000 -0.000000 0.000000 
0.000000 -0.000000 0.000000 
0.000000 0.000000 0.000000 

0.000000 -0.000000 0.000000 
0.000000 -0.000000 0.000000 
0.000000 0.000000 0.000000 

0.000000 -0.000000 0.000000 
0.000000 0.000000 0.000000 
0.000000 0.000000 0.000000 

0.000000 0.000000 0.000000 
0.000000 0.000000 0.000000 
0.000000 0.000000 0.000000 

0.000000 -0.000000 0.000000 
0.000000 -0.000000 0.000000 
0.000000 0.000000 0.000000 

0.000000 -0.000000 0.000000 
0.000000 -0.000000 0.000000 
0.000000 0.000000 0.000000 

0.000000 0.000000 0.000000 
0.000000 -0.000000 0.000000 
0.000000 0.000000 0.000000 

0.000000 -0.000000 0.000000 
0.000000 0.000000 0.000000 
0.000000 0.000000 0.000000 

0.000000 -0.000000 0.000000 
0.000000 0.000000 0.000000 
0.000000 0.000000 0.000000 

0.000000 -0.000000 0.000000 
0.000000 -0.000000 0.000000 
0.000000 0.000000 0.000000 

0.000000 -0.000000 0.000000 
0.000000 0.000000 0.000000 
0.000000 0.000000 0.000000 

0.000000 0.000000 0.000000 
0.000000 0.000000 0.000000 
0.000000 0.000000 0.000000 

-0.000000 -0.000000 0.000000 
0.000000 0.000000 0.000000 
0.000000 0.000000 0.000000 

0.000000 -0.000000 0.000000 
0.000000 -0.000000 0.000000 
0.000000 0.000000 0.000000 

0.000000 0.000000 0.000000 
0.000000 0.000000 0.000000 
0.000000 0.000000 0.000000 

0.000000 0.000000 0.000000 
0.000000 0.000000 0.000000 
0.000000 0.000000 0.000000 

-0.000000 -0.000000 0.000000 
0.000000 -0.000000 0.000000 
0.000000 0.000000 0.000000 

-0.000000 0.000000 0.000000 
0.000000 0.000000 0.000000 
0.000000 0.000000 0.000000 

0.000000 0.000000 0.000000 
0.000000 -0.000000 0.000000 
0.000000 0.000000 0.000000 

-0.000000 -0.000000 0.000000 
0.000000 -0.000000 0.000000 
0.000000 0.000000 0.000000 

-0.000000 0.000000 0.000000 
0.000000 0.000000 0.000000 
0.000000 0.000000 0.000000 

-0.000000 -0.000000 0.000000 
0.000000 0.000000 0.000000 
0.000000 0.000000 0.000000 

-0.000000 0.000000 0.000000 
0.000000 0.000000 0.000000 
0.000000 0.000000 0.000000 

-0.000000 0.000000 0.000000 
0.000000 -0.000000 0.000000 
0.000000 0.000000 0.000000 

-0.000000 0.000000 0.000000 
0.000000 -0.000000 0.000000 
0.000000 0.000000 0.000000 

-0.000000 0.000000 0.000000 
0.000000 -0.000000 0.000000 
0.000000 0.000000 0.000000 

0.000000 0.000000 0.000000 
0.000000 -0.000000 0.000000 
0.000000 0.000000 0.000000 

0.000000 0.000000 0.000000 
0.000000 0.000000 0.000000 
0.000000 0.000000 0.000000 

0.000000 0.000000 0.000000 
0.000000 0.000000 0.000000 
0.000000 0.000000 0.000000 

0.000000 -0.000000 0.000000 
0.000000 -0.000000 0.000000 
0.000000 0.000000 0.000000 

0.000000 -0.000000 0.000000 
0.000000 0.000000 0.000000 
0.000000 0.000000 0.000000 

-0.000000 -0.000000 0.000000 
0.000000 -0.000000 0.000000 
0.000000 0.000000 0.000000 

0.000000 0.000000 0.000000 
0.000000 0.000000 0.000000 
0.000000 0.000000 0.000000 

-0.000000 0.000000 0.000000 
0.000000 0.000000 0.000000 
0.000000 0.000000 0.000000 

0.000000 -0.000000 0.000000 
0.000000 0.000000 0.000000 
0.000000 0.000000 0.000000 

0.000000 0.000000 0.000000 
0.000000 0.000000 0.000000 
0.000000 0.000000 0.000000 

0.000000 0.000000 0.000000 
0.000000 -0.000000 0.000000 
0.000000 0.000000 0.000000 

-0.000000 0.000000 0.000000 
0.000000 0.000000 0.000000 
0.000000 0.000000 0.000000 

-0.000000 0.000000 0.000000 
0.000000 0.000000 0.000000 
0.000000 0.000000 0.000000 

-0.000000 -0.000000 0.000000 
0.000000 -0.000000 0.000000 
0.000000 0.000000 0.000000 

-0.000000 -0.000000 0.000000 
0.000000 0.000000 0.000000 
0.000000 0.000000 0.000000 

-0.000000 -0.000000 0.000000 
0.000000 -0.000000 0.000000 
0.000000 0.000000 0.000000 

0.000000 -0.000000 0.000000 
0.000000 -0.000000 0.000000 
0.000000 0.000000 0.000000 

0.000000 0.000000 0.000000 
0.000000 -0.000000 0.000000 
0.000000 0.000000 0.000000 

-0.000000 0.000000 0.000000 
0.000000 0.000000 0.000000 
0.000000 0.000000 0.000000 

-0.000000 0.000000 0.000000 
0.000000 0.000000 0.000000 
0.000000 0.000000 0.000000 

-0.000000 0.000000 0.000000 
0.000000 0.000000 0.000000 
0.000000 0.000000 0.000000 

-0.000000 0.000000 0.000000 
0.000000 0.000000 0.000000 
0.000000 0.000000 0.000000 

0.000000 0.000000 0.000000 
0.000000 -0.000000 0.000000 
0.000000 0.000000 0.000000 

-0.000000 0.000000 0.000000 
0.000000 0.000000 0.000000 
0.000000 0.000000 0.000000 

0.000000 -0.000000 0.000000 
0.000000 0.000000 0.000000 
0.000000 0.000000 0.000000 

0.000000 0.000000 0.000000 
0.000000 0.000000 0.000000 
0.000000 0.000000 0.000000 

0.000000 0.000000 0.000000 
0.000000 0.000000 0.000000 
0.000000 0.000000 0.000000 

-0.000000 -0.000000 0.000000 
0.000000 -0.000000 0.000000 
0.000000 0.000000 0.000000 

-0.000000 -0.000000 0.000000 
0.000000 -0.000000 0.000000 
0.000000 0.000000 0.000000 

-0.000000 -0.000000 0.000000 
0.000000 0.000000 0.000000 
0.000000 0.000000 0.000000 

0.000000 0.000000 0.000000 
0.000000 0.000000 0.000000 
0.000000 0.000000 0.000000 

0.000000 -0.000000 0.000000 
0.000000 -0.000000 0.000000 
0.000000 0.000000 0.000000 

0.000000 0.000000 0.000000 
0.000000 -0.000000 0.000000 
0.000000 0.000000 0.000000 

0.000000 0.000000 0.000000 
0.000000 -0.000000 0.000000 
0.000000 0.000000 0.000000 

0.000000 0.000000 0.000000 
0.000000 0.000000 0.000000 
0.000000 0.000000 0.000000 

-0.000000 -0.000000 0.000000 
0.000000 -0.000000 0.000000 
0.000000 0.000000 0.000000 

0.000000 0.000000 0.000000 
0.000000 -0.000000 0.000000 
0.000000 0.000000 0.000000 

0.000000 0.000000 0.000000 
0.000000 -0.000000 0.000000 
0.000000 0.000000 0.000000 

0.000000 -0.000000 0.000000 
0.000000 0.000000 0.000000 
0.000000 0.000000 0.000000 

-0.000000 -0.000000 0.000000 
0.000000 -0.000000 0.000000 
0.000000 0.000000 0.000000 

0.000000 -0.000000 0.000000 
0.000000 -0.000000 0.000000 
0.000000 0.000000 0.000000 

0.000000 -0.000000 0.000000 
0.000000 0.000000 0.000000 
0.000000 0.000000 0.000000 

-0.000000 0.000000 0.000000 
0.000000 0.000000 0.000000 
0.000000 0.000000 0.000000 

-0.000000 0.000000 0.000000 
0.000000 -0.000000 0.000000 
0.000000 0.000000 0.000000 

-0.000000 -0.000000 0.000000 
0.000000 0.000000 0.000000 
0.000000 0.000000 0.000000 

-0.000000 0.000000 0.000000 
0.000000 -0.000000 0.000000 
0.000000 0.000000 0.000000 

-0.000000 0.000000 0.000000 
0.000000 0.000000 0.000000 
0.000000 0.000000 0.000000 

-0.000000 -0.000000 0.000000 
0.000000 -0.000000 0.000000 
0.000000 0.000000 0.000000 

-0.000000 0.000000 0.000000 
0.000000 0.000000 0.000000 
0.000000 0.000000 0.000000 

