# vtk DataFile Version 3.0 
vtk output 
ASCII 
DATASET UNSTRUCTURED_GRID 
POINTS 175 float 
-0.026061 -1.039195 0.000000 
-0.106992 -0.971139 0.000000 
-0.054870 -0.979372 0.000000 
-0.028809 -0.933488 0.000000 
-0.186430 -0.907064 0.000000 
-0.137056 -0.909590 0.000000 
-0.114311 -0.855943 0.000000 
-0.058186 -0.871608 0.000000 
-0.029377 -0.831431 0.000000 
-0.265318 -0.843908 0.000000 
-0.217198 -0.844708 0.000000 
-0.196633 -0.787411 0.000000 
-0.143120 -0.796120 0.000000 
-0.116563 -0.748852 0.000000 
-0.058945 -0.768497 0.000000 
-0.029568 -0.730377 0.000000 
-0.344206 -0.780752 0.000000 
-0.296791 -0.780745 0.000000 
-0.278030 -0.720802 0.000000 
-0.225992 -0.726669 0.000000 
-0.201664 -0.674552 0.000000 
-0.145749 -0.688026 0.000000 
-0.117890 -0.643683 0.000000 
-0.059328 -0.666389 0.000000 
-0.029759 -0.629323 0.000000 
-0.058559 -1.079946 0.000000 
-0.162226 -1.100788 0.000000 
-0.123292 -1.065171 0.000000 
-0.142917 -1.016187 0.000000 
-0.261851 -1.122945 0.000000 
-0.229092 -1.085918 0.000000 
-0.256854 -1.034686 0.000000 
-0.209613 -1.000573 0.000000 
-0.223062 -0.952999 0.000000 
-0.360414 -1.145245 0.000000 
-0.329787 -1.108122 0.000000 
-0.361761 -1.056320 0.000000 
-0.321587 -1.019911 0.000000 
-0.341985 -0.969677 0.000000 
-0.290702 -0.936878 0.000000 
-0.302189 -0.890143 0.000000 
-0.458977 -1.167545 0.000000 
-0.429420 -1.130470 0.000000 
-0.464588 -1.078429 0.000000 
-0.427556 -1.041401 0.000000 
-0.453135 -0.989886 0.000000 
-0.407738 -0.954571 0.000000 
-0.425037 -0.905143 0.000000 
-0.370772 -0.873514 0.000000 
-0.381315 -0.827286 0.000000 
-0.046960 -1.130761 0.000000 
-0.095301 -1.224807 0.000000 
-0.098873 -1.172160 0.000000 
-0.149405 -1.156962 0.000000 
-0.140093 -1.316511 0.000000 
-0.148617 -1.267813 0.000000 
-0.205981 -1.257575 0.000000 
-0.203197 -1.199372 0.000000 
-0.248777 -1.180225 0.000000 
-0.184111 -1.407474 0.000000 
-0.194039 -1.360383 0.000000 
-0.254475 -1.353084 0.000000 
-0.257893 -1.298974 0.000000 
-0.309886 -1.283602 0.000000 
-0.303554 -1.223056 0.000000 
-0.347255 -1.202899 0.000000 
-0.228129 -1.498438 0.000000 
-0.238687 -1.452214 0.000000 
-0.301302 -1.447262 0.000000 
-0.307162 -1.395223 0.000000 
-0.363386 -1.383102 0.000000 
-0.362692 -1.325590 0.000000 
-0.412122 -1.308297 0.000000 
-0.403017 -1.246151 0.000000 
-0.445733 -1.225572 0.000000 
-0.000000 -1.153376 0.000000 
0.043388 -1.249806 0.000000 
-0.000000 -1.219774 0.000000 
-0.043388 -1.249806 0.000000 
0.087158 -1.342003 0.000000 
0.043769 -1.318304 0.000000 
-0.000000 -1.356770 0.000000 
-0.043769 -1.318304 0.000000 
-0.087158 -1.342003 0.000000 
0.130831 -1.433133 0.000000 
0.087824 -1.411534 0.000000 
0.044436 -1.454234 0.000000 
-0.000000 -1.423169 0.000000 
-0.044436 -1.454234 0.000000 
-0.087824 -1.411534 0.000000 
-0.130831 -1.433133 0.000000 
0.174505 -1.524262 0.000000 
0.131782 -1.503696 0.000000 
0.088871 -1.549563 0.000000 
0.044532 -1.521699 0.000000 
-0.000000 -1.558099 0.000000 
-0.044532 -1.521699 0.000000 
-0.088871 -1.549563 0.000000 
-0.131782 -1.503696 0.000000 
-0.174505 -1.524262 0.000000 
0.046960 -1.130761 0.000000 
0.149405 -1.156962 0.000000 
0.098873 -1.172160 0.000000 
0.095301 -1.224807 0.000000 
0.248777 -1.180225 0.000000 
0.203197 -1.199372 0.000000 
0.205981 -1.257575 0.000000 
0.148617 -1.267813 0.000000 
0.140093 -1.316511 0.000000 
0.347255 -1.202899 0.000000 
0.303554 -1.223056 0.000000 
0.309886 -1.283602 0.000000 
0.257893 -1.298974 0.000000 
0.254475 -1.353084 0.000000 
0.194039 -1.360383 0.000000 
0.184111 -1.407474 0.000000 
0.445733 -1.225572 0.000000 
0.403017 -1.246151 0.000000 
0.412122 -1.308297 0.000000 
0.362692 -1.325590 0.000000 
0.363386 -1.383102 0.000000 
0.307162 -1.395223 0.000000 
0.301302 -1.447262 0.000000 
0.238687 -1.452214 0.000000 
0.228129 -1.498438 0.000000 
0.058559 -1.079946 0.000000 
0.142917 -1.016187 0.000000 
0.123292 -1.065171 0.000000 
0.162226 -1.100788 0.000000 
0.223062 -0.952999 0.000000 
0.209613 -1.000573 0.000000 
0.256854 -1.034686 0.000000 
0.229092 -1.085918 0.000000 
0.261851 -1.122945 0.000000 
0.302189 -0.890143 0.000000 
0.290702 -0.936878 0.000000 
0.341985 -0.969677 0.000000 
0.321587 -1.019911 0.000000 
0.361761 -1.056320 0.000000 
0.329787 -1.108122 0.000000 
0.360414 -1.145245 0.000000 
0.381315 -0.827286 0.000000 
0.370772 -0.873514 0.000000 
0.425037 -0.905143 0.000000 
0.407738 -0.954571 0.000000 
0.453135 -0.989886 0.000000 
0.427556 -1.041401 0.000000 
0.464588 -1.078429 0.000000 
0.429420 -1.130470 0.000000 
0.458977 -1.167545 0.000000 
0.026061 -1.039195 0.000000 
0.028809 -0.933488 0.000000 
0.054870 -0.979372 0.000000 
0.106992 -0.971139 0.000000 
0.029377 -0.831431 0.000000 
0.058186 -0.871608 0.000000 
0.114311 -0.855943 0.000000 
0.137056 -0.909590 0.000000 
0.186430 -0.907064 0.000000 
0.029568 -0.730377 0.000000 
0.058945 -0.768497 0.000000 
0.116563 -0.748852 0.000000 
0.143120 -0.796120 0.000000 
0.196633 -0.787411 0.000000 
0.217198 -0.844708 0.000000 
0.265318 -0.843908 0.000000 
0.029759 -0.629323 0.000000 
0.059328 -0.666389 0.000000 
0.117890 -0.643683 0.000000 
0.145749 -0.688026 0.000000 
0.201664 -0.674552 0.000000 
0.225992 -0.726669 0.000000 
0.278030 -0.720802 0.000000 
0.296791 -0.780745 0.000000 
0.344206 -0.780752 0.000000 
CELLS 175 350 
1 0 
1 1 
1 2 
1 3 
1 4 
1 5 
1 6 
1 7 
1 8 
1 9 
1 10 
1 11 
1 12 
1 13 
1 14 
1 15 
1 16 
1 17 
1 18 
1 19 
1 20 
1 21 
1 22 
1 23 
1 24 
1 25 
1 26 
1 27 
1 28 
1 29 
1 30 
1 31 
1 32 
1 33 
1 34 
1 35 
1 36 
1 37 
1 38 
1 39 
1 40 
1 41 
1 42 
1 43 
1 44 
1 45 
1 46 
1 47 
1 48 
1 49 
1 50 
1 51 
1 52 
1 53 
1 54 
1 55 
1 56 
1 57 
1 58 
1 59 
1 60 
1 61 
1 62 
1 63 
1 64 
1 65 
1 66 
1 67 
1 68 
1 69 
1 70 
1 71 
1 72 
1 73 
1 74 
1 75 
1 76 
1 77 
1 78 
1 79 
1 80 
1 81 
1 82 
1 83 
1 84 
1 85 
1 86 
1 87 
1 88 
1 89 
1 90 
1 91 
1 92 
1 93 
1 94 
1 95 
1 96 
1 97 
1 98 
1 99 
1 100 
1 101 
1 102 
1 103 
1 104 
1 105 
1 106 
1 107 
1 108 
1 109 
1 110 
1 111 
1 112 
1 113 
1 114 
1 115 
1 116 
1 117 
1 118 
1 119 
1 120 
1 121 
1 122 
1 123 
1 124 
1 125 
1 126 
1 127 
1 128 
1 129 
1 130 
1 131 
1 132 
1 133 
1 134 
1 135 
1 136 
1 137 
1 138 
1 139 
1 140 
1 141 
1 142 
1 143 
1 144 
1 145 
1 146 
1 147 
1 148 
1 149 
1 150 
1 151 
1 152 
1 153 
1 154 
1 155 
1 156 
1 157 
1 158 
1 159 
1 160 
1 161 
1 162 
1 163 
1 164 
1 165 
1 166 
1 167 
1 168 
1 169 
1 170 
1 171 
1 172 
1 173 
1 174 
CELL_TYPES 175 
1 
1 
1 
1 
1 
1 
1 
1 
1 
1 
1 
1 
1 
1 
1 
1 
1 
1 
1 
1 
1 
1 
1 
1 
1 
1 
1 
1 
1 
1 
1 
1 
1 
1 
1 
1 
1 
1 
1 
1 
1 
1 
1 
1 
1 
1 
1 
1 
1 
1 
1 
1 
1 
1 
1 
1 
1 
1 
1 
1 
1 
1 
1 
1 
1 
1 
1 
1 
1 
1 
1 
1 
1 
1 
1 
1 
1 
1 
1 
1 
1 
1 
1 
1 
1 
1 
1 
1 
1 
1 
1 
1 
1 
1 
1 
1 
1 
1 
1 
1 
1 
1 
1 
1 
1 
1 
1 
1 
1 
1 
1 
1 
1 
1 
1 
1 
1 
1 
1 
1 
1 
1 
1 
1 
1 
1 
1 
1 
1 
1 
1 
1 
1 
1 
1 
1 
1 
1 
1 
1 
1 
1 
1 
1 
1 
1 
1 
1 
1 
1 
1 
1 
1 
1 
1 
1 
1 
1 
1 
1 
1 
1 
1 
1 
1 
1 
1 
1 
1 
1 
1 
1 
1 
1 
1 
POINT_DATA 175 
VECTORS X_GC float 
-0.026061 -1.039195 0.000000 
-0.106992 -0.971139 0.000000 
-0.054870 -0.979372 0.000000 
-0.028809 -0.933488 0.000000 
-0.186430 -0.907064 0.000000 
-0.137056 -0.909590 0.000000 
-0.114311 -0.855943 0.000000 
-0.058186 -0.871608 0.000000 
-0.029377 -0.831431 0.000000 
-0.265318 -0.843908 0.000000 
-0.217198 -0.844708 0.000000 
-0.196633 -0.787411 0.000000 
-0.143120 -0.796120 0.000000 
-0.116563 -0.748852 0.000000 
-0.058945 -0.768497 0.000000 
-0.029568 -0.730377 0.000000 
-0.344206 -0.780752 0.000000 
-0.296791 -0.780745 0.000000 
-0.278030 -0.720802 0.000000 
-0.225992 -0.726669 0.000000 
-0.201664 -0.674552 0.000000 
-0.145749 -0.688026 0.000000 
-0.117890 -0.643683 0.000000 
-0.059328 -0.666389 0.000000 
-0.029759 -0.629323 0.000000 
-0.058559 -1.079946 0.000000 
-0.162226 -1.100788 0.000000 
-0.123292 -1.065171 0.000000 
-0.142917 -1.016187 0.000000 
-0.261851 -1.122945 0.000000 
-0.229092 -1.085918 0.000000 
-0.256854 -1.034686 0.000000 
-0.209613 -1.000573 0.000000 
-0.223062 -0.952999 0.000000 
-0.360414 -1.145245 0.000000 
-0.329787 -1.108122 0.000000 
-0.361761 -1.056320 0.000000 
-0.321587 -1.019911 0.000000 
-0.341985 -0.969677 0.000000 
-0.290702 -0.936878 0.000000 
-0.302189 -0.890143 0.000000 
-0.458977 -1.167545 0.000000 
-0.429420 -1.130470 0.000000 
-0.464588 -1.078429 0.000000 
-0.427556 -1.041401 0.000000 
-0.453135 -0.989886 0.000000 
-0.407738 -0.954571 0.000000 
-0.425037 -0.905143 0.000000 
-0.370772 -0.873514 0.000000 
-0.381315 -0.827286 0.000000 
-0.046960 -1.130761 0.000000 
-0.095301 -1.224807 0.000000 
-0.098873 -1.172160 0.000000 
-0.149405 -1.156962 0.000000 
-0.140093 -1.316511 0.000000 
-0.148617 -1.267813 0.000000 
-0.205981 -1.257575 0.000000 
-0.203197 -1.199372 0.000000 
-0.248777 -1.180225 0.000000 
-0.184111 -1.407474 0.000000 
-0.194039 -1.360383 0.000000 
-0.254475 -1.353084 0.000000 
-0.257893 -1.298974 0.000000 
-0.309886 -1.283602 0.000000 
-0.303554 -1.223056 0.000000 
-0.347255 -1.202899 0.000000 
-0.228129 -1.498438 0.000000 
-0.238687 -1.452214 0.000000 
-0.301302 -1.447262 0.000000 
-0.307162 -1.395223 0.000000 
-0.363386 -1.383102 0.000000 
-0.362692 -1.325590 0.000000 
-0.412122 -1.308297 0.000000 
-0.403017 -1.246151 0.000000 
-0.445733 -1.225572 0.000000 
-0.000000 -1.153376 0.000000 
0.043388 -1.249806 0.000000 
-0.000000 -1.219774 0.000000 
-0.043388 -1.249806 0.000000 
0.087158 -1.342003 0.000000 
0.043769 -1.318304 0.000000 
-0.000000 -1.356770 0.000000 
-0.043769 -1.318304 0.000000 
-0.087158 -1.342003 0.000000 
0.130831 -1.433133 0.000000 
0.087824 -1.411534 0.000000 
0.044436 -1.454234 0.000000 
-0.000000 -1.423169 0.000000 
-0.044436 -1.454234 0.000000 
-0.087824 -1.411534 0.000000 
-0.130831 -1.433133 0.000000 
0.174505 -1.524262 0.000000 
0.131782 -1.503696 0.000000 
0.088871 -1.549563 0.000000 
0.044532 -1.521699 0.000000 
-0.000000 -1.558099 0.000000 
-0.044532 -1.521699 0.000000 
-0.088871 -1.549563 0.000000 
-0.131782 -1.503696 0.000000 
-0.174505 -1.524262 0.000000 
0.046960 -1.130761 0.000000 
0.149405 -1.156962 0.000000 
0.098873 -1.172160 0.000000 
0.095301 -1.224807 0.000000 
0.248777 -1.180225 0.000000 
0.203197 -1.199372 0.000000 
0.205981 -1.257575 0.000000 
0.148617 -1.267813 0.000000 
0.140093 -1.316511 0.000000 
0.347255 -1.202899 0.000000 
0.303554 -1.223056 0.000000 
0.309886 -1.283602 0.000000 
0.257893 -1.298974 0.000000 
0.254475 -1.353084 0.000000 
0.194039 -1.360383 0.000000 
0.184111 -1.407474 0.000000 
0.445733 -1.225572 0.000000 
0.403017 -1.246151 0.000000 
0.412122 -1.308297 0.000000 
0.362692 -1.325590 0.000000 
0.363386 -1.383102 0.000000 
0.307162 -1.395223 0.000000 
0.301302 -1.447262 0.000000 
0.238687 -1.452214 0.000000 
0.228129 -1.498438 0.000000 
0.058559 -1.079946 0.000000 
0.142917 -1.016187 0.000000 
0.123292 -1.065171 0.000000 
0.162226 -1.100788 0.000000 
0.223062 -0.952999 0.000000 
0.209613 -1.000573 0.000000 
0.256854 -1.034686 0.000000 
0.229092 -1.085918 0.000000 
0.261851 -1.122945 0.000000 
0.302189 -0.890143 0.000000 
0.290702 -0.936878 0.000000 
0.341985 -0.969677 0.000000 
0.321587 -1.019911 0.000000 
0.361761 -1.056320 0.000000 
0.329787 -1.108122 0.000000 
0.360414 -1.145245 0.000000 
0.381315 -0.827286 0.000000 
0.370772 -0.873514 0.000000 
0.425037 -0.905143 0.000000 
0.407738 -0.954571 0.000000 
0.453135 -0.989886 0.000000 
0.427556 -1.041401 0.000000 
0.464588 -1.078429 0.000000 
0.429420 -1.130470 0.000000 
0.458977 -1.167545 0.000000 
0.026061 -1.039195 0.000000 
0.028809 -0.933488 0.000000 
0.054870 -0.979372 0.000000 
0.106992 -0.971139 0.000000 
0.029377 -0.831431 0.000000 
0.058186 -0.871608 0.000000 
0.114311 -0.855943 0.000000 
0.137056 -0.909590 0.000000 
0.186430 -0.907064 0.000000 
0.029568 -0.730377 0.000000 
0.058945 -0.768497 0.000000 
0.116563 -0.748852 0.000000 
0.143120 -0.796120 0.000000 
0.196633 -0.787411 0.000000 
0.217198 -0.844708 0.000000 
0.265318 -0.843908 0.000000 
0.029759 -0.629323 0.000000 
0.059328 -0.666389 0.000000 
0.117890 -0.643683 0.000000 
0.145749 -0.688026 0.000000 
0.201664 -0.674552 0.000000 
0.225992 -0.726669 0.000000 
0.278030 -0.720802 0.000000 
0.296791 -0.780745 0.000000 
0.344206 -0.780752 0.000000 
VECTORS X_EC float 
0.338794 0.529131 0.000000 
-0.609100 -0.389617 0.000000 
0.713312 -0.278477 0.000000 
0.374519 -0.897906 0.000000 
0.423588 0.745363 0.000000 
-0.218274 0.779467 0.000000 
-0.513962 0.055228 0.000000 
0.756418 0.266714 0.000000 
0.381900 -0.275678 0.000000 
-0.550868 -0.107240 0.000000 
0.823577 -0.096444 0.000000 
0.556234 -0.869948 0.000000 
-0.139443 -0.752380 0.000000 
-0.484677 0.609496 0.000000 
0.766286 0.874711 0.000000 
0.384386 0.360091 0.000000 
0.474677 -0.959843 0.000000 
-0.141715 -0.959939 0.000000 
-0.385608 0.230832 0.000000 
0.937896 0.310028 0.000000 
0.621631 -0.393552 0.000000 
-0.105264 -0.211653 0.000000 
-0.467428 -0.810279 0.000000 
0.771260 -0.503751 0.000000 
0.386873 0.995860 0.000000 
0.761262 -0.920734 0.000000 
0.108942 -0.639358 0.000000 
-0.397202 0.879803 0.000000 
-0.142083 0.218528 0.000000 
-0.595936 -0.340247 0.000000 
0.978194 -0.840113 0.000000 
-0.660903 0.468262 0.000000 
0.724964 0.007742 0.000000 
0.899809 -0.634507 0.000000 
0.685384 -0.039195 0.000000 
0.287229 -0.540353 0.000000 
0.702895 0.760318 0.000000 
0.180633 0.268799 0.000000 
0.445811 -0.409360 0.000000 
-0.220880 -0.852146 0.000000 
-0.071546 0.516928 0.000000 
-0.033296 0.261857 0.000000 
-0.417537 -0.238652 0.000000 
0.039645 -0.941215 0.000000 
-0.441768 0.558914 0.000000 
-0.109248 -0.136537 0.000000 
-0.699407 -0.613292 0.000000 
-0.474522 0.719428 0.000000 
0.820030 0.292435 0.000000 
0.957100 -0.331637 0.000000 
0.610485 -0.234728 0.000000 
-0.761092 -0.965109 0.000000 
-0.714655 0.324154 0.000000 
-0.057734 0.118987 0.000000 
-0.178789 0.272895 0.000000 
-0.067979 -0.384531 0.000000 
0.677748 -0.522734 0.000000 
0.641556 0.691521 0.000000 
-0.765897 0.433042 0.000000 
0.393446 -0.499095 0.000000 
0.522510 0.865175 0.000000 
-0.691820 0.766630 0.000000 
-0.647393 0.036148 0.000000 
0.028512 -0.171379 0.000000 
-0.053800 -0.988739 0.000000 
0.514316 0.739130 0.000000 
0.965681 0.728914 0.000000 
-0.897068 0.104885 0.000000 
-0.083078 0.038032 0.000000 
-0.006893 -0.664493 0.000000 
0.724017 -0.828126 0.000000 
0.714996 0.395471 0.000000 
-0.642413 0.162013 0.000000 
-0.760780 -0.676967 0.000000 
-0.205471 -0.954782 0.000000 
0.000000 0.070574 0.000000 
-0.564049 -0.627614 0.000000 
0.000000 0.966950 0.000000 
0.564049 -0.627614 0.000000 
0.866949 0.617042 0.000000 
-0.569003 0.297111 0.000000 
0.000000 0.816399 0.000000 
0.569003 0.297111 0.000000 
-0.866949 0.617042 0.000000 
0.299194 -0.152708 0.000000 
0.858290 -0.444292 0.000000 
-0.577662 0.132154 0.000000 
0.000000 -0.287224 0.000000 
0.577662 0.132154 0.000000 
-0.858290 -0.444292 0.000000 
-0.299194 -0.152708 0.000000 
-0.268560 -0.922458 0.000000 
0.286830 0.799900 0.000000 
0.844677 -0.580902 0.000000 
-0.578910 -0.957064 0.000000 
0.000000 -0.465660 0.000000 
0.578910 -0.957064 0.000000 
-0.844677 -0.580902 0.000000 
-0.286830 0.799900 0.000000 
0.268560 -0.922458 0.000000 
-0.610485 -0.234728 0.000000 
0.057734 0.118987 0.000000 
0.714655 0.324154 0.000000 
0.761092 -0.965109 0.000000 
0.765897 0.433042 0.000000 
-0.641556 0.691521 0.000000 
-0.677748 -0.522734 0.000000 
0.067979 -0.384531 0.000000 
0.178789 0.272895 0.000000 
-0.514316 0.739130 0.000000 
0.053800 -0.988739 0.000000 
-0.028512 -0.171379 0.000000 
0.647393 0.036148 0.000000 
0.691820 0.766630 0.000000 
-0.522510 0.865175 0.000000 
-0.393446 -0.499095 0.000000 
0.205471 -0.954782 0.000000 
0.760780 -0.676967 0.000000 
0.642413 0.162013 0.000000 
-0.714996 0.395471 0.000000 
-0.724017 -0.828126 0.000000 
0.006894 -0.664493 0.000000 
0.083078 0.038032 0.000000 
0.897068 0.104885 0.000000 
-0.965681 0.728914 0.000000 
-0.761262 -0.920734 0.000000 
0.142083 0.218528 0.000000 
0.397202 0.879803 0.000000 
-0.108942 -0.639358 0.000000 
-0.899809 -0.634507 0.000000 
-0.724964 0.007742 0.000000 
0.660903 0.468262 0.000000 
-0.978194 -0.840113 0.000000 
0.595936 -0.340247 0.000000 
0.071546 0.516928 0.000000 
0.220880 -0.852146 0.000000 
-0.445811 -0.409360 0.000000 
-0.180633 0.268799 0.000000 
-0.702895 0.760318 0.000000 
-0.287229 -0.540353 0.000000 
-0.685384 -0.039195 0.000000 
-0.957100 -0.331637 0.000000 
-0.820030 0.292435 0.000000 
0.474522 0.719428 0.000000 
0.699407 -0.613292 0.000000 
0.109248 -0.136537 0.000000 
0.441768 0.558914 0.000000 
-0.039645 -0.941215 0.000000 
0.417537 -0.238652 0.000000 
0.033296 0.261857 0.000000 
-0.338794 0.529131 0.000000 
-0.374519 -0.897906 0.000000 
-0.713312 -0.278477 0.000000 
0.609100 -0.389617 0.000000 
-0.381900 -0.275678 0.000000 
-0.756418 0.266714 0.000000 
0.513962 0.055228 0.000000 
0.218274 0.779467 0.000000 
-0.423588 0.745363 0.000000 
-0.384386 0.360091 0.000000 
-0.766286 0.874711 0.000000 
0.484677 0.609496 0.000000 
0.139443 -0.752380 0.000000 
-0.556234 -0.869948 0.000000 
-0.823577 -0.096444 0.000000 
0.550868 -0.107240 0.000000 
-0.386873 0.995860 0.000000 
-0.771260 -0.503751 0.000000 
0.467428 -0.810279 0.000000 
0.105264 -0.211653 0.000000 
-0.621631 -0.393552 0.000000 
-0.937896 0.310028 0.000000 
0.385608 0.230832 0.000000 
0.141715 -0.959939 0.000000 
-0.474677 -0.959843 0.000000 
CELL_DATA 175 
SCALARS MASS float 
LOOKUP_TABLE default 
0.078183 
0.086427 
0.094672 
0.086427 
0.088131 
0.092111 
0.085854 
0.092111 
0.088131 
0.088705 
0.091000 
0.086983 
0.091556 
0.086983 
0.091000 
0.088705 
0.089278 
0.091574 
0.089278 
0.092722 
0.089278 
0.092722 
0.089278 
0.091574 
0.089278 
0.078183 
0.086427 
0.094672 
0.086427 
0.088131 
0.092111 
0.085854 
0.092111 
0.088131 
0.088705 
0.091000 
0.086983 
0.091556 
0.086983 
0.091000 
0.088705 
0.089278 
0.091574 
0.089278 
0.092722 
0.089278 
0.092722 
0.089278 
0.091574 
0.089278 
0.078183 
0.086427 
0.094672 
0.086427 
0.088131 
0.092111 
0.085854 
0.092111 
0.088131 
0.088705 
0.091000 
0.086983 
0.091556 
0.086983 
0.091000 
0.088705 
0.089278 
0.091574 
0.089278 
0.092722 
0.089278 
0.092722 
0.089278 
0.091574 
0.089278 
0.078183 
0.086427 
0.094672 
0.086427 
0.088131 
0.092111 
0.085854 
0.092111 
0.088131 
0.088705 
0.091000 
0.086983 
0.091556 
0.086983 
0.091000 
0.088705 
0.089278 
0.091574 
0.089278 
0.092722 
0.089278 
0.092722 
0.089278 
0.091574 
0.089278 
0.078183 
0.086427 
0.094672 
0.086427 
0.088131 
0.092111 
0.085854 
0.092111 
0.088131 
0.088705 
0.091000 
0.086983 
0.091556 
0.086983 
0.091000 
0.088705 
0.089278 
0.091574 
0.089278 
0.092722 
0.089278 
0.092722 
0.089278 
0.091574 
0.089278 
0.078183 
0.086427 
0.094672 
0.086427 
0.088131 
0.092111 
0.085854 
0.092111 
0.088131 
0.088705 
0.091000 
0.086983 
0.091556 
0.086983 
0.091000 
0.088705 
0.089278 
0.091574 
0.089278 
0.092722 
0.089278 
0.092722 
0.089278 
0.091574 
0.089278 
0.078183 
0.086427 
0.094672 
0.086427 
0.088131 
0.092111 
0.085854 
0.092111 
0.088131 
0.088705 
0.091000 
0.086983 
0.091556 
0.086983 
0.091000 
0.088705 
0.089278 
0.091574 
0.089278 
0.092722 
0.089278 
0.092722 
0.089278 
0.091574 
0.089278 
SCALARS MASS float 
LOOKUP_TABLE default 
0.078183 
0.086427 
0.094672 
0.086427 
0.088131 
0.092111 
0.085854 
0.092111 
0.088131 
0.088705 
0.091000 
0.086983 
0.091556 
0.086983 
0.091000 
0.088705 
0.089278 
0.091574 
0.089278 
0.092722 
0.089278 
0.092722 
0.089278 
0.091574 
0.089278 
0.078183 
0.086427 
0.094672 
0.086427 
0.088131 
0.092111 
0.085854 
0.092111 
0.088131 
0.088705 
0.091000 
0.086983 
0.091556 
0.086983 
0.091000 
0.088705 
0.089278 
0.091574 
0.089278 
0.092722 
0.089278 
0.092722 
0.089278 
0.091574 
0.089278 
0.078183 
0.086427 
0.094672 
0.086427 
0.088131 
0.092111 
0.085854 
0.092111 
0.088131 
0.088705 
0.091000 
0.086983 
0.091556 
0.086983 
0.091000 
0.088705 
0.089278 
0.091574 
0.089278 
0.092722 
0.089278 
0.092722 
0.089278 
0.091574 
0.089278 
0.078183 
0.086427 
0.094672 
0.086427 
0.088131 
0.092111 
0.085854 
0.092111 
0.088131 
0.088705 
0.091000 
0.086983 
0.091556 
0.086983 
0.091000 
0.088705 
0.089278 
0.091574 
0.089278 
0.092722 
0.089278 
0.092722 
0.089278 
0.091574 
0.089278 
0.078183 
0.086427 
0.094672 
0.086427 
0.088131 
0.092111 
0.085854 
0.092111 
0.088131 
0.088705 
0.091000 
0.086983 
0.091556 
0.086983 
0.091000 
0.088705 
0.089278 
0.091574 
0.089278 
0.092722 
0.089278 
0.092722 
0.089278 
0.091574 
0.089278 
0.078183 
0.086427 
0.094672 
0.086427 
0.088131 
0.092111 
0.085854 
0.092111 
0.088131 
0.088705 
0.091000 
0.086983 
0.091556 
0.086983 
0.091000 
0.088705 
0.089278 
0.091574 
0.089278 
0.092722 
0.089278 
0.092722 
0.089278 
0.091574 
0.089278 
0.078183 
0.086427 
0.094672 
0.086427 
0.088131 
0.092111 
0.085854 
0.092111 
0.088131 
0.088705 
0.091000 
0.086983 
0.091556 
0.086983 
0.091000 
0.088705 
0.089278 
0.091574 
0.089278 
0.092722 
0.089278 
0.092722 
0.089278 
0.091574 
0.089278 
SCALARS DENSITY float 
LOOKUP_TABLE default 
20.000000 
20.000000 
20.000000 
20.000000 
20.000000 
20.000000 
20.000000 
20.000000 
20.000000 
20.000000 
20.000000 
20.000000 
20.000000 
20.000000 
20.000000 
20.000000 
20.000000 
20.000000 
20.000000 
20.000000 
20.000000 
20.000000 
20.000000 
20.000000 
20.000000 
20.000000 
20.000000 
20.000000 
20.000000 
20.000000 
20.000000 
20.000000 
20.000000 
20.000000 
20.000000 
20.000000 
20.000000 
20.000000 
20.000000 
20.000000 
20.000000 
20.000000 
20.000000 
20.000000 
20.000000 
20.000000 
20.000000 
20.000000 
20.000000 
20.000000 
20.000000 
20.000000 
20.000000 
20.000000 
20.000000 
20.000000 
20.000000 
20.000000 
20.000000 
20.000000 
20.000000 
20.000000 
20.000000 
20.000000 
20.000000 
20.000000 
20.000000 
20.000000 
20.000000 
20.000000 
20.000000 
20.000000 
20.000000 
20.000000 
20.000000 
20.000000 
20.000000 
20.000000 
20.000000 
20.000000 
20.000000 
20.000000 
20.000000 
20.000000 
20.000000 
20.000000 
20.000000 
20.000000 
20.000000 
20.000000 
20.000000 
20.000000 
20.000000 
20.000000 
20.000000 
20.000000 
20.000000 
20.000000 
20.000000 
20.000000 
20.000000 
20.000000 
20.000000 
20.000000 
20.000000 
20.000000 
20.000000 
20.000000 
20.000000 
20.000000 
20.000000 
20.000000 
20.000000 
20.000000 
20.000000 
20.000000 
20.000000 
20.000000 
20.000000 
20.000000 
20.000000 
20.000000 
20.000000 
20.000000 
20.000000 
20.000000 
20.000000 
20.000000 
20.000000 
20.000000 
20.000000 
20.000000 
20.000000 
20.000000 
20.000000 
20.000000 
20.000000 
20.000000 
20.000000 
20.000000 
20.000000 
20.000000 
20.000000 
20.000000 
20.000000 
20.000000 
20.000000 
20.000000 
20.000000 
20.000000 
20.000000 
20.000000 
20.000000 
20.000000 
20.000000 
20.000000 
20.000000 
20.000000 
20.000000 
20.000000 
20.000000 
20.000000 
20.000000 
20.000000 
20.000000 
20.000000 
20.000000 
20.000000 
20.000000 
20.000000 
20.000000 
20.000000 
20.000000 
20.000000 
20.000000 
SCALARS ELEM_i float 
LOOKUP_TABLE default 
175 
202 
175 
175 
203 
203 
203 
176 
176 
230 
203 
203 
203 
204 
177 
177 
230 
230 
231 
204 
204 
204 
204 
177 
178 
174 
201 
202 
202 
228 
201 
229 
202 
202 
228 
228 
229 
229 
229 
229 
230 
255 
255 
255 
256 
256 
256 
257 
230 
230 
174 
200 
201 
201 
200 
200 
200 
201 
228 
199 
200 
227 
227 
227 
227 
228 
199 
226 
226 
226 
226 
227 
254 
254 
254 
174 
173 
174 
173 
146 
173 
173 
173 
200 
145 
145 
172 
172 
172 
199 
199 
144 
145 
144 
171 
171 
171 
198 
199 
198 
174 
147 
147 
146 
120 
147 
146 
146 
146 
120 
119 
119 
119 
119 
146 
145 
92 
92 
92 
119 
118 
118 
118 
118 
145 
174 
148 
148 
147 
148 
148 
121 
147 
120 
122 
121 
121 
121 
121 
120 
120 
122 
122 
95 
94 
94 
94 
93 
93 
93 
175 
175 
175 
148 
176 
176 
149 
149 
149 
177 
177 
150 
149 
149 
149 
122 
178 
177 
150 
150 
150 
150 
123 
122 
122 
VECTORS VELOCITY float 
0.000000 -4.631105 0.000000 
0.000000 -4.631105 0.000000 
-0.000000 -4.631105 0.000000 
0.000000 -4.631105 0.000000 
0.000000 -4.631105 0.000000 
0.000000 -4.631105 0.000000 
0.000000 -4.631105 0.000000 
0.000000 -4.631105 0.000000 
0.000000 -4.631105 0.000000 
-0.000000 -4.631105 0.000000 
-0.000000 -4.631105 0.000000 
-0.000000 -4.631105 0.000000 
0.000000 -4.631105 0.000000 
-0.000000 -4.631105 0.000000 
0.000000 -4.631105 0.000000 
-0.000000 -4.631105 0.000000 
-0.000000 -4.631105 0.000000 
-0.000000 -4.631105 0.000000 
0.000000 -4.631105 0.000000 
0.000000 -4.631105 0.000000 
0.000000 -4.631105 0.000000 
-0.000000 -4.631105 0.000000 
-0.000000 -4.631105 0.000000 
-0.000000 -4.631105 0.000000 
-0.000000 -4.631105 0.000000 
0.000000 -4.631105 0.000000 
0.000000 -4.631105 0.000000 
0.000000 -4.631105 0.000000 
0.000000 -4.631105 0.000000 
0.000000 -4.631105 0.000000 
0.000000 -4.631105 0.000000 
0.000000 -4.631105 0.000000 
0.000000 -4.631105 0.000000 
0.000000 -4.631105 0.000000 
-0.000000 -4.631105 0.000000 
-0.000000 -4.631105 0.000000 
-0.000000 -4.631105 0.000000 
-0.000000 -4.631105 0.000000 
0.000000 -4.631105 0.000000 
0.000000 -4.631105 0.000000 
0.000000 -4.631105 0.000000 
-0.000000 -4.631105 0.000000 
-0.000000 -4.631105 0.000000 
-0.000000 -4.631105 0.000000 
0.000000 -4.631105 0.000000 
0.000000 -4.631105 0.000000 
0.000000 -4.631105 0.000000 
0.000000 -4.631105 0.000000 
-0.000000 -4.631105 0.000000 
-0.000000 -4.631105 0.000000 
-0.000000 -4.631105 0.000000 
-0.000000 -4.631105 0.000000 
-0.000000 -4.631105 0.000000 
-0.000000 -4.631105 0.000000 
0.000000 -4.631105 0.000000 
0.000000 -4.631105 0.000000 
-0.000000 -4.631105 0.000000 
-0.000000 -4.631105 0.000000 
-0.000000 -4.631105 0.000000 
-0.000000 -4.631105 0.000000 
0.000000 -4.631105 0.000000 
0.000000 -4.631105 0.000000 
0.000000 -4.631105 0.000000 
-0.000000 -4.631105 0.000000 
-0.000000 -4.631105 0.000000 
0.000000 -4.631105 0.000000 
-0.000000 -4.631105 0.000000 
-0.000000 -4.631105 0.000000 
0.000000 -4.631105 0.000000 
-0.000000 -4.631105 0.000000 
-0.000000 -4.631105 0.000000 
-0.000000 -4.631105 0.000000 
0.000000 -4.631105 0.000000 
0.000000 -4.631105 0.000000 
0.000000 -4.631105 0.000000 
-0.000000 -4.631105 0.000000 
-0.000000 -4.631105 0.000000 
-0.000000 -4.631105 0.000000 
0.000000 -4.631105 0.000000 
-0.000000 -4.631105 0.000000 
-0.000000 -4.631105 0.000000 
0.000000 -4.631105 0.000000 
0.000000 -4.631105 0.000000 
0.000000 -4.631105 0.000000 
-0.000000 -4.631105 0.000000 
-0.000000 -4.631105 0.000000 
-0.000000 -4.631105 0.000000 
-0.000000 -4.631105 0.000000 
-0.000000 -4.631105 0.000000 
-0.000000 -4.631105 0.000000 
-0.000000 -4.631105 0.000000 
0.000000 -4.631105 0.000000 
0.000000 -4.631105 0.000000 
-0.000000 -4.631105 0.000000 
0.000000 -4.631105 0.000000 
-0.000000 -4.631105 0.000000 
-0.000000 -4.631105 0.000000 
-0.000000 -4.631105 0.000000 
-0.000000 -4.631105 0.000000 
-0.000000 -4.631105 0.000000 
0.000000 -4.631105 0.000000 
0.000000 -4.631105 0.000000 
0.000000 -4.631105 0.000000 
-0.000000 -4.631105 0.000000 
0.000000 -4.631105 0.000000 
0.000000 -4.631105 0.000000 
0.000000 -4.631105 0.000000 
-0.000000 -4.631105 0.000000 
-0.000000 -4.631105 0.000000 
-0.000000 -4.631105 0.000000 
0.000000 -4.631105 0.000000 
-0.000000 -4.631105 0.000000 
0.000000 -4.631105 0.000000 
-0.000000 -4.631105 0.000000 
-0.000000 -4.631105 0.000000 
0.000000 -4.631105 0.000000 
0.000000 -4.631105 0.000000 
0.000000 -4.631105 0.000000 
0.000000 -4.631105 0.000000 
-0.000000 -4.631105 0.000000 
0.000000 -4.631105 0.000000 
0.000000 -4.631105 0.000000 
-0.000000 -4.631105 0.000000 
0.000000 -4.631105 0.000000 
0.000000 -4.631105 0.000000 
0.000000 -4.631105 0.000000 
-0.000000 -4.631105 0.000000 
0.000000 -4.631105 0.000000 
0.000000 -4.631105 0.000000 
-0.000000 -4.631105 0.000000 
-0.000000 -4.631105 0.000000 
-0.000000 -4.631105 0.000000 
-0.000000 -4.631105 0.000000 
0.000000 -4.631105 0.000000 
0.000000 -4.631105 0.000000 
0.000000 -4.631105 0.000000 
0.000000 -4.631105 0.000000 
0.000000 -4.631105 0.000000 
0.000000 -4.631105 0.000000 
-0.000000 -4.631105 0.000000 
-0.000000 -4.631105 0.000000 
-0.000000 -4.631105 0.000000 
-0.000000 -4.631105 0.000000 
-0.000000 -4.631105 0.000000 
0.000000 -4.631105 0.000000 
-0.000000 -4.631105 0.000000 
0.000000 -4.631105 0.000000 
0.000000 -4.631105 0.000000 
-0.000000 -4.631105 0.000000 
0.000000 -4.631105 0.000000 
0.000000 -4.631105 0.000000 
-0.000000 -4.631105 0.000000 
-0.000000 -4.631105 0.000000 
-0.000000 -4.631105 0.000000 
0.000000 -4.631105 0.000000 
0.000000 -4.631105 0.000000 
0.000000 -4.631105 0.000000 
0.000000 -4.631105 0.000000 
0.000000 -4.631105 0.000000 
-0.000000 -4.631105 0.000000 
0.000000 -4.631105 0.000000 
-0.000000 -4.631105 0.000000 
0.000000 -4.631105 0.000000 
0.000000 -4.631105 0.000000 
0.000000 -4.631105 0.000000 
0.000000 -4.631105 0.000000 
0.000000 -4.631105 0.000000 
0.000000 -4.631105 0.000000 
0.000000 -4.631105 0.000000 
0.000000 -4.631105 0.000000 
0.000000 -4.631105 0.000000 
0.000000 -4.631105 0.000000 
0.000000 -4.631105 0.000000 
0.000000 -4.631105 0.000000 
-0.000000 -4.631105 0.000000 
TENSORS STRESS float 
0.000000 0.000000 0.000000 
0.000000 -0.000000 0.000000 
0.000000 0.000000 0.000000 

0.000000 -0.000000 0.000000 
0.000000 0.000000 0.000000 
0.000000 0.000000 0.000000 

0.000000 -0.000000 0.000000 
0.000000 -0.000000 0.000000 
0.000000 0.000000 0.000000 

0.000000 -0.000000 0.000000 
0.000000 0.000000 0.000000 
0.000000 0.000000 0.000000 

-0.000000 -0.000000 0.000000 
0.000000 -0.000000 0.000000 
0.000000 0.000000 0.000000 

0.000000 -0.000000 0.000000 
0.000000 0.000000 0.000000 
0.000000 0.000000 0.000000 

0.000000 -0.000000 0.000000 
0.000000 0.000000 0.000000 
0.000000 0.000000 0.000000 

-0.000000 -0.000000 0.000000 
0.000000 -0.000000 0.000000 
0.000000 0.000000 0.000000 

-0.000000 0.000000 0.000000 
0.000000 -0.000000 0.000000 
0.000000 0.000000 0.000000 

-0.000000 -0.000000 0.000000 
0.000000 -0.000000 0.000000 
0.000000 0.000000 0.000000 

-0.000000 -0.000000 0.000000 
0.000000 -0.000000 0.000000 
0.000000 0.000000 0.000000 

0.000000 0.000000 0.000000 
0.000000 0.000000 0.000000 
0.000000 0.000000 0.000000 

0.000000 -0.000000 0.000000 
0.000000 -0.000000 0.000000 
0.000000 0.000000 0.000000 

0.000000 -0.000000 0.000000 
0.000000 0.000000 0.000000 
0.000000 0.000000 0.000000 

-0.000000 -0.000000 0.000000 
0.000000 -0.000000 0.000000 
0.000000 0.000000 0.000000 

0.000000 -0.000000 0.000000 
0.000000 0.000000 0.000000 
0.000000 0.000000 0.000000 

0.000000 0.000000 0.000000 
0.000000 0.000000 0.000000 
0.000000 0.000000 0.000000 

0.000000 0.000000 0.000000 
0.000000 0.000000 0.000000 
0.000000 0.000000 0.000000 

-0.000000 -0.000000 0.000000 
0.000000 -0.000000 0.000000 
0.000000 0.000000 0.000000 

-0.000000 -0.000000 0.000000 
0.000000 -0.000000 0.000000 
0.000000 0.000000 0.000000 

0.000000 0.000000 0.000000 
0.000000 0.000000 0.000000 
0.000000 0.000000 0.000000 

0.000000 -0.000000 0.000000 
0.000000 0.000000 0.000000 
0.000000 0.000000 0.000000 

0.000000 0.000000 0.000000 
0.000000 0.000000 0.000000 
0.000000 0.000000 0.000000 

0.000000 -0.000000 0.000000 
0.000000 0.000000 0.000000 
0.000000 0.000000 0.000000 

-0.000000 0.000000 0.000000 
0.000000 -0.000000 0.000000 
0.000000 0.000000 0.000000 

0.000000 0.000000 0.000000 
0.000000 0.000000 0.000000 
0.000000 0.000000 0.000000 

-0.000000 -0.000000 0.000000 
0.000000 -0.000000 0.000000 
0.000000 0.000000 0.000000 

0.000000 0.000000 0.000000 
0.000000 0.000000 0.000000 
0.000000 0.000000 0.000000 

-0.000000 0.000000 0.000000 
0.000000 -0.000000 0.000000 
0.000000 0.000000 0.000000 

-0.000000 0.000000 0.000000 
0.000000 -0.000000 0.000000 
0.000000 0.000000 0.000000 

0.000000 0.000000 0.000000 
0.000000 0.000000 0.000000 
0.000000 0.000000 0.000000 

0.000000 -0.000000 0.000000 
0.000000 -0.000000 0.000000 
0.000000 0.000000 0.000000 

0.000000 -0.000000 0.000000 
0.000000 0.000000 0.000000 
0.000000 0.000000 0.000000 

0.000000 -0.000000 0.000000 
0.000000 0.000000 0.000000 
0.000000 0.000000 0.000000 

-0.000000 -0.000000 0.000000 
0.000000 -0.000000 0.000000 
0.000000 0.000000 0.000000 

-0.000000 0.000000 0.000000 
0.000000 0.000000 0.000000 
0.000000 0.000000 0.000000 

-0.000000 -0.000000 0.000000 
0.000000 -0.000000 0.000000 
0.000000 0.000000 0.000000 

0.000000 0.000000 0.000000 
0.000000 -0.000000 0.000000 
0.000000 0.000000 0.000000 

0.000000 0.000000 0.000000 
0.000000 0.000000 0.000000 
0.000000 0.000000 0.000000 

-0.000000 0.000000 0.000000 
0.000000 -0.000000 0.000000 
0.000000 0.000000 0.000000 

-0.000000 0.000000 0.000000 
0.000000 0.000000 0.000000 
0.000000 0.000000 0.000000 

0.000000 0.000000 0.000000 
0.000000 -0.000000 0.000000 
0.000000 0.000000 0.000000 

0.000000 0.000000 0.000000 
0.000000 0.000000 0.000000 
0.000000 0.000000 0.000000 

0.000000 -0.000000 0.000000 
0.000000 -0.000000 0.000000 
0.000000 0.000000 0.000000 

0.000000 0.000000 0.000000 
0.000000 0.000000 0.000000 
0.000000 0.000000 0.000000 

-0.000000 0.000000 0.000000 
0.000000 -0.000000 0.000000 
0.000000 0.000000 0.000000 

-0.000000 0.000000 0.000000 
0.000000 -0.000000 0.000000 
0.000000 0.000000 0.000000 

0.000000 0.000000 0.000000 
0.000000 0.000000 0.000000 
0.000000 0.000000 0.000000 

-0.000000 -0.000000 0.000000 
0.000000 -0.000000 0.000000 
0.000000 0.000000 0.000000 

-0.000000 -0.000000 0.000000 
0.000000 -0.000000 0.000000 
0.000000 0.000000 0.000000 

0.000000 -0.000000 0.000000 
0.000000 0.000000 0.000000 
0.000000 0.000000 0.000000 

0.000000 0.000000 0.000000 
0.000000 -0.000000 0.000000 
0.000000 0.000000 0.000000 

0.000000 -0.000000 0.000000 
0.000000 0.000000 0.000000 
0.000000 0.000000 0.000000 

0.000000 0.000000 0.000000 
0.000000 0.000000 0.000000 
0.000000 0.000000 0.000000 

-0.000000 -0.000000 0.000000 
0.000000 -0.000000 0.000000 
0.000000 0.000000 0.000000 

-0.000000 0.000000 0.000000 
0.000000 -0.000000 0.000000 
0.000000 0.000000 0.000000 

0.000000 0.000000 0.000000 
0.000000 0.000000 0.000000 
0.000000 0.000000 0.000000 

0.000000 0.000000 0.000000 
0.000000 -0.000000 0.000000 
0.000000 0.000000 0.000000 

0.000000 -0.000000 0.000000 
0.000000 0.000000 0.000000 
0.000000 0.000000 0.000000 

0.000000 -0.000000 0.000000 
0.000000 -0.000000 0.000000 
0.000000 0.000000 0.000000 

0.000000 0.000000 0.000000 
0.000000 0.000000 0.000000 
0.000000 0.000000 0.000000 

0.000000 0.000000 0.000000 
0.000000 0.000000 0.000000 
0.000000 0.000000 0.000000 

-0.000000 0.000000 0.000000 
0.000000 -0.000000 0.000000 
0.000000 0.000000 0.000000 

-0.000000 -0.000000 0.000000 
0.000000 0.000000 0.000000 
0.000000 0.000000 0.000000 

-0.000000 -0.000000 0.000000 
0.000000 -0.000000 0.000000 
0.000000 0.000000 0.000000 

-0.000000 -0.000000 0.000000 
0.000000 -0.000000 0.000000 
0.000000 0.000000 0.000000 

-0.000000 -0.000000 0.000000 
0.000000 -0.000000 0.000000 
0.000000 0.000000 0.000000 

0.000000 0.000000 0.000000 
0.000000 -0.000000 0.000000 
0.000000 0.000000 0.000000 

0.000000 0.000000 0.000000 
0.000000 -0.000000 0.000000 
0.000000 0.000000 0.000000 

0.000000 -0.000000 0.000000 
0.000000 0.000000 0.000000 
0.000000 0.000000 0.000000 

0.000000 0.000000 0.000000 
0.000000 0.000000 0.000000 
0.000000 0.000000 0.000000 

-0.000000 -0.000000 0.000000 
0.000000 -0.000000 0.000000 
0.000000 0.000000 0.000000 

-0.000000 -0.000000 0.000000 
0.000000 -0.000000 0.000000 
0.000000 0.000000 0.000000 

0.000000 -0.000000 0.000000 
0.000000 -0.000000 0.000000 
0.000000 0.000000 0.000000 

0.000000 0.000000 0.000000 
0.000000 0.000000 0.000000 
0.000000 0.000000 0.000000 

-0.000000 -0.000000 0.000000 
0.000000 -0.000000 0.000000 
0.000000 0.000000 0.000000 

-0.000000 -0.000000 0.000000 
0.000000 -0.000000 0.000000 
0.000000 0.000000 0.000000 

-0.000000 -0.000000 0.000000 
0.000000 -0.000000 0.000000 
0.000000 0.000000 0.000000 

0.000000 -0.000000 0.000000 
0.000000 0.000000 0.000000 
0.000000 0.000000 0.000000 

-0.000000 -0.000000 0.000000 
0.000000 -0.000000 0.000000 
0.000000 0.000000 0.000000 

-0.000000 -0.000000 0.000000 
0.000000 -0.000000 0.000000 
0.000000 0.000000 0.000000 

-0.000000 0.000000 0.000000 
0.000000 -0.000000 0.000000 
0.000000 0.000000 0.000000 

-0.000000 -0.000000 0.000000 
0.000000 -0.000000 0.000000 
0.000000 0.000000 0.000000 

0.000000 -0.000000 0.000000 
0.000000 0.000000 0.000000 
0.000000 0.000000 0.000000 

-0.000000 0.000000 0.000000 
0.000000 -0.000000 0.000000 
0.000000 0.000000 0.000000 

0.000000 0.000000 0.000000 
0.000000 -0.000000 0.000000 
0.000000 0.000000 0.000000 

0.000000 -0.000000 0.000000 
0.000000 0.000000 0.000000 
0.000000 0.000000 0.000000 

-0.000000 -0.000000 0.000000 
0.000000 -0.000000 0.000000 
0.000000 0.000000 0.000000 

-0.000000 0.000000 0.000000 
0.000000 0.000000 0.000000 
0.000000 0.000000 0.000000 

0.000000 -0.000000 0.000000 
0.000000 0.000000 0.000000 
0.000000 0.000000 0.000000 

0.000000 -0.000000 0.000000 
0.000000 0.000000 0.000000 
0.000000 0.000000 0.000000 

-0.000000 -0.000000 0.000000 
0.000000 0.000000 0.000000 
0.000000 0.000000 0.000000 

-0.000000 -0.000000 0.000000 
0.000000 -0.000000 0.000000 
0.000000 0.000000 0.000000 

-0.000000 -0.000000 0.000000 
0.000000 -0.000000 0.000000 
0.000000 0.000000 0.000000 

0.000000 0.000000 0.000000 
0.000000 0.000000 0.000000 
0.000000 0.000000 0.000000 

0.000000 0.000000 0.000000 
0.000000 0.000000 0.000000 
0.000000 0.000000 0.000000 

0.000000 0.000000 0.000000 
0.000000 -0.000000 0.000000 
0.000000 0.000000 0.000000 

0.000000 0.000000 0.000000 
0.000000 0.000000 0.000000 
0.000000 0.000000 0.000000 

-0.000000 -0.000000 0.000000 
0.000000 -0.000000 0.000000 
0.000000 0.000000 0.000000 

0.000000 0.000000 0.000000 
0.000000 0.000000 0.000000 
0.000000 0.000000 0.000000 

0.000000 -0.000000 0.000000 
0.000000 0.000000 0.000000 
0.000000 0.000000 0.000000 

0.000000 0.000000 0.000000 
0.000000 -0.000000 0.000000 
0.000000 0.000000 0.000000 

0.000000 0.000000 0.000000 
0.000000 -0.000000 0.000000 
0.000000 0.000000 0.000000 

0.000000 -0.000000 0.000000 
0.000000 0.000000 0.000000 
0.000000 0.000000 0.000000 

0.000000 0.000000 0.000000 
0.000000 0.000000 0.000000 
0.000000 0.000000 0.000000 

0.000000 -0.000000 0.000000 
0.000000 0.000000 0.000000 
0.000000 0.000000 0.000000 

0.000000 -0.000000 0.000000 
0.000000 0.000000 0.000000 
0.000000 0.000000 0.000000 

-0.000000 -0.000000 0.000000 
0.000000 -0.000000 0.000000 
0.000000 0.000000 0.000000 

-0.000000 -0.000000 0.000000 
0.000000 -0.000000 0.000000 
0.000000 0.000000 0.000000 

0.000000 0.000000 0.000000 
0.000000 -0.000000 0.000000 
0.000000 0.000000 0.000000 

0.000000 -0.000000 0.000000 
0.000000 0.000000 0.000000 
0.000000 0.000000 0.000000 

-0.000000 0.000000 0.000000 
0.000000 -0.000000 0.000000 
0.000000 0.000000 0.000000 

-0.000000 0.000000 0.000000 
0.000000 -0.000000 0.000000 
0.000000 0.000000 0.000000 

-0.000000 -0.000000 0.000000 
0.000000 -0.000000 0.000000 
0.000000 0.000000 0.000000 

0.000000 -0.000000 0.000000 
0.000000 -0.000000 0.000000 
0.000000 0.000000 0.000000 

0.000000 0.000000 0.000000 
0.000000 -0.000000 0.000000 
0.000000 0.000000 0.000000 

-0.000000 0.000000 0.000000 
0.000000 -0.000000 0.000000 
0.000000 0.000000 0.000000 

-0.000000 0.000000 0.000000 
0.000000 -0.000000 0.000000 
0.000000 0.000000 0.000000 

-0.000000 0.000000 0.000000 
0.000000 0.000000 0.000000 
0.000000 0.000000 0.000000 

-0.000000 -0.000000 0.000000 
0.000000 -0.000000 0.000000 
0.000000 0.000000 0.000000 

-0.000000 0.000000 0.000000 
0.000000 -0.000000 0.000000 
0.000000 0.000000 0.000000 

0.000000 0.000000 0.000000 
0.000000 0.000000 0.000000 
0.000000 0.000000 0.000000 

-0.000000 0.000000 0.000000 
0.000000 -0.000000 0.000000 
0.000000 0.000000 0.000000 

-0.000000 -0.000000 0.000000 
0.000000 0.000000 0.000000 
0.000000 0.000000 0.000000 

-0.000000 0.000000 0.000000 
0.000000 -0.000000 0.000000 
0.000000 0.000000 0.000000 

0.000000 -0.000000 0.000000 
0.000000 -0.000000 0.000000 
0.000000 0.000000 0.000000 

0.000000 0.000000 0.000000 
0.000000 -0.000000 0.000000 
0.000000 0.000000 0.000000 

0.000000 0.000000 0.000000 
0.000000 0.000000 0.000000 
0.000000 0.000000 0.000000 

-0.000000 -0.000000 0.000000 
0.000000 -0.000000 0.000000 
0.000000 0.000000 0.000000 

0.000000 0.000000 0.000000 
0.000000 0.000000 0.000000 
0.000000 0.000000 0.000000 

0.000000 0.000000 0.000000 
0.000000 0.000000 0.000000 
0.000000 0.000000 0.000000 

0.000000 0.000000 0.000000 
0.000000 -0.000000 0.000000 
0.000000 0.000000 0.000000 

0.000000 0.000000 0.000000 
0.000000 0.000000 0.000000 
0.000000 0.000000 0.000000 

0.000000 0.000000 0.000000 
0.000000 -0.000000 0.000000 
0.000000 0.000000 0.000000 

0.000000 -0.000000 0.000000 
0.000000 0.000000 0.000000 
0.000000 0.000000 0.000000 

0.000000 -0.000000 0.000000 
0.000000 -0.000000 0.000000 
0.000000 0.000000 0.000000 

0.000000 0.000000 0.000000 
0.000000 0.000000 0.000000 
0.000000 0.000000 0.000000 

0.000000 0.000000 0.000000 
0.000000 0.000000 0.000000 
0.000000 0.000000 0.000000 

0.000000 -0.000000 0.000000 
0.000000 0.000000 0.000000 
0.000000 0.000000 0.000000 

0.000000 -0.000000 0.000000 
0.000000 0.000000 0.000000 
0.000000 0.000000 0.000000 

0.000000 0.000000 0.000000 
0.000000 0.000000 0.000000 
0.000000 0.000000 0.000000 

0.000000 0.000000 0.000000 
0.000000 0.000000 0.000000 
0.000000 0.000000 0.000000 

0.000000 -0.000000 0.000000 
0.000000 0.000000 0.000000 
0.000000 0.000000 0.000000 

0.000000 0.000000 0.000000 
0.000000 0.000000 0.000000 
0.000000 0.000000 0.000000 

0.000000 -0.000000 0.000000 
0.000000 0.000000 0.000000 
0.000000 0.000000 0.000000 

-0.000000 -0.000000 0.000000 
0.000000 -0.000000 0.000000 
0.000000 0.000000 0.000000 

-0.000000 -0.000000 0.000000 
0.000000 0.000000 0.000000 
0.000000 0.000000 0.000000 

-0.000000 0.000000 0.000000 
0.000000 -0.000000 0.000000 
0.000000 0.000000 0.000000 

-0.000000 0.000000 0.000000 
0.000000 0.000000 0.000000 
0.000000 0.000000 0.000000 

-0.000000 0.000000 0.000000 
0.000000 -0.000000 0.000000 
0.000000 0.000000 0.000000 

0.000000 0.000000 0.000000 
0.000000 -0.000000 0.000000 
0.000000 0.000000 0.000000 

0.000000 -0.000000 0.000000 
0.000000 0.000000 0.000000 
0.000000 0.000000 0.000000 

0.000000 -0.000000 0.000000 
0.000000 0.000000 0.000000 
0.000000 0.000000 0.000000 

0.000000 0.000000 0.000000 
0.000000 -0.000000 0.000000 
0.000000 0.000000 0.000000 

-0.000000 -0.000000 0.000000 
0.000000 -0.000000 0.000000 
0.000000 0.000000 0.000000 

0.000000 -0.000000 0.000000 
0.000000 0.000000 0.000000 
0.000000 0.000000 0.000000 

0.000000 0.000000 0.000000 
0.000000 0.000000 0.000000 
0.000000 0.000000 0.000000 

0.000000 0.000000 0.000000 
0.000000 -0.000000 0.000000 
0.000000 0.000000 0.000000 

0.000000 0.000000 0.000000 
0.000000 0.000000 0.000000 
0.000000 0.000000 0.000000 

0.000000 0.000000 0.000000 
0.000000 0.000000 0.000000 
0.000000 0.000000 0.000000 

0.000000 0.000000 0.000000 
0.000000 0.000000 0.000000 
0.000000 0.000000 0.000000 

0.000000 -0.000000 0.000000 
0.000000 0.000000 0.000000 
0.000000 0.000000 0.000000 

0.000000 -0.000000 0.000000 
0.000000 0.000000 0.000000 
0.000000 0.000000 0.000000 

0.000000 0.000000 0.000000 
0.000000 0.000000 0.000000 
0.000000 0.000000 0.000000 

0.000000 -0.000000 0.000000 
0.000000 0.000000 0.000000 
0.000000 0.000000 0.000000 

-0.000000 -0.000000 0.000000 
0.000000 -0.000000 0.000000 
0.000000 0.000000 0.000000 

0.000000 -0.000000 0.000000 
0.000000 0.000000 0.000000 
0.000000 0.000000 0.000000 

0.000000 -0.000000 0.000000 
0.000000 0.000000 0.000000 
0.000000 0.000000 0.000000 

-0.000000 0.000000 0.000000 
0.000000 -0.000000 0.000000 
0.000000 0.000000 0.000000 

0.000000 0.000000 0.000000 
0.000000 -0.000000 0.000000 
0.000000 0.000000 0.000000 

0.000000 -0.000000 0.000000 
0.000000 0.000000 0.000000 
0.000000 0.000000 0.000000 

-0.000000 -0.000000 0.000000 
0.000000 -0.000000 0.000000 
0.000000 0.000000 0.000000 

-0.000000 0.000000 0.000000 
0.000000 0.000000 0.000000 
0.000000 0.000000 0.000000 

-0.000000 0.000000 0.000000 
0.000000 0.000000 0.000000 
0.000000 0.000000 0.000000 

-0.000000 -0.000000 0.000000 
0.000000 0.000000 0.000000 
0.000000 0.000000 0.000000 

TENSORS STRAIN float 
0.000000 0.000000 0.000000 
0.000000 -0.000000 0.000000 
0.000000 0.000000 0.000000 

-0.000000 -0.000000 0.000000 
0.000000 0.000000 0.000000 
0.000000 0.000000 0.000000 

0.000000 -0.000000 0.000000 
0.000000 -0.000000 0.000000 
0.000000 0.000000 0.000000 

0.000000 -0.000000 0.000000 
0.000000 -0.000000 0.000000 
0.000000 0.000000 0.000000 

-0.000000 -0.000000 0.000000 
0.000000 -0.000000 0.000000 
0.000000 0.000000 0.000000 

-0.000000 -0.000000 0.000000 
0.000000 0.000000 0.000000 
0.000000 0.000000 0.000000 

0.000000 -0.000000 0.000000 
0.000000 0.000000 0.000000 
0.000000 0.000000 0.000000 

0.000000 -0.000000 0.000000 
0.000000 -0.000000 0.000000 
0.000000 0.000000 0.000000 

0.000000 0.000000 0.000000 
0.000000 -0.000000 0.000000 
0.000000 0.000000 0.000000 

-0.000000 -0.000000 0.000000 
0.000000 -0.000000 0.000000 
0.000000 0.000000 0.000000 

0.000000 -0.000000 0.000000 
0.000000 -0.000000 0.000000 
0.000000 0.000000 0.000000 

0.000000 0.000000 0.000000 
0.000000 0.000000 0.000000 
0.000000 0.000000 0.000000 

0.000000 -0.000000 0.000000 
0.000000 -0.000000 0.000000 
0.000000 0.000000 0.000000 

0.000000 -0.000000 0.000000 
0.000000 0.000000 0.000000 
0.000000 0.000000 0.000000 

-0.000000 -0.000000 0.000000 
0.000000 -0.000000 0.000000 
0.000000 0.000000 0.000000 

0.000000 -0.000000 0.000000 
0.000000 0.000000 0.000000 
0.000000 0.000000 0.000000 

0.000000 0.000000 0.000000 
0.000000 0.000000 0.000000 
0.000000 0.000000 0.000000 

0.000000 0.000000 0.000000 
0.000000 0.000000 0.000000 
0.000000 0.000000 0.000000 

-0.000000 -0.000000 0.000000 
0.000000 0.000000 0.000000 
0.000000 0.000000 0.000000 

0.000000 -0.000000 0.000000 
0.000000 -0.000000 0.000000 
0.000000 0.000000 0.000000 

-0.000000 0.000000 0.000000 
0.000000 0.000000 0.000000 
0.000000 0.000000 0.000000 

-0.000000 -0.000000 0.000000 
0.000000 0.000000 0.000000 
0.000000 0.000000 0.000000 

0.000000 0.000000 0.000000 
0.000000 0.000000 0.000000 
0.000000 0.000000 0.000000 

0.000000 -0.000000 0.000000 
0.000000 0.000000 0.000000 
0.000000 0.000000 0.000000 

0.000000 0.000000 0.000000 
0.000000 -0.000000 0.000000 
0.000000 0.000000 0.000000 

0.000000 0.000000 0.000000 
0.000000 0.000000 0.000000 
0.000000 0.000000 0.000000 

0.000000 -0.000000 0.000000 
0.000000 -0.000000 0.000000 
0.000000 0.000000 0.000000 

0.000000 0.000000 0.000000 
0.000000 0.000000 0.000000 
0.000000 0.000000 0.000000 

-0.000000 0.000000 0.000000 
0.000000 -0.000000 0.000000 
0.000000 0.000000 0.000000 

-0.000000 0.000000 0.000000 
0.000000 -0.000000 0.000000 
0.000000 0.000000 0.000000 

0.000000 0.000000 0.000000 
0.000000 0.000000 0.000000 
0.000000 0.000000 0.000000 

0.000000 -0.000000 0.000000 
0.000000 -0.000000 0.000000 
0.000000 0.000000 0.000000 

0.000000 -0.000000 0.000000 
0.000000 0.000000 0.000000 
0.000000 0.000000 0.000000 

-0.000000 -0.000000 0.000000 
0.000000 0.000000 0.000000 
0.000000 0.000000 0.000000 

-0.000000 -0.000000 0.000000 
0.000000 -0.000000 0.000000 
0.000000 0.000000 0.000000 

-0.000000 0.000000 0.000000 
0.000000 0.000000 0.000000 
0.000000 0.000000 0.000000 

0.000000 -0.000000 0.000000 
0.000000 -0.000000 0.000000 
0.000000 0.000000 0.000000 

0.000000 0.000000 0.000000 
0.000000 -0.000000 0.000000 
0.000000 0.000000 0.000000 

0.000000 0.000000 0.000000 
0.000000 0.000000 0.000000 
0.000000 0.000000 0.000000 

0.000000 0.000000 0.000000 
0.000000 -0.000000 0.000000 
0.000000 0.000000 0.000000 

-0.000000 0.000000 0.000000 
0.000000 0.000000 0.000000 
0.000000 0.000000 0.000000 

0.000000 0.000000 0.000000 
0.000000 -0.000000 0.000000 
0.000000 0.000000 0.000000 

0.000000 0.000000 0.000000 
0.000000 0.000000 0.000000 
0.000000 0.000000 0.000000 

0.000000 -0.000000 0.000000 
0.000000 -0.000000 0.000000 
0.000000 0.000000 0.000000 

0.000000 0.000000 0.000000 
0.000000 0.000000 0.000000 
0.000000 0.000000 0.000000 

-0.000000 0.000000 0.000000 
0.000000 -0.000000 0.000000 
0.000000 0.000000 0.000000 

0.000000 0.000000 0.000000 
0.000000 -0.000000 0.000000 
0.000000 0.000000 0.000000 

0.000000 0.000000 0.000000 
0.000000 0.000000 0.000000 
0.000000 0.000000 0.000000 

-0.000000 -0.000000 0.000000 
0.000000 -0.000000 0.000000 
0.000000 0.000000 0.000000 

-0.000000 -0.000000 0.000000 
0.000000 -0.000000 0.000000 
0.000000 0.000000 0.000000 

0.000000 -0.000000 0.000000 
0.000000 0.000000 0.000000 
0.000000 0.000000 0.000000 

0.000000 0.000000 0.000000 
0.000000 -0.000000 0.000000 
0.000000 0.000000 0.000000 

0.000000 -0.000000 0.000000 
0.000000 0.000000 0.000000 
0.000000 0.000000 0.000000 

0.000000 0.000000 0.000000 
0.000000 0.000000 0.000000 
0.000000 0.000000 0.000000 

0.000000 -0.000000 0.000000 
0.000000 -0.000000 0.000000 
0.000000 0.000000 0.000000 

0.000000 0.000000 0.000000 
0.000000 -0.000000 0.000000 
0.000000 0.000000 0.000000 

0.000000 0.000000 0.000000 
0.000000 0.000000 0.000000 
0.000000 0.000000 0.000000 

0.000000 0.000000 0.000000 
0.000000 -0.000000 0.000000 
0.000000 0.000000 0.000000 

-0.000000 -0.000000 0.000000 
0.000000 0.000000 0.000000 
0.000000 0.000000 0.000000 

0.000000 -0.000000 0.000000 
0.000000 -0.000000 0.000000 
0.000000 0.000000 0.000000 

0.000000 0.000000 0.000000 
0.000000 0.000000 0.000000 
0.000000 0.000000 0.000000 

-0.000000 0.000000 0.000000 
0.000000 0.000000 0.000000 
0.000000 0.000000 0.000000 

-0.000000 0.000000 0.000000 
0.000000 0.000000 0.000000 
0.000000 0.000000 0.000000 

-0.000000 -0.000000 0.000000 
0.000000 0.000000 0.000000 
0.000000 0.000000 0.000000 

0.000000 -0.000000 0.000000 
0.000000 -0.000000 0.000000 
0.000000 0.000000 0.000000 

-0.000000 -0.000000 0.000000 
0.000000 -0.000000 0.000000 
0.000000 0.000000 0.000000 

0.000000 -0.000000 0.000000 
0.000000 -0.000000 0.000000 
0.000000 0.000000 0.000000 

0.000000 0.000000 0.000000 
0.000000 -0.000000 0.000000 
0.000000 0.000000 0.000000 

0.000000 0.000000 0.000000 
0.000000 -0.000000 0.000000 
0.000000 0.000000 0.000000 

0.000000 -0.000000 0.000000 
0.000000 0.000000 0.000000 
0.000000 0.000000 0.000000 

0.000000 0.000000 0.000000 
0.000000 -0.000000 0.000000 
0.000000 0.000000 0.000000 

-0.000000 -0.000000 0.000000 
0.000000 -0.000000 0.000000 
0.000000 0.000000 0.000000 

0.000000 -0.000000 0.000000 
0.000000 -0.000000 0.000000 
0.000000 0.000000 0.000000 

0.000000 -0.000000 0.000000 
0.000000 -0.000000 0.000000 
0.000000 0.000000 0.000000 

0.000000 0.000000 0.000000 
0.000000 0.000000 0.000000 
0.000000 0.000000 0.000000 

0.000000 -0.000000 0.000000 
0.000000 -0.000000 0.000000 
0.000000 0.000000 0.000000 

-0.000000 -0.000000 0.000000 
0.000000 -0.000000 0.000000 
0.000000 0.000000 0.000000 

0.000000 -0.000000 0.000000 
0.000000 -0.000000 0.000000 
0.000000 0.000000 0.000000 

-0.000000 -0.000000 0.000000 
0.000000 0.000000 0.000000 
0.000000 0.000000 0.000000 

-0.000000 -0.000000 0.000000 
0.000000 -0.000000 0.000000 
0.000000 0.000000 0.000000 

0.000000 -0.000000 0.000000 
0.000000 -0.000000 0.000000 
0.000000 0.000000 0.000000 

-0.000000 0.000000 0.000000 
0.000000 -0.000000 0.000000 
0.000000 0.000000 0.000000 

0.000000 -0.000000 0.000000 
0.000000 -0.000000 0.000000 
0.000000 0.000000 0.000000 

0.000000 -0.000000 0.000000 
0.000000 0.000000 0.000000 
0.000000 0.000000 0.000000 

-0.000000 0.000000 0.000000 
0.000000 -0.000000 0.000000 
0.000000 0.000000 0.000000 

0.000000 0.000000 0.000000 
0.000000 -0.000000 0.000000 
0.000000 0.000000 0.000000 

-0.000000 -0.000000 0.000000 
0.000000 0.000000 0.000000 
0.000000 0.000000 0.000000 

-0.000000 -0.000000 0.000000 
0.000000 -0.000000 0.000000 
0.000000 0.000000 0.000000 

-0.000000 0.000000 0.000000 
0.000000 0.000000 0.000000 
0.000000 0.000000 0.000000 

0.000000 -0.000000 0.000000 
0.000000 -0.000000 0.000000 
0.000000 0.000000 0.000000 

0.000000 -0.000000 0.000000 
0.000000 0.000000 0.000000 
0.000000 0.000000 0.000000 

-0.000000 -0.000000 0.000000 
0.000000 0.000000 0.000000 
0.000000 0.000000 0.000000 

-0.000000 -0.000000 0.000000 
0.000000 -0.000000 0.000000 
0.000000 0.000000 0.000000 

-0.000000 -0.000000 0.000000 
0.000000 -0.000000 0.000000 
0.000000 0.000000 0.000000 

0.000000 0.000000 0.000000 
0.000000 -0.000000 0.000000 
0.000000 0.000000 0.000000 

0.000000 0.000000 0.000000 
0.000000 0.000000 0.000000 
0.000000 0.000000 0.000000 

0.000000 0.000000 0.000000 
0.000000 -0.000000 0.000000 
0.000000 0.000000 0.000000 

0.000000 0.000000 0.000000 
0.000000 0.000000 0.000000 
0.000000 0.000000 0.000000 

0.000000 -0.000000 0.000000 
0.000000 -0.000000 0.000000 
0.000000 0.000000 0.000000 

0.000000 0.000000 0.000000 
0.000000 0.000000 0.000000 
0.000000 0.000000 0.000000 

0.000000 -0.000000 0.000000 
0.000000 0.000000 0.000000 
0.000000 0.000000 0.000000 

0.000000 0.000000 0.000000 
0.000000 -0.000000 0.000000 
0.000000 0.000000 0.000000 

0.000000 0.000000 0.000000 
0.000000 -0.000000 0.000000 
0.000000 0.000000 0.000000 

0.000000 -0.000000 0.000000 
0.000000 0.000000 0.000000 
0.000000 0.000000 0.000000 

0.000000 0.000000 0.000000 
0.000000 0.000000 0.000000 
0.000000 0.000000 0.000000 

0.000000 -0.000000 0.000000 
0.000000 0.000000 0.000000 
0.000000 0.000000 0.000000 

-0.000000 -0.000000 0.000000 
0.000000 0.000000 0.000000 
0.000000 0.000000 0.000000 

-0.000000 -0.000000 0.000000 
0.000000 -0.000000 0.000000 
0.000000 0.000000 0.000000 

0.000000 -0.000000 0.000000 
0.000000 -0.000000 0.000000 
0.000000 0.000000 0.000000 

0.000000 0.000000 0.000000 
0.000000 -0.000000 0.000000 
0.000000 0.000000 0.000000 

0.000000 -0.000000 0.000000 
0.000000 0.000000 0.000000 
0.000000 0.000000 0.000000 

-0.000000 0.000000 0.000000 
0.000000 -0.000000 0.000000 
0.000000 0.000000 0.000000 

-0.000000 0.000000 0.000000 
0.000000 0.000000 0.000000 
0.000000 0.000000 0.000000 

0.000000 -0.000000 0.000000 
0.000000 -0.000000 0.000000 
0.000000 0.000000 0.000000 

0.000000 -0.000000 0.000000 
0.000000 -0.000000 0.000000 
0.000000 0.000000 0.000000 

0.000000 0.000000 0.000000 
0.000000 -0.000000 0.000000 
0.000000 0.000000 0.000000 

-0.000000 0.000000 0.000000 
0.000000 -0.000000 0.000000 
0.000000 0.000000 0.000000 

0.000000 0.000000 0.000000 
0.000000 -0.000000 0.000000 
0.000000 0.000000 0.000000 

-0.000000 0.000000 0.000000 
0.000000 0.000000 0.000000 
0.000000 0.000000 0.000000 

-0.000000 -0.000000 0.000000 
0.000000 -0.000000 0.000000 
0.000000 0.000000 0.000000 

0.000000 0.000000 0.000000 
0.000000 -0.000000 0.000000 
0.000000 0.000000 0.000000 

0.000000 0.000000 0.000000 
0.000000 0.000000 0.000000 
0.000000 0.000000 0.000000 

-0.000000 0.000000 0.000000 
0.000000 -0.000000 0.000000 
0.000000 0.000000 0.000000 

-0.000000 -0.000000 0.000000 
0.000000 0.000000 0.000000 
0.000000 0.000000 0.000000 

-0.000000 0.000000 0.000000 
0.000000 -0.000000 0.000000 
0.000000 0.000000 0.000000 

0.000000 -0.000000 0.000000 
0.000000 -0.000000 0.000000 
0.000000 0.000000 0.000000 

0.000000 0.000000 0.000000 
0.000000 -0.000000 0.000000 
0.000000 0.000000 0.000000 

0.000000 0.000000 0.000000 
0.000000 0.000000 0.000000 
0.000000 0.000000 0.000000 

0.000000 -0.000000 0.000000 
0.000000 -0.000000 0.000000 
0.000000 0.000000 0.000000 

0.000000 0.000000 0.000000 
0.000000 0.000000 0.000000 
0.000000 0.000000 0.000000 

0.000000 0.000000 0.000000 
0.000000 0.000000 0.000000 
0.000000 0.000000 0.000000 

0.000000 0.000000 0.000000 
0.000000 -0.000000 0.000000 
0.000000 0.000000 0.000000 

0.000000 0.000000 0.000000 
0.000000 0.000000 0.000000 
0.000000 0.000000 0.000000 

0.000000 0.000000 0.000000 
0.000000 -0.000000 0.000000 
0.000000 0.000000 0.000000 

0.000000 -0.000000 0.000000 
0.000000 0.000000 0.000000 
0.000000 0.000000 0.000000 

0.000000 -0.000000 0.000000 
0.000000 -0.000000 0.000000 
0.000000 0.000000 0.000000 

0.000000 0.000000 0.000000 
0.000000 -0.000000 0.000000 
0.000000 0.000000 0.000000 

0.000000 0.000000 0.000000 
0.000000 0.000000 0.000000 
0.000000 0.000000 0.000000 

0.000000 -0.000000 0.000000 
0.000000 0.000000 0.000000 
0.000000 0.000000 0.000000 

0.000000 -0.000000 0.000000 
0.000000 -0.000000 0.000000 
0.000000 0.000000 0.000000 

0.000000 0.000000 0.000000 
0.000000 0.000000 0.000000 
0.000000 0.000000 0.000000 

0.000000 0.000000 0.000000 
0.000000 0.000000 0.000000 
0.000000 0.000000 0.000000 

0.000000 -0.000000 0.000000 
0.000000 0.000000 0.000000 
0.000000 0.000000 0.000000 

-0.000000 0.000000 0.000000 
0.000000 0.000000 0.000000 
0.000000 0.000000 0.000000 

-0.000000 -0.000000 0.000000 
0.000000 0.000000 0.000000 
0.000000 0.000000 0.000000 

-0.000000 -0.000000 0.000000 
0.000000 -0.000000 0.000000 
0.000000 0.000000 0.000000 

-0.000000 -0.000000 0.000000 
0.000000 0.000000 0.000000 
0.000000 0.000000 0.000000 

-0.000000 0.000000 0.000000 
0.000000 -0.000000 0.000000 
0.000000 0.000000 0.000000 

-0.000000 0.000000 0.000000 
0.000000 0.000000 0.000000 
0.000000 0.000000 0.000000 

-0.000000 0.000000 0.000000 
0.000000 -0.000000 0.000000 
0.000000 0.000000 0.000000 

0.000000 0.000000 0.000000 
0.000000 -0.000000 0.000000 
0.000000 0.000000 0.000000 

0.000000 -0.000000 0.000000 
0.000000 0.000000 0.000000 
0.000000 0.000000 0.000000 

0.000000 -0.000000 0.000000 
0.000000 -0.000000 0.000000 
0.000000 0.000000 0.000000 

0.000000 0.000000 0.000000 
0.000000 -0.000000 0.000000 
0.000000 0.000000 0.000000 

0.000000 -0.000000 0.000000 
0.000000 -0.000000 0.000000 
0.000000 0.000000 0.000000 

0.000000 -0.000000 0.000000 
0.000000 0.000000 0.000000 
0.000000 0.000000 0.000000 

0.000000 0.000000 0.000000 
0.000000 0.000000 0.000000 
0.000000 0.000000 0.000000 

0.000000 0.000000 0.000000 
0.000000 -0.000000 0.000000 
0.000000 0.000000 0.000000 

0.000000 0.000000 0.000000 
0.000000 0.000000 0.000000 
0.000000 0.000000 0.000000 

0.000000 0.000000 0.000000 
0.000000 0.000000 0.000000 
0.000000 0.000000 0.000000 

-0.000000 0.000000 0.000000 
0.000000 0.000000 0.000000 
0.000000 0.000000 0.000000 

0.000000 -0.000000 0.000000 
0.000000 0.000000 0.000000 
0.000000 0.000000 0.000000 

0.000000 -0.000000 0.000000 
0.000000 0.000000 0.000000 
0.000000 0.000000 0.000000 

0.000000 0.000000 0.000000 
0.000000 0.000000 0.000000 
0.000000 0.000000 0.000000 

0.000000 -0.000000 0.000000 
0.000000 0.000000 0.000000 
0.000000 0.000000 0.000000 

0.000000 -0.000000 0.000000 
0.000000 -0.000000 0.000000 
0.000000 0.000000 0.000000 

0.000000 -0.000000 0.000000 
0.000000 -0.000000 0.000000 
0.000000 0.000000 0.000000 

0.000000 -0.000000 0.000000 
0.000000 0.000000 0.000000 
0.000000 0.000000 0.000000 

0.000000 0.000000 0.000000 
0.000000 -0.000000 0.000000 
0.000000 0.000000 0.000000 

0.000000 0.000000 0.000000 
0.000000 -0.000000 0.000000 
0.000000 0.000000 0.000000 

0.000000 -0.000000 0.000000 
0.000000 0.000000 0.000000 
0.000000 0.000000 0.000000 

0.000000 -0.000000 0.000000 
0.000000 -0.000000 0.000000 
0.000000 0.000000 0.000000 

-0.000000 0.000000 0.000000 
0.000000 0.000000 0.000000 
0.000000 0.000000 0.000000 

-0.000000 0.000000 0.000000 
0.000000 0.000000 0.000000 
0.000000 0.000000 0.000000 

-0.000000 -0.000000 0.000000 
0.000000 0.000000 0.000000 
0.000000 0.000000 0.000000 

