# vtk DataFile Version 3.0 
vtk output 
ASCII 
DATASET UNSTRUCTURED_GRID 
POINTS 175 float 
-0.026061 0.029167 0.000000 
-0.106992 0.097222 0.000000 
-0.054870 0.088990 0.000000 
-0.028809 0.134873 0.000000 
-0.186430 0.161298 0.000000 
-0.137056 0.158772 0.000000 
-0.114311 0.212419 0.000000 
-0.058186 0.196753 0.000000 
-0.029377 0.236930 0.000000 
-0.265318 0.224454 0.000000 
-0.217198 0.223654 0.000000 
-0.196633 0.280951 0.000000 
-0.143120 0.272242 0.000000 
-0.116563 0.319510 0.000000 
-0.058945 0.299865 0.000000 
-0.029568 0.337985 0.000000 
-0.344206 0.287609 0.000000 
-0.296791 0.287617 0.000000 
-0.278030 0.347559 0.000000 
-0.225992 0.341693 0.000000 
-0.201664 0.393810 0.000000 
-0.145749 0.380336 0.000000 
-0.117890 0.424679 0.000000 
-0.059328 0.401973 0.000000 
-0.029759 0.439039 0.000000 
-0.058559 -0.011584 0.000000 
-0.162226 -0.032427 0.000000 
-0.123292 0.003191 0.000000 
-0.142917 0.052175 0.000000 
-0.261851 -0.054583 0.000000 
-0.229092 -0.017556 0.000000 
-0.256854 0.033676 0.000000 
-0.209613 0.067788 0.000000 
-0.223062 0.115362 0.000000 
-0.360414 -0.076883 0.000000 
-0.329787 -0.039760 0.000000 
-0.361761 0.012042 0.000000 
-0.321587 0.048451 0.000000 
-0.341985 0.098685 0.000000 
-0.290702 0.131484 0.000000 
-0.302189 0.178219 0.000000 
-0.458977 -0.099183 0.000000 
-0.429420 -0.062108 0.000000 
-0.464588 -0.010067 0.000000 
-0.427556 0.026961 0.000000 
-0.453135 0.078476 0.000000 
-0.407738 0.113791 0.000000 
-0.425037 0.163219 0.000000 
-0.370772 0.194848 0.000000 
-0.381315 0.241076 0.000000 
-0.046960 -0.062399 0.000000 
-0.095301 -0.156445 0.000000 
-0.098873 -0.103798 0.000000 
-0.149405 -0.088600 0.000000 
-0.140093 -0.248149 0.000000 
-0.148617 -0.199451 0.000000 
-0.205981 -0.189214 0.000000 
-0.203197 -0.131010 0.000000 
-0.248777 -0.111864 0.000000 
-0.184111 -0.339113 0.000000 
-0.194039 -0.292022 0.000000 
-0.254475 -0.284722 0.000000 
-0.257893 -0.230612 0.000000 
-0.309886 -0.215240 0.000000 
-0.303554 -0.154695 0.000000 
-0.347255 -0.134537 0.000000 
-0.228129 -0.430076 0.000000 
-0.238687 -0.383852 0.000000 
-0.301302 -0.378900 0.000000 
-0.307162 -0.326861 0.000000 
-0.363386 -0.314740 0.000000 
-0.362692 -0.257229 0.000000 
-0.412122 -0.239936 0.000000 
-0.403017 -0.177789 0.000000 
-0.445733 -0.157210 0.000000 
-0.000000 -0.085014 0.000000 
0.043388 -0.181445 0.000000 
-0.000000 -0.151412 0.000000 
-0.043388 -0.181445 0.000000 
0.087158 -0.273641 0.000000 
0.043769 -0.249943 0.000000 
-0.000000 -0.288409 0.000000 
-0.043769 -0.249943 0.000000 
-0.087158 -0.273641 0.000000 
0.130831 -0.364771 0.000000 
0.087824 -0.343172 0.000000 
0.044436 -0.385872 0.000000 
-0.000000 -0.354807 0.000000 
-0.044436 -0.385872 0.000000 
-0.087824 -0.343172 0.000000 
-0.130831 -0.364771 0.000000 
0.174505 -0.455901 0.000000 
0.131782 -0.435335 0.000000 
0.088871 -0.481201 0.000000 
0.044532 -0.453337 0.000000 
-0.000000 -0.489737 0.000000 
-0.044532 -0.453337 0.000000 
-0.088871 -0.481201 0.000000 
-0.131782 -0.435335 0.000000 
-0.174505 -0.455901 0.000000 
0.046960 -0.062399 0.000000 
0.149405 -0.088600 0.000000 
0.098873 -0.103798 0.000000 
0.095301 -0.156445 0.000000 
0.248777 -0.111864 0.000000 
0.203197 -0.131010 0.000000 
0.205981 -0.189214 0.000000 
0.148617 -0.199451 0.000000 
0.140093 -0.248149 0.000000 
0.347255 -0.134537 0.000000 
0.303554 -0.154695 0.000000 
0.309886 -0.215240 0.000000 
0.257893 -0.230612 0.000000 
0.254475 -0.284722 0.000000 
0.194039 -0.292022 0.000000 
0.184111 -0.339113 0.000000 
0.445733 -0.157210 0.000000 
0.403017 -0.177789 0.000000 
0.412122 -0.239936 0.000000 
0.362692 -0.257229 0.000000 
0.363386 -0.314740 0.000000 
0.307162 -0.326861 0.000000 
0.301302 -0.378900 0.000000 
0.238687 -0.383852 0.000000 
0.228129 -0.430076 0.000000 
0.058559 -0.011584 0.000000 
0.142917 0.052175 0.000000 
0.123292 0.003191 0.000000 
0.162226 -0.032427 0.000000 
0.223062 0.115362 0.000000 
0.209613 0.067788 0.000000 
0.256854 0.033676 0.000000 
0.229092 -0.017556 0.000000 
0.261851 -0.054583 0.000000 
0.302189 0.178219 0.000000 
0.290702 0.131484 0.000000 
0.341985 0.098685 0.000000 
0.321587 0.048451 0.000000 
0.361761 0.012042 0.000000 
0.329787 -0.039760 0.000000 
0.360414 -0.076883 0.000000 
0.381315 0.241076 0.000000 
0.370772 0.194848 0.000000 
0.425037 0.163219 0.000000 
0.407738 0.113791 0.000000 
0.453135 0.078476 0.000000 
0.427556 0.026961 0.000000 
0.464588 -0.010067 0.000000 
0.429420 -0.062108 0.000000 
0.458977 -0.099183 0.000000 
0.026061 0.029167 0.000000 
0.028809 0.134873 0.000000 
0.054870 0.088990 0.000000 
0.106992 0.097222 0.000000 
0.029377 0.236930 0.000000 
0.058186 0.196753 0.000000 
0.114311 0.212419 0.000000 
0.137056 0.158772 0.000000 
0.186430 0.161298 0.000000 
0.029568 0.337985 0.000000 
0.058945 0.299865 0.000000 
0.116563 0.319510 0.000000 
0.143120 0.272242 0.000000 
0.196633 0.280951 0.000000 
0.217198 0.223654 0.000000 
0.265318 0.224454 0.000000 
0.029759 0.439039 0.000000 
0.059328 0.401973 0.000000 
0.117890 0.424679 0.000000 
0.145749 0.380336 0.000000 
0.201664 0.393810 0.000000 
0.225992 0.341693 0.000000 
0.278030 0.347559 0.000000 
0.296791 0.287617 0.000000 
0.344206 0.287609 0.000000 
CELLS 175 350 
1 0 
1 1 
1 2 
1 3 
1 4 
1 5 
1 6 
1 7 
1 8 
1 9 
1 10 
1 11 
1 12 
1 13 
1 14 
1 15 
1 16 
1 17 
1 18 
1 19 
1 20 
1 21 
1 22 
1 23 
1 24 
1 25 
1 26 
1 27 
1 28 
1 29 
1 30 
1 31 
1 32 
1 33 
1 34 
1 35 
1 36 
1 37 
1 38 
1 39 
1 40 
1 41 
1 42 
1 43 
1 44 
1 45 
1 46 
1 47 
1 48 
1 49 
1 50 
1 51 
1 52 
1 53 
1 54 
1 55 
1 56 
1 57 
1 58 
1 59 
1 60 
1 61 
1 62 
1 63 
1 64 
1 65 
1 66 
1 67 
1 68 
1 69 
1 70 
1 71 
1 72 
1 73 
1 74 
1 75 
1 76 
1 77 
1 78 
1 79 
1 80 
1 81 
1 82 
1 83 
1 84 
1 85 
1 86 
1 87 
1 88 
1 89 
1 90 
1 91 
1 92 
1 93 
1 94 
1 95 
1 96 
1 97 
1 98 
1 99 
1 100 
1 101 
1 102 
1 103 
1 104 
1 105 
1 106 
1 107 
1 108 
1 109 
1 110 
1 111 
1 112 
1 113 
1 114 
1 115 
1 116 
1 117 
1 118 
1 119 
1 120 
1 121 
1 122 
1 123 
1 124 
1 125 
1 126 
1 127 
1 128 
1 129 
1 130 
1 131 
1 132 
1 133 
1 134 
1 135 
1 136 
1 137 
1 138 
1 139 
1 140 
1 141 
1 142 
1 143 
1 144 
1 145 
1 146 
1 147 
1 148 
1 149 
1 150 
1 151 
1 152 
1 153 
1 154 
1 155 
1 156 
1 157 
1 158 
1 159 
1 160 
1 161 
1 162 
1 163 
1 164 
1 165 
1 166 
1 167 
1 168 
1 169 
1 170 
1 171 
1 172 
1 173 
1 174 
CELL_TYPES 175 
1 
1 
1 
1 
1 
1 
1 
1 
1 
1 
1 
1 
1 
1 
1 
1 
1 
1 
1 
1 
1 
1 
1 
1 
1 
1 
1 
1 
1 
1 
1 
1 
1 
1 
1 
1 
1 
1 
1 
1 
1 
1 
1 
1 
1 
1 
1 
1 
1 
1 
1 
1 
1 
1 
1 
1 
1 
1 
1 
1 
1 
1 
1 
1 
1 
1 
1 
1 
1 
1 
1 
1 
1 
1 
1 
1 
1 
1 
1 
1 
1 
1 
1 
1 
1 
1 
1 
1 
1 
1 
1 
1 
1 
1 
1 
1 
1 
1 
1 
1 
1 
1 
1 
1 
1 
1 
1 
1 
1 
1 
1 
1 
1 
1 
1 
1 
1 
1 
1 
1 
1 
1 
1 
1 
1 
1 
1 
1 
1 
1 
1 
1 
1 
1 
1 
1 
1 
1 
1 
1 
1 
1 
1 
1 
1 
1 
1 
1 
1 
1 
1 
1 
1 
1 
1 
1 
1 
1 
1 
1 
1 
1 
1 
1 
1 
1 
1 
1 
1 
1 
1 
1 
1 
1 
1 
POINT_DATA 175 
VECTORS X_GC float 
-0.026061 0.029167 0.000000 
-0.106992 0.097222 0.000000 
-0.054870 0.088990 0.000000 
-0.028809 0.134873 0.000000 
-0.186430 0.161298 0.000000 
-0.137056 0.158772 0.000000 
-0.114311 0.212419 0.000000 
-0.058186 0.196753 0.000000 
-0.029377 0.236930 0.000000 
-0.265318 0.224454 0.000000 
-0.217198 0.223654 0.000000 
-0.196633 0.280951 0.000000 
-0.143120 0.272242 0.000000 
-0.116563 0.319510 0.000000 
-0.058945 0.299865 0.000000 
-0.029568 0.337985 0.000000 
-0.344206 0.287609 0.000000 
-0.296791 0.287617 0.000000 
-0.278030 0.347559 0.000000 
-0.225992 0.341693 0.000000 
-0.201664 0.393810 0.000000 
-0.145749 0.380336 0.000000 
-0.117890 0.424679 0.000000 
-0.059328 0.401973 0.000000 
-0.029759 0.439039 0.000000 
-0.058559 -0.011584 0.000000 
-0.162226 -0.032427 0.000000 
-0.123292 0.003191 0.000000 
-0.142917 0.052175 0.000000 
-0.261851 -0.054583 0.000000 
-0.229092 -0.017556 0.000000 
-0.256854 0.033676 0.000000 
-0.209613 0.067788 0.000000 
-0.223062 0.115362 0.000000 
-0.360414 -0.076883 0.000000 
-0.329787 -0.039760 0.000000 
-0.361761 0.012042 0.000000 
-0.321587 0.048451 0.000000 
-0.341985 0.098685 0.000000 
-0.290702 0.131484 0.000000 
-0.302189 0.178219 0.000000 
-0.458977 -0.099183 0.000000 
-0.429420 -0.062108 0.000000 
-0.464588 -0.010067 0.000000 
-0.427556 0.026961 0.000000 
-0.453135 0.078476 0.000000 
-0.407738 0.113791 0.000000 
-0.425037 0.163219 0.000000 
-0.370772 0.194848 0.000000 
-0.381315 0.241076 0.000000 
-0.046960 -0.062399 0.000000 
-0.095301 -0.156445 0.000000 
-0.098873 -0.103798 0.000000 
-0.149405 -0.088600 0.000000 
-0.140093 -0.248149 0.000000 
-0.148617 -0.199451 0.000000 
-0.205981 -0.189214 0.000000 
-0.203197 -0.131010 0.000000 
-0.248777 -0.111864 0.000000 
-0.184111 -0.339113 0.000000 
-0.194039 -0.292022 0.000000 
-0.254475 -0.284722 0.000000 
-0.257893 -0.230612 0.000000 
-0.309886 -0.215240 0.000000 
-0.303554 -0.154695 0.000000 
-0.347255 -0.134537 0.000000 
-0.228129 -0.430076 0.000000 
-0.238687 -0.383852 0.000000 
-0.301302 -0.378900 0.000000 
-0.307162 -0.326861 0.000000 
-0.363386 -0.314740 0.000000 
-0.362692 -0.257229 0.000000 
-0.412122 -0.239936 0.000000 
-0.403017 -0.177789 0.000000 
-0.445733 -0.157210 0.000000 
-0.000000 -0.085014 0.000000 
0.043388 -0.181445 0.000000 
-0.000000 -0.151412 0.000000 
-0.043388 -0.181445 0.000000 
0.087158 -0.273641 0.000000 
0.043769 -0.249943 0.000000 
-0.000000 -0.288409 0.000000 
-0.043769 -0.249943 0.000000 
-0.087158 -0.273641 0.000000 
0.130831 -0.364771 0.000000 
0.087824 -0.343172 0.000000 
0.044436 -0.385872 0.000000 
-0.000000 -0.354807 0.000000 
-0.044436 -0.385872 0.000000 
-0.087824 -0.343172 0.000000 
-0.130831 -0.364771 0.000000 
0.174505 -0.455901 0.000000 
0.131782 -0.435335 0.000000 
0.088871 -0.481201 0.000000 
0.044532 -0.453337 0.000000 
-0.000000 -0.489737 0.000000 
-0.044532 -0.453337 0.000000 
-0.088871 -0.481201 0.000000 
-0.131782 -0.435335 0.000000 
-0.174505 -0.455901 0.000000 
0.046960 -0.062399 0.000000 
0.149405 -0.088600 0.000000 
0.098873 -0.103798 0.000000 
0.095301 -0.156445 0.000000 
0.248777 -0.111864 0.000000 
0.203197 -0.131010 0.000000 
0.205981 -0.189214 0.000000 
0.148617 -0.199451 0.000000 
0.140093 -0.248149 0.000000 
0.347255 -0.134537 0.000000 
0.303554 -0.154695 0.000000 
0.309886 -0.215240 0.000000 
0.257893 -0.230612 0.000000 
0.254475 -0.284722 0.000000 
0.194039 -0.292022 0.000000 
0.184111 -0.339113 0.000000 
0.445733 -0.157210 0.000000 
0.403017 -0.177789 0.000000 
0.412122 -0.239936 0.000000 
0.362692 -0.257229 0.000000 
0.363386 -0.314740 0.000000 
0.307162 -0.326861 0.000000 
0.301302 -0.378900 0.000000 
0.238687 -0.383852 0.000000 
0.228129 -0.430076 0.000000 
0.058559 -0.011584 0.000000 
0.142917 0.052175 0.000000 
0.123292 0.003191 0.000000 
0.162226 -0.032427 0.000000 
0.223062 0.115362 0.000000 
0.209613 0.067788 0.000000 
0.256854 0.033676 0.000000 
0.229092 -0.017556 0.000000 
0.261851 -0.054583 0.000000 
0.302189 0.178219 0.000000 
0.290702 0.131484 0.000000 
0.341985 0.098685 0.000000 
0.321587 0.048451 0.000000 
0.361761 0.012042 0.000000 
0.329787 -0.039760 0.000000 
0.360414 -0.076883 0.000000 
0.381315 0.241076 0.000000 
0.370772 0.194848 0.000000 
0.425037 0.163219 0.000000 
0.407738 0.113791 0.000000 
0.453135 0.078476 0.000000 
0.427556 0.026961 0.000000 
0.464588 -0.010067 0.000000 
0.429420 -0.062108 0.000000 
0.458977 -0.099183 0.000000 
0.026061 0.029167 0.000000 
0.028809 0.134873 0.000000 
0.054870 0.088990 0.000000 
0.106992 0.097222 0.000000 
0.029377 0.236930 0.000000 
0.058186 0.196753 0.000000 
0.114311 0.212419 0.000000 
0.137056 0.158772 0.000000 
0.186430 0.161298 0.000000 
0.029568 0.337985 0.000000 
0.058945 0.299865 0.000000 
0.116563 0.319510 0.000000 
0.143120 0.272242 0.000000 
0.196633 0.280951 0.000000 
0.217198 0.223654 0.000000 
0.265318 0.224454 0.000000 
0.029759 0.439039 0.000000 
0.059328 0.401973 0.000000 
0.117890 0.424679 0.000000 
0.145749 0.380336 0.000000 
0.201664 0.393810 0.000000 
0.225992 0.341693 0.000000 
0.278030 0.347559 0.000000 
0.296791 0.287617 0.000000 
0.344206 0.287609 0.000000 
VECTORS X_EC float 
0.338794 0.106248 0.000000 
-0.609100 -0.812501 0.000000 
0.713312 -0.701360 0.000000 
0.374519 0.679210 0.000000 
0.423588 0.322480 0.000000 
-0.218274 0.356583 0.000000 
-0.513962 -0.367655 0.000000 
0.756418 -0.156169 0.000000 
0.381900 -0.698562 0.000000 
-0.550868 -0.530123 0.000000 
0.823577 -0.519328 0.000000 
0.556234 0.707168 0.000000 
-0.139443 0.824737 0.000000 
-0.484677 0.186612 0.000000 
0.766286 0.451828 0.000000 
0.384386 -0.062793 0.000000 
0.474677 0.617274 0.000000 
-0.141715 0.617177 0.000000 
-0.385608 -0.192051 0.000000 
0.937896 -0.112856 0.000000 
0.621631 -0.816436 0.000000 
-0.105264 -0.634536 0.000000 
-0.467428 0.766837 0.000000 
0.771260 -0.926634 0.000000 
0.386873 0.572976 0.000000 
0.761262 0.656382 0.000000 
0.108942 0.937759 0.000000 
-0.397202 0.456919 0.000000 
-0.142083 -0.204356 0.000000 
-0.595936 -0.763131 0.000000 
0.978194 0.737003 0.000000 
-0.660903 0.045378 0.000000 
0.724964 -0.415142 0.000000 
0.899809 0.942610 0.000000 
0.685384 -0.462078 0.000000 
0.287229 -0.963237 0.000000 
0.702895 0.337435 0.000000 
0.180633 -0.154084 0.000000 
0.445811 -0.832244 0.000000 
-0.220880 0.724970 0.000000 
-0.071546 0.094045 0.000000 
-0.033296 -0.161026 0.000000 
-0.417537 -0.661536 0.000000 
0.039645 0.635902 0.000000 
-0.441768 0.136030 0.000000 
-0.109248 -0.559420 0.000000 
-0.699407 0.963824 0.000000 
-0.474522 0.296545 0.000000 
0.820030 -0.130448 0.000000 
0.957100 -0.754520 0.000000 
0.610485 -0.657612 0.000000 
-0.761092 0.612008 0.000000 
-0.714655 -0.098730 0.000000 
-0.057734 -0.303897 0.000000 
-0.178789 -0.149988 0.000000 
-0.067979 -0.807414 0.000000 
0.677748 -0.945618 0.000000 
0.641556 0.268637 0.000000 
-0.765897 0.010159 0.000000 
0.393446 -0.921979 0.000000 
0.522510 0.442291 0.000000 
-0.691820 0.343747 0.000000 
-0.647393 -0.386736 0.000000 
0.028512 -0.594262 0.000000 
-0.053800 0.588377 0.000000 
0.514316 0.316246 0.000000 
0.965681 0.306030 0.000000 
-0.897068 -0.317999 0.000000 
-0.083078 -0.384852 0.000000 
-0.006893 0.912624 0.000000 
0.724017 0.748991 0.000000 
0.714996 -0.027413 0.000000 
-0.642413 -0.260870 0.000000 
-0.760780 0.900149 0.000000 
-0.205471 0.622334 0.000000 
0.000000 -0.352310 0.000000 
-0.564049 0.949503 0.000000 
0.000000 0.544067 0.000000 
0.564049 0.949503 0.000000 
0.866949 0.194158 0.000000 
-0.569003 -0.125773 0.000000 
0.000000 0.393515 0.000000 
0.569003 -0.125773 0.000000 
-0.866949 0.194158 0.000000 
0.299194 -0.575592 0.000000 
0.858290 -0.867176 0.000000 
-0.577662 -0.290730 0.000000 
0.000000 -0.710108 0.000000 
0.577662 -0.290730 0.000000 
-0.858290 -0.867176 0.000000 
-0.299194 -0.575592 0.000000 
-0.268560 0.654658 0.000000 
0.286830 0.377017 0.000000 
0.844677 0.996215 0.000000 
-0.578910 0.620052 0.000000 
0.000000 -0.888544 0.000000 
0.578910 0.620052 0.000000 
-0.844677 0.996215 0.000000 
-0.286830 0.377017 0.000000 
0.268560 0.654658 0.000000 
-0.610485 -0.657612 0.000000 
0.057734 -0.303897 0.000000 
0.714655 -0.098730 0.000000 
0.761092 0.612008 0.000000 
0.765897 0.010159 0.000000 
-0.641556 0.268637 0.000000 
-0.677748 -0.945618 0.000000 
0.067979 -0.807414 0.000000 
0.178789 -0.149988 0.000000 
-0.514316 0.316246 0.000000 
0.053800 0.588377 0.000000 
-0.028512 -0.594262 0.000000 
0.647393 -0.386736 0.000000 
0.691820 0.343747 0.000000 
-0.522510 0.442291 0.000000 
-0.393446 -0.921979 0.000000 
0.205471 0.622334 0.000000 
0.760780 0.900149 0.000000 
0.642413 -0.260870 0.000000 
-0.714996 -0.027413 0.000000 
-0.724017 0.748991 0.000000 
0.006894 0.912624 0.000000 
0.083078 -0.384852 0.000000 
0.897068 -0.317999 0.000000 
-0.965681 0.306030 0.000000 
-0.761262 0.656382 0.000000 
0.142083 -0.204356 0.000000 
0.397202 0.456919 0.000000 
-0.108942 0.937759 0.000000 
-0.899809 0.942610 0.000000 
-0.724964 -0.415142 0.000000 
0.660903 0.045378 0.000000 
-0.978194 0.737003 0.000000 
0.595936 -0.763131 0.000000 
0.071546 0.094045 0.000000 
0.220880 0.724970 0.000000 
-0.445811 -0.832244 0.000000 
-0.180633 -0.154084 0.000000 
-0.702895 0.337435 0.000000 
-0.287229 -0.963237 0.000000 
-0.685384 -0.462078 0.000000 
-0.957100 -0.754520 0.000000 
-0.820030 -0.130448 0.000000 
0.474522 0.296545 0.000000 
0.699407 0.963824 0.000000 
0.109248 -0.559420 0.000000 
0.441768 0.136030 0.000000 
-0.039645 0.635902 0.000000 
0.417537 -0.661536 0.000000 
0.033296 -0.161026 0.000000 
-0.338794 0.106248 0.000000 
-0.374519 0.679210 0.000000 
-0.713312 -0.701360 0.000000 
0.609100 -0.812501 0.000000 
-0.381900 -0.698562 0.000000 
-0.756418 -0.156169 0.000000 
0.513962 -0.367655 0.000000 
0.218274 0.356583 0.000000 
-0.423588 0.322480 0.000000 
-0.384386 -0.062793 0.000000 
-0.766286 0.451828 0.000000 
0.484677 0.186612 0.000000 
0.139443 0.824737 0.000000 
-0.556234 0.707168 0.000000 
-0.823577 -0.519328 0.000000 
0.550868 -0.530123 0.000000 
-0.386873 0.572976 0.000000 
-0.771260 -0.926634 0.000000 
0.467428 0.766837 0.000000 
0.105264 -0.634536 0.000000 
-0.621631 -0.816436 0.000000 
-0.937896 -0.112856 0.000000 
0.385608 -0.192051 0.000000 
0.141715 0.617177 0.000000 
-0.474677 0.617274 0.000000 
CELL_DATA 175 
SCALARS MASS float 
LOOKUP_TABLE default 
0.078183 
0.086427 
0.094672 
0.086427 
0.088131 
0.092111 
0.085854 
0.092111 
0.088131 
0.088705 
0.091000 
0.086983 
0.091556 
0.086983 
0.091000 
0.088705 
0.089278 
0.091574 
0.089278 
0.092722 
0.089278 
0.092722 
0.089278 
0.091574 
0.089278 
0.078183 
0.086427 
0.094672 
0.086427 
0.088131 
0.092111 
0.085854 
0.092111 
0.088131 
0.088705 
0.091000 
0.086983 
0.091556 
0.086983 
0.091000 
0.088705 
0.089278 
0.091574 
0.089278 
0.092722 
0.089278 
0.092722 
0.089278 
0.091574 
0.089278 
0.078183 
0.086427 
0.094672 
0.086427 
0.088131 
0.092111 
0.085854 
0.092111 
0.088131 
0.088705 
0.091000 
0.086983 
0.091556 
0.086983 
0.091000 
0.088705 
0.089278 
0.091574 
0.089278 
0.092722 
0.089278 
0.092722 
0.089278 
0.091574 
0.089278 
0.078183 
0.086427 
0.094672 
0.086427 
0.088131 
0.092111 
0.085854 
0.092111 
0.088131 
0.088705 
0.091000 
0.086983 
0.091556 
0.086983 
0.091000 
0.088705 
0.089278 
0.091574 
0.089278 
0.092722 
0.089278 
0.092722 
0.089278 
0.091574 
0.089278 
0.078183 
0.086427 
0.094672 
0.086427 
0.088131 
0.092111 
0.085854 
0.092111 
0.088131 
0.088705 
0.091000 
0.086983 
0.091556 
0.086983 
0.091000 
0.088705 
0.089278 
0.091574 
0.089278 
0.092722 
0.089278 
0.092722 
0.089278 
0.091574 
0.089278 
0.078183 
0.086427 
0.094672 
0.086427 
0.088131 
0.092111 
0.085854 
0.092111 
0.088131 
0.088705 
0.091000 
0.086983 
0.091556 
0.086983 
0.091000 
0.088705 
0.089278 
0.091574 
0.089278 
0.092722 
0.089278 
0.092722 
0.089278 
0.091574 
0.089278 
0.078183 
0.086427 
0.094672 
0.086427 
0.088131 
0.092111 
0.085854 
0.092111 
0.088131 
0.088705 
0.091000 
0.086983 
0.091556 
0.086983 
0.091000 
0.088705 
0.089278 
0.091574 
0.089278 
0.092722 
0.089278 
0.092722 
0.089278 
0.091574 
0.089278 
SCALARS MASS float 
LOOKUP_TABLE default 
0.078183 
0.086427 
0.094672 
0.086427 
0.088131 
0.092111 
0.085854 
0.092111 
0.088131 
0.088705 
0.091000 
0.086983 
0.091556 
0.086983 
0.091000 
0.088705 
0.089278 
0.091574 
0.089278 
0.092722 
0.089278 
0.092722 
0.089278 
0.091574 
0.089278 
0.078183 
0.086427 
0.094672 
0.086427 
0.088131 
0.092111 
0.085854 
0.092111 
0.088131 
0.088705 
0.091000 
0.086983 
0.091556 
0.086983 
0.091000 
0.088705 
0.089278 
0.091574 
0.089278 
0.092722 
0.089278 
0.092722 
0.089278 
0.091574 
0.089278 
0.078183 
0.086427 
0.094672 
0.086427 
0.088131 
0.092111 
0.085854 
0.092111 
0.088131 
0.088705 
0.091000 
0.086983 
0.091556 
0.086983 
0.091000 
0.088705 
0.089278 
0.091574 
0.089278 
0.092722 
0.089278 
0.092722 
0.089278 
0.091574 
0.089278 
0.078183 
0.086427 
0.094672 
0.086427 
0.088131 
0.092111 
0.085854 
0.092111 
0.088131 
0.088705 
0.091000 
0.086983 
0.091556 
0.086983 
0.091000 
0.088705 
0.089278 
0.091574 
0.089278 
0.092722 
0.089278 
0.092722 
0.089278 
0.091574 
0.089278 
0.078183 
0.086427 
0.094672 
0.086427 
0.088131 
0.092111 
0.085854 
0.092111 
0.088131 
0.088705 
0.091000 
0.086983 
0.091556 
0.086983 
0.091000 
0.088705 
0.089278 
0.091574 
0.089278 
0.092722 
0.089278 
0.092722 
0.089278 
0.091574 
0.089278 
0.078183 
0.086427 
0.094672 
0.086427 
0.088131 
0.092111 
0.085854 
0.092111 
0.088131 
0.088705 
0.091000 
0.086983 
0.091556 
0.086983 
0.091000 
0.088705 
0.089278 
0.091574 
0.089278 
0.092722 
0.089278 
0.092722 
0.089278 
0.091574 
0.089278 
0.078183 
0.086427 
0.094672 
0.086427 
0.088131 
0.092111 
0.085854 
0.092111 
0.088131 
0.088705 
0.091000 
0.086983 
0.091556 
0.086983 
0.091000 
0.088705 
0.089278 
0.091574 
0.089278 
0.092722 
0.089278 
0.092722 
0.089278 
0.091574 
0.089278 
SCALARS DENSITY float 
LOOKUP_TABLE default 
20.000000 
20.000000 
20.000000 
20.000000 
20.000000 
20.000000 
20.000000 
20.000000 
20.000000 
20.000000 
20.000000 
20.000000 
20.000000 
20.000000 
20.000000 
20.000000 
20.000000 
20.000000 
20.000000 
20.000000 
20.000000 
20.000000 
20.000000 
20.000000 
20.000000 
20.000000 
20.000000 
20.000000 
20.000000 
20.000000 
20.000000 
20.000000 
20.000000 
20.000000 
20.000000 
20.000000 
20.000000 
20.000000 
20.000000 
20.000000 
20.000000 
20.000000 
20.000000 
20.000000 
20.000000 
20.000000 
20.000000 
20.000000 
20.000000 
20.000000 
20.000000 
20.000000 
20.000000 
20.000000 
20.000000 
20.000000 
20.000000 
20.000000 
20.000000 
20.000000 
20.000000 
20.000000 
20.000000 
20.000000 
20.000000 
20.000000 
20.000000 
20.000000 
20.000000 
20.000000 
20.000000 
20.000000 
20.000000 
20.000000 
20.000000 
20.000000 
20.000000 
20.000000 
20.000000 
20.000000 
20.000000 
20.000000 
20.000000 
20.000000 
20.000000 
20.000000 
20.000000 
20.000000 
20.000000 
20.000000 
20.000000 
20.000000 
20.000000 
20.000000 
20.000000 
20.000000 
20.000000 
20.000000 
20.000000 
20.000000 
20.000000 
20.000000 
20.000000 
20.000000 
20.000000 
20.000000 
20.000000 
20.000000 
20.000000 
20.000000 
20.000000 
20.000000 
20.000000 
20.000000 
20.000000 
20.000000 
20.000000 
20.000000 
20.000000 
20.000000 
20.000000 
20.000000 
20.000000 
20.000000 
20.000000 
20.000000 
20.000000 
20.000000 
20.000000 
20.000000 
20.000000 
20.000000 
20.000000 
20.000000 
20.000000 
20.000000 
20.000000 
20.000000 
20.000000 
20.000000 
20.000000 
20.000000 
20.000000 
20.000000 
20.000000 
20.000000 
20.000000 
20.000000 
20.000000 
20.000000 
20.000000 
20.000000 
20.000000 
20.000000 
20.000000 
20.000000 
20.000000 
20.000000 
20.000000 
20.000000 
20.000000 
20.000000 
20.000000 
20.000000 
20.000000 
20.000000 
20.000000 
20.000000 
20.000000 
20.000000 
20.000000 
20.000000 
20.000000 
20.000000 
20.000000 
SCALARS ELEM_i float 
LOOKUP_TABLE default 
182 
209 
182 
183 
210 
210 
210 
183 
183 
237 
210 
211 
211 
211 
184 
184 
238 
238 
238 
211 
211 
211 
212 
184 
185 
182 
209 
209 
209 
235 
209 
236 
209 
210 
235 
235 
236 
236 
236 
237 
237 
262 
262 
263 
263 
263 
264 
264 
237 
237 
181 
208 
208 
208 
207 
207 
207 
208 
235 
206 
207 
234 
234 
234 
235 
235 
206 
233 
233 
234 
234 
234 
261 
262 
262 
181 
181 
181 
181 
153 
180 
180 
180 
207 
152 
152 
179 
179 
179 
206 
206 
152 
152 
152 
179 
178 
179 
206 
206 
206 
181 
154 
154 
154 
127 
154 
153 
153 
153 
127 
127 
126 
126 
126 
153 
152 
100 
100 
99 
126 
126 
126 
125 
125 
152 
182 
155 
155 
155 
156 
155 
128 
155 
127 
129 
129 
128 
128 
128 
127 
127 
129 
129 
102 
102 
101 
101 
101 
100 
100 
182 
183 
182 
155 
183 
183 
156 
156 
156 
184 
184 
157 
157 
157 
156 
129 
185 
184 
158 
157 
157 
157 
130 
130 
130 
VECTORS VELOCITY float 
-0.000000 -0.699257 0.000000 
-0.000000 -0.699257 0.000000 
-0.000000 -0.699257 0.000000 
-0.000000 -0.699257 0.000000 
-0.000000 -0.699257 0.000000 
-0.000000 -0.699257 0.000000 
-0.000000 -0.699257 0.000000 
-0.000000 -0.699257 0.000000 
-0.000000 -0.699257 0.000000 
-0.000000 -0.699257 0.000000 
-0.000000 -0.699257 0.000000 
-0.000000 -0.699257 0.000000 
-0.000000 -0.699257 0.000000 
-0.000000 -0.699257 0.000000 
-0.000000 -0.699257 0.000000 
0.000000 -0.699257 0.000000 
-0.000000 -0.699257 0.000000 
-0.000000 -0.699257 0.000000 
-0.000000 -0.699257 0.000000 
-0.000000 -0.699257 0.000000 
-0.000000 -0.699257 0.000000 
-0.000000 -0.699257 0.000000 
0.000000 -0.699257 0.000000 
0.000000 -0.699257 0.000000 
0.000000 -0.699257 0.000000 
0.000000 -0.699257 0.000000 
0.000000 -0.699257 0.000000 
0.000000 -0.699257 0.000000 
0.000000 -0.699257 0.000000 
0.000000 -0.699257 0.000000 
0.000000 -0.699257 0.000000 
0.000000 -0.699257 0.000000 
0.000000 -0.699257 0.000000 
0.000000 -0.699257 0.000000 
0.000000 -0.699257 0.000000 
0.000000 -0.699257 0.000000 
0.000000 -0.699257 0.000000 
0.000000 -0.699257 0.000000 
-0.000000 -0.699257 0.000000 
-0.000000 -0.699257 0.000000 
-0.000000 -0.699257 0.000000 
-0.000000 -0.699257 0.000000 
0.000000 -0.699257 0.000000 
0.000000 -0.699257 0.000000 
0.000000 -0.699257 0.000000 
-0.000000 -0.699257 0.000000 
-0.000000 -0.699257 0.000000 
0.000000 -0.699257 0.000000 
-0.000000 -0.699257 0.000000 
-0.000000 -0.699257 0.000000 
0.000000 -0.699257 0.000000 
0.000000 -0.699257 0.000000 
0.000000 -0.699257 0.000000 
0.000000 -0.699257 0.000000 
0.000000 -0.699257 0.000000 
-0.000000 -0.699257 0.000000 
-0.000000 -0.699257 0.000000 
-0.000000 -0.699257 0.000000 
-0.000000 -0.699257 0.000000 
0.000000 -0.699257 0.000000 
0.000000 -0.699257 0.000000 
-0.000000 -0.699257 0.000000 
-0.000000 -0.699257 0.000000 
-0.000000 -0.699257 0.000000 
-0.000000 -0.699257 0.000000 
0.000000 -0.699257 0.000000 
0.000000 -0.699257 0.000000 
0.000000 -0.699257 0.000000 
0.000000 -0.699257 0.000000 
-0.000000 -0.699257 0.000000 
-0.000000 -0.699257 0.000000 
-0.000000 -0.699257 0.000000 
-0.000000 -0.699257 0.000000 
0.000000 -0.699257 0.000000 
-0.000000 -0.699257 0.000000 
-0.000000 -0.699257 0.000000 
0.000000 -0.699257 0.000000 
0.000000 -0.699257 0.000000 
0.000000 -0.699257 0.000000 
0.000000 -0.699257 0.000000 
0.000000 -0.699257 0.000000 
0.000000 -0.699257 0.000000 
0.000000 -0.699257 0.000000 
0.000000 -0.699257 0.000000 
-0.000000 -0.699257 0.000000 
-0.000000 -0.699257 0.000000 
-0.000000 -0.699257 0.000000 
0.000000 -0.699257 0.000000 
0.000000 -0.699257 0.000000 
0.000000 -0.699257 0.000000 
0.000000 -0.699257 0.000000 
0.000000 -0.699257 0.000000 
0.000000 -0.699257 0.000000 
0.000000 -0.699257 0.000000 
-0.000000 -0.699257 0.000000 
-0.000000 -0.699257 0.000000 
-0.000000 -0.699257 0.000000 
-0.000000 -0.699257 0.000000 
0.000000 -0.699257 0.000000 
0.000000 -0.699257 0.000000 
-0.000000 -0.699257 0.000000 
0.000000 -0.699257 0.000000 
-0.000000 -0.699257 0.000000 
0.000000 -0.699257 0.000000 
0.000000 -0.699257 0.000000 
0.000000 -0.699257 0.000000 
0.000000 -0.699257 0.000000 
0.000000 -0.699257 0.000000 
-0.000000 -0.699257 0.000000 
0.000000 -0.699257 0.000000 
0.000000 -0.699257 0.000000 
-0.000000 -0.699257 0.000000 
-0.000000 -0.699257 0.000000 
-0.000000 -0.699257 0.000000 
-0.000000 -0.699257 0.000000 
-0.000000 -0.699257 0.000000 
-0.000000 -0.699257 0.000000 
-0.000000 -0.699257 0.000000 
-0.000000 -0.699257 0.000000 
0.000000 -0.699257 0.000000 
0.000000 -0.699257 0.000000 
-0.000000 -0.699257 0.000000 
-0.000000 -0.699257 0.000000 
-0.000000 -0.699257 0.000000 
0.000000 -0.699257 0.000000 
-0.000000 -0.699257 0.000000 
-0.000000 -0.699257 0.000000 
-0.000000 -0.699257 0.000000 
-0.000000 -0.699257 0.000000 
0.000000 -0.699257 0.000000 
0.000000 -0.699257 0.000000 
0.000000 -0.699257 0.000000 
0.000000 -0.699257 0.000000 
0.000000 -0.699257 0.000000 
0.000000 -0.699257 0.000000 
0.000000 -0.699257 0.000000 
0.000000 -0.699257 0.000000 
0.000000 -0.699257 0.000000 
0.000000 -0.699257 0.000000 
0.000000 -0.699257 0.000000 
0.000000 -0.699257 0.000000 
-0.000000 -0.699257 0.000000 
-0.000000 -0.699257 0.000000 
-0.000000 -0.699257 0.000000 
0.000000 -0.699257 0.000000 
-0.000000 -0.699257 0.000000 
0.000000 -0.699257 0.000000 
0.000000 -0.699257 0.000000 
0.000000 -0.699257 0.000000 
-0.000000 -0.699257 0.000000 
-0.000000 -0.699257 0.000000 
-0.000000 -0.699257 0.000000 
-0.000000 -0.699257 0.000000 
-0.000000 -0.699257 0.000000 
-0.000000 -0.699257 0.000000 
-0.000000 -0.699257 0.000000 
-0.000000 -0.699257 0.000000 
0.000000 -0.699257 0.000000 
0.000000 -0.699257 0.000000 
0.000000 -0.699257 0.000000 
0.000000 -0.699257 0.000000 
0.000000 -0.699257 0.000000 
0.000000 -0.699257 0.000000 
0.000000 -0.699257 0.000000 
0.000000 -0.699257 0.000000 
0.000000 -0.699257 0.000000 
0.000000 -0.699257 0.000000 
0.000000 -0.699257 0.000000 
0.000000 -0.699257 0.000000 
0.000000 -0.699257 0.000000 
-0.000000 -0.699257 0.000000 
-0.000000 -0.699257 0.000000 
0.000000 -0.699257 0.000000 
-0.000000 -0.699257 0.000000 
-0.000000 -0.699257 0.000000 
TENSORS STRESS float 
0.000000 -0.000000 0.000000 
0.000000 0.000000 0.000000 
0.000000 0.000000 0.000000 

-0.000000 0.000000 0.000000 
0.000000 0.000000 0.000000 
0.000000 0.000000 0.000000 

0.000000 -0.000000 0.000000 
0.000000 0.000000 0.000000 
0.000000 0.000000 0.000000 

0.000000 -0.000000 0.000000 
0.000000 0.000000 0.000000 
0.000000 0.000000 0.000000 

0.000000 -0.000000 0.000000 
0.000000 0.000000 0.000000 
0.000000 0.000000 0.000000 

0.000000 0.000000 0.000000 
0.000000 0.000000 0.000000 
0.000000 0.000000 0.000000 

0.000000 0.000000 0.000000 
0.000000 0.000000 0.000000 
0.000000 0.000000 0.000000 

0.000000 0.000000 0.000000 
0.000000 -0.000000 0.000000 
0.000000 0.000000 0.000000 

0.000000 0.000000 0.000000 
0.000000 0.000000 0.000000 
0.000000 0.000000 0.000000 

-0.000000 -0.000000 0.000000 
0.000000 0.000000 0.000000 
0.000000 0.000000 0.000000 

0.000000 -0.000000 0.000000 
0.000000 0.000000 0.000000 
0.000000 0.000000 0.000000 

0.000000 0.000000 0.000000 
0.000000 0.000000 0.000000 
0.000000 0.000000 0.000000 

0.000000 0.000000 0.000000 
0.000000 -0.000000 0.000000 
0.000000 0.000000 0.000000 

0.000000 -0.000000 0.000000 
0.000000 0.000000 0.000000 
0.000000 0.000000 0.000000 

-0.000000 -0.000000 0.000000 
0.000000 -0.000000 0.000000 
0.000000 0.000000 0.000000 

0.000000 -0.000000 0.000000 
0.000000 -0.000000 0.000000 
0.000000 0.000000 0.000000 

-0.000000 -0.000000 0.000000 
0.000000 -0.000000 0.000000 
0.000000 0.000000 0.000000 

-0.000000 0.000000 0.000000 
0.000000 0.000000 0.000000 
0.000000 0.000000 0.000000 

0.000000 0.000000 0.000000 
0.000000 0.000000 0.000000 
0.000000 0.000000 0.000000 

0.000000 0.000000 0.000000 
0.000000 -0.000000 0.000000 
0.000000 0.000000 0.000000 

0.000000 -0.000000 0.000000 
0.000000 0.000000 0.000000 
0.000000 0.000000 0.000000 

-0.000000 -0.000000 0.000000 
0.000000 -0.000000 0.000000 
0.000000 0.000000 0.000000 

-0.000000 0.000000 0.000000 
0.000000 0.000000 0.000000 
0.000000 0.000000 0.000000 

0.000000 0.000000 0.000000 
0.000000 0.000000 0.000000 
0.000000 0.000000 0.000000 

-0.000000 0.000000 0.000000 
0.000000 -0.000000 0.000000 
0.000000 0.000000 0.000000 

-0.000000 -0.000000 0.000000 
0.000000 0.000000 0.000000 
0.000000 0.000000 0.000000 

-0.000000 -0.000000 0.000000 
0.000000 0.000000 0.000000 
0.000000 0.000000 0.000000 

-0.000000 -0.000000 0.000000 
0.000000 0.000000 0.000000 
0.000000 0.000000 0.000000 

-0.000000 -0.000000 0.000000 
0.000000 0.000000 0.000000 
0.000000 0.000000 0.000000 

0.000000 0.000000 0.000000 
0.000000 0.000000 0.000000 
0.000000 0.000000 0.000000 

-0.000000 -0.000000 0.000000 
0.000000 -0.000000 0.000000 
0.000000 0.000000 0.000000 

0.000000 -0.000000 0.000000 
0.000000 -0.000000 0.000000 
0.000000 0.000000 0.000000 

-0.000000 0.000000 0.000000 
0.000000 -0.000000 0.000000 
0.000000 0.000000 0.000000 

-0.000000 -0.000000 0.000000 
0.000000 -0.000000 0.000000 
0.000000 0.000000 0.000000 

0.000000 0.000000 0.000000 
0.000000 0.000000 0.000000 
0.000000 0.000000 0.000000 

0.000000 -0.000000 0.000000 
0.000000 -0.000000 0.000000 
0.000000 0.000000 0.000000 

0.000000 -0.000000 0.000000 
0.000000 -0.000000 0.000000 
0.000000 0.000000 0.000000 

0.000000 -0.000000 0.000000 
0.000000 -0.000000 0.000000 
0.000000 0.000000 0.000000 

0.000000 0.000000 0.000000 
0.000000 -0.000000 0.000000 
0.000000 0.000000 0.000000 

0.000000 0.000000 0.000000 
0.000000 0.000000 0.000000 
0.000000 0.000000 0.000000 

-0.000000 0.000000 0.000000 
0.000000 -0.000000 0.000000 
0.000000 0.000000 0.000000 

0.000000 0.000000 0.000000 
0.000000 -0.000000 0.000000 
0.000000 0.000000 0.000000 

0.000000 0.000000 0.000000 
0.000000 0.000000 0.000000 
0.000000 0.000000 0.000000 

0.000000 0.000000 0.000000 
0.000000 0.000000 0.000000 
0.000000 0.000000 0.000000 

0.000000 -0.000000 0.000000 
0.000000 -0.000000 0.000000 
0.000000 0.000000 0.000000 

0.000000 -0.000000 0.000000 
0.000000 -0.000000 0.000000 
0.000000 0.000000 0.000000 

0.000000 -0.000000 0.000000 
0.000000 0.000000 0.000000 
0.000000 0.000000 0.000000 

0.000000 -0.000000 0.000000 
0.000000 0.000000 0.000000 
0.000000 0.000000 0.000000 

-0.000000 0.000000 0.000000 
0.000000 -0.000000 0.000000 
0.000000 0.000000 0.000000 

-0.000000 0.000000 0.000000 
0.000000 -0.000000 0.000000 
0.000000 0.000000 0.000000 

-0.000000 0.000000 0.000000 
0.000000 0.000000 0.000000 
0.000000 0.000000 0.000000 

-0.000000 0.000000 0.000000 
0.000000 -0.000000 0.000000 
0.000000 0.000000 0.000000 

-0.000000 -0.000000 0.000000 
0.000000 0.000000 0.000000 
0.000000 0.000000 0.000000 

-0.000000 -0.000000 0.000000 
0.000000 0.000000 0.000000 
0.000000 0.000000 0.000000 

-0.000000 -0.000000 0.000000 
0.000000 -0.000000 0.000000 
0.000000 0.000000 0.000000 

-0.000000 0.000000 0.000000 
0.000000 -0.000000 0.000000 
0.000000 0.000000 0.000000 

-0.000000 0.000000 0.000000 
0.000000 -0.000000 0.000000 
0.000000 0.000000 0.000000 

-0.000000 -0.000000 0.000000 
0.000000 0.000000 0.000000 
0.000000 0.000000 0.000000 

0.000000 -0.000000 0.000000 
0.000000 0.000000 0.000000 
0.000000 0.000000 0.000000 

0.000000 -0.000000 0.000000 
0.000000 -0.000000 0.000000 
0.000000 0.000000 0.000000 

-0.000000 -0.000000 0.000000 
0.000000 -0.000000 0.000000 
0.000000 0.000000 0.000000 

-0.000000 0.000000 0.000000 
0.000000 -0.000000 0.000000 
0.000000 0.000000 0.000000 

-0.000000 -0.000000 0.000000 
0.000000 -0.000000 0.000000 
0.000000 0.000000 0.000000 

-0.000000 -0.000000 0.000000 
0.000000 -0.000000 0.000000 
0.000000 0.000000 0.000000 

0.000000 -0.000000 0.000000 
0.000000 0.000000 0.000000 
0.000000 0.000000 0.000000 

0.000000 -0.000000 0.000000 
0.000000 0.000000 0.000000 
0.000000 0.000000 0.000000 

0.000000 -0.000000 0.000000 
0.000000 0.000000 0.000000 
0.000000 0.000000 0.000000 

-0.000000 0.000000 0.000000 
0.000000 -0.000000 0.000000 
0.000000 0.000000 0.000000 

-0.000000 -0.000000 0.000000 
0.000000 -0.000000 0.000000 
0.000000 0.000000 0.000000 

-0.000000 0.000000 0.000000 
0.000000 -0.000000 0.000000 
0.000000 0.000000 0.000000 

-0.000000 0.000000 0.000000 
0.000000 -0.000000 0.000000 
0.000000 0.000000 0.000000 

-0.000000 -0.000000 0.000000 
0.000000 -0.000000 0.000000 
0.000000 0.000000 0.000000 

0.000000 -0.000000 0.000000 
0.000000 -0.000000 0.000000 
0.000000 0.000000 0.000000 

0.000000 -0.000000 0.000000 
0.000000 0.000000 0.000000 
0.000000 0.000000 0.000000 

0.000000 -0.000000 0.000000 
0.000000 0.000000 0.000000 
0.000000 0.000000 0.000000 

-0.000000 0.000000 0.000000 
0.000000 -0.000000 0.000000 
0.000000 0.000000 0.000000 

0.000000 0.000000 0.000000 
0.000000 0.000000 0.000000 
0.000000 0.000000 0.000000 

-0.000000 0.000000 0.000000 
0.000000 0.000000 0.000000 
0.000000 0.000000 0.000000 

0.000000 0.000000 0.000000 
0.000000 0.000000 0.000000 
0.000000 0.000000 0.000000 

-0.000000 -0.000000 0.000000 
0.000000 -0.000000 0.000000 
0.000000 0.000000 0.000000 

-0.000000 0.000000 0.000000 
0.000000 -0.000000 0.000000 
0.000000 0.000000 0.000000 

-0.000000 -0.000000 0.000000 
0.000000 -0.000000 0.000000 
0.000000 0.000000 0.000000 

-0.000000 -0.000000 0.000000 
0.000000 -0.000000 0.000000 
0.000000 0.000000 0.000000 

-0.000000 -0.000000 0.000000 
0.000000 -0.000000 0.000000 
0.000000 0.000000 0.000000 

0.000000 -0.000000 0.000000 
0.000000 0.000000 0.000000 
0.000000 0.000000 0.000000 

0.000000 -0.000000 0.000000 
0.000000 0.000000 0.000000 
0.000000 0.000000 0.000000 

0.000000 -0.000000 0.000000 
0.000000 0.000000 0.000000 
0.000000 0.000000 0.000000 

-0.000000 -0.000000 0.000000 
0.000000 0.000000 0.000000 
0.000000 0.000000 0.000000 

-0.000000 -0.000000 0.000000 
0.000000 0.000000 0.000000 
0.000000 0.000000 0.000000 

0.000000 -0.000000 0.000000 
0.000000 0.000000 0.000000 
0.000000 0.000000 0.000000 

0.000000 -0.000000 0.000000 
0.000000 -0.000000 0.000000 
0.000000 0.000000 0.000000 

-0.000000 0.000000 0.000000 
0.000000 -0.000000 0.000000 
0.000000 0.000000 0.000000 

0.000000 0.000000 0.000000 
0.000000 0.000000 0.000000 
0.000000 0.000000 0.000000 

-0.000000 0.000000 0.000000 
0.000000 0.000000 0.000000 
0.000000 0.000000 0.000000 

0.000000 -0.000000 0.000000 
0.000000 0.000000 0.000000 
0.000000 0.000000 0.000000 

-0.000000 -0.000000 0.000000 
0.000000 -0.000000 0.000000 
0.000000 0.000000 0.000000 

0.000000 -0.000000 0.000000 
0.000000 0.000000 0.000000 
0.000000 0.000000 0.000000 

0.000000 -0.000000 0.000000 
0.000000 0.000000 0.000000 
0.000000 0.000000 0.000000 

0.000000 -0.000000 0.000000 
0.000000 0.000000 0.000000 
0.000000 0.000000 0.000000 

0.000000 -0.000000 0.000000 
0.000000 0.000000 0.000000 
0.000000 0.000000 0.000000 

-0.000000 0.000000 0.000000 
0.000000 0.000000 0.000000 
0.000000 0.000000 0.000000 

0.000000 0.000000 0.000000 
0.000000 -0.000000 0.000000 
0.000000 0.000000 0.000000 

0.000000 0.000000 0.000000 
0.000000 0.000000 0.000000 
0.000000 0.000000 0.000000 

0.000000 0.000000 0.000000 
0.000000 0.000000 0.000000 
0.000000 0.000000 0.000000 

-0.000000 -0.000000 0.000000 
0.000000 -0.000000 0.000000 
0.000000 0.000000 0.000000 

-0.000000 0.000000 0.000000 
0.000000 -0.000000 0.000000 
0.000000 0.000000 0.000000 

0.000000 -0.000000 0.000000 
0.000000 0.000000 0.000000 
0.000000 0.000000 0.000000 

-0.000000 -0.000000 0.000000 
0.000000 0.000000 0.000000 
0.000000 0.000000 0.000000 

-0.000000 -0.000000 0.000000 
0.000000 0.000000 0.000000 
0.000000 0.000000 0.000000 

-0.000000 -0.000000 0.000000 
0.000000 -0.000000 0.000000 
0.000000 0.000000 0.000000 

-0.000000 -0.000000 0.000000 
0.000000 0.000000 0.000000 
0.000000 0.000000 0.000000 

0.000000 -0.000000 0.000000 
0.000000 0.000000 0.000000 
0.000000 0.000000 0.000000 

0.000000 -0.000000 0.000000 
0.000000 0.000000 0.000000 
0.000000 0.000000 0.000000 

-0.000000 -0.000000 0.000000 
0.000000 -0.000000 0.000000 
0.000000 0.000000 0.000000 

0.000000 -0.000000 0.000000 
0.000000 0.000000 0.000000 
0.000000 0.000000 0.000000 

-0.000000 -0.000000 0.000000 
0.000000 -0.000000 0.000000 
0.000000 0.000000 0.000000 

0.000000 0.000000 0.000000 
0.000000 0.000000 0.000000 
0.000000 0.000000 0.000000 

-0.000000 0.000000 0.000000 
0.000000 -0.000000 0.000000 
0.000000 0.000000 0.000000 

-0.000000 0.000000 0.000000 
0.000000 -0.000000 0.000000 
0.000000 0.000000 0.000000 

0.000000 -0.000000 0.000000 
0.000000 0.000000 0.000000 
0.000000 0.000000 0.000000 

0.000000 -0.000000 0.000000 
0.000000 0.000000 0.000000 
0.000000 0.000000 0.000000 

0.000000 -0.000000 0.000000 
0.000000 0.000000 0.000000 
0.000000 0.000000 0.000000 

-0.000000 -0.000000 0.000000 
0.000000 -0.000000 0.000000 
0.000000 0.000000 0.000000 

-0.000000 -0.000000 0.000000 
0.000000 -0.000000 0.000000 
0.000000 0.000000 0.000000 

-0.000000 0.000000 0.000000 
0.000000 -0.000000 0.000000 
0.000000 0.000000 0.000000 

-0.000000 0.000000 0.000000 
0.000000 0.000000 0.000000 
0.000000 0.000000 0.000000 

0.000000 -0.000000 0.000000 
0.000000 0.000000 0.000000 
0.000000 0.000000 0.000000 

0.000000 0.000000 0.000000 
0.000000 0.000000 0.000000 
0.000000 0.000000 0.000000 

0.000000 0.000000 0.000000 
0.000000 0.000000 0.000000 
0.000000 0.000000 0.000000 

0.000000 0.000000 0.000000 
0.000000 0.000000 0.000000 
0.000000 0.000000 0.000000 

0.000000 0.000000 0.000000 
0.000000 0.000000 0.000000 
0.000000 0.000000 0.000000 

-0.000000 -0.000000 0.000000 
0.000000 -0.000000 0.000000 
0.000000 0.000000 0.000000 

0.000000 -0.000000 0.000000 
0.000000 0.000000 0.000000 
0.000000 0.000000 0.000000 

-0.000000 -0.000000 0.000000 
0.000000 -0.000000 0.000000 
0.000000 0.000000 0.000000 

0.000000 0.000000 0.000000 
0.000000 0.000000 0.000000 
0.000000 0.000000 0.000000 

0.000000 0.000000 0.000000 
0.000000 0.000000 0.000000 
0.000000 0.000000 0.000000 

0.000000 0.000000 0.000000 
0.000000 0.000000 0.000000 
0.000000 0.000000 0.000000 

0.000000 -0.000000 0.000000 
0.000000 0.000000 0.000000 
0.000000 0.000000 0.000000 

-0.000000 0.000000 0.000000 
0.000000 0.000000 0.000000 
0.000000 0.000000 0.000000 

-0.000000 -0.000000 0.000000 
0.000000 -0.000000 0.000000 
0.000000 0.000000 0.000000 

-0.000000 -0.000000 0.000000 
0.000000 0.000000 0.000000 
0.000000 0.000000 0.000000 

-0.000000 0.000000 0.000000 
0.000000 0.000000 0.000000 
0.000000 0.000000 0.000000 

0.000000 0.000000 0.000000 
0.000000 0.000000 0.000000 
0.000000 0.000000 0.000000 

0.000000 -0.000000 0.000000 
0.000000 0.000000 0.000000 
0.000000 0.000000 0.000000 

-0.000000 0.000000 0.000000 
0.000000 -0.000000 0.000000 
0.000000 0.000000 0.000000 

0.000000 0.000000 0.000000 
0.000000 0.000000 0.000000 
0.000000 0.000000 0.000000 

0.000000 0.000000 0.000000 
0.000000 0.000000 0.000000 
0.000000 0.000000 0.000000 

0.000000 0.000000 0.000000 
0.000000 0.000000 0.000000 
0.000000 0.000000 0.000000 

0.000000 0.000000 0.000000 
0.000000 0.000000 0.000000 
0.000000 0.000000 0.000000 

0.000000 0.000000 0.000000 
0.000000 -0.000000 0.000000 
0.000000 0.000000 0.000000 

0.000000 0.000000 0.000000 
0.000000 0.000000 0.000000 
0.000000 0.000000 0.000000 

0.000000 0.000000 0.000000 
0.000000 0.000000 0.000000 
0.000000 0.000000 0.000000 

0.000000 -0.000000 0.000000 
0.000000 0.000000 0.000000 
0.000000 0.000000 0.000000 

0.000000 -0.000000 0.000000 
0.000000 0.000000 0.000000 
0.000000 0.000000 0.000000 

0.000000 0.000000 0.000000 
0.000000 0.000000 0.000000 
0.000000 0.000000 0.000000 

0.000000 0.000000 0.000000 
0.000000 0.000000 0.000000 
0.000000 0.000000 0.000000 

0.000000 0.000000 0.000000 
0.000000 0.000000 0.000000 
0.000000 0.000000 0.000000 

0.000000 0.000000 0.000000 
0.000000 0.000000 0.000000 
0.000000 0.000000 0.000000 

0.000000 0.000000 0.000000 
0.000000 0.000000 0.000000 
0.000000 0.000000 0.000000 

0.000000 -0.000000 0.000000 
0.000000 -0.000000 0.000000 
0.000000 0.000000 0.000000 

0.000000 0.000000 0.000000 
0.000000 -0.000000 0.000000 
0.000000 0.000000 0.000000 

0.000000 0.000000 0.000000 
0.000000 -0.000000 0.000000 
0.000000 0.000000 0.000000 

0.000000 -0.000000 0.000000 
0.000000 0.000000 0.000000 
0.000000 0.000000 0.000000 

0.000000 -0.000000 0.000000 
0.000000 0.000000 0.000000 
0.000000 0.000000 0.000000 

0.000000 0.000000 0.000000 
0.000000 0.000000 0.000000 
0.000000 0.000000 0.000000 

-0.000000 0.000000 0.000000 
0.000000 -0.000000 0.000000 
0.000000 0.000000 0.000000 

-0.000000 -0.000000 0.000000 
0.000000 -0.000000 0.000000 
0.000000 0.000000 0.000000 

0.000000 0.000000 0.000000 
0.000000 0.000000 0.000000 
0.000000 0.000000 0.000000 

-0.000000 -0.000000 0.000000 
0.000000 -0.000000 0.000000 
0.000000 0.000000 0.000000 

0.000000 0.000000 0.000000 
0.000000 -0.000000 0.000000 
0.000000 0.000000 0.000000 

-0.000000 0.000000 0.000000 
0.000000 -0.000000 0.000000 
0.000000 0.000000 0.000000 

0.000000 0.000000 0.000000 
0.000000 0.000000 0.000000 
0.000000 0.000000 0.000000 

-0.000000 -0.000000 0.000000 
0.000000 -0.000000 0.000000 
0.000000 0.000000 0.000000 

0.000000 -0.000000 0.000000 
0.000000 0.000000 0.000000 
0.000000 0.000000 0.000000 

0.000000 -0.000000 0.000000 
0.000000 0.000000 0.000000 
0.000000 0.000000 0.000000 

TENSORS STRAIN float 
-0.000000 -0.000000 0.000000 
0.000000 0.000000 0.000000 
0.000000 0.000000 0.000000 

-0.000000 0.000000 0.000000 
0.000000 0.000000 0.000000 
0.000000 0.000000 0.000000 

0.000000 -0.000000 0.000000 
0.000000 0.000000 0.000000 
0.000000 0.000000 0.000000 

0.000000 -0.000000 0.000000 
0.000000 -0.000000 0.000000 
0.000000 0.000000 0.000000 

0.000000 -0.000000 0.000000 
0.000000 -0.000000 0.000000 
0.000000 0.000000 0.000000 

0.000000 0.000000 0.000000 
0.000000 0.000000 0.000000 
0.000000 0.000000 0.000000 

0.000000 0.000000 0.000000 
0.000000 -0.000000 0.000000 
0.000000 0.000000 0.000000 

0.000000 0.000000 0.000000 
0.000000 -0.000000 0.000000 
0.000000 0.000000 0.000000 

0.000000 0.000000 0.000000 
0.000000 0.000000 0.000000 
0.000000 0.000000 0.000000 

-0.000000 -0.000000 0.000000 
0.000000 0.000000 0.000000 
0.000000 0.000000 0.000000 

0.000000 -0.000000 0.000000 
0.000000 -0.000000 0.000000 
0.000000 0.000000 0.000000 

0.000000 0.000000 0.000000 
0.000000 -0.000000 0.000000 
0.000000 0.000000 0.000000 

0.000000 0.000000 0.000000 
0.000000 -0.000000 0.000000 
0.000000 0.000000 0.000000 

0.000000 -0.000000 0.000000 
0.000000 0.000000 0.000000 
0.000000 0.000000 0.000000 

0.000000 -0.000000 0.000000 
0.000000 -0.000000 0.000000 
0.000000 0.000000 0.000000 

0.000000 -0.000000 0.000000 
0.000000 -0.000000 0.000000 
0.000000 0.000000 0.000000 

-0.000000 -0.000000 0.000000 
0.000000 -0.000000 0.000000 
0.000000 0.000000 0.000000 

-0.000000 0.000000 0.000000 
0.000000 0.000000 0.000000 
0.000000 0.000000 0.000000 

0.000000 0.000000 0.000000 
0.000000 0.000000 0.000000 
0.000000 0.000000 0.000000 

0.000000 0.000000 0.000000 
0.000000 -0.000000 0.000000 
0.000000 0.000000 0.000000 

-0.000000 -0.000000 0.000000 
0.000000 0.000000 0.000000 
0.000000 0.000000 0.000000 

0.000000 -0.000000 0.000000 
0.000000 -0.000000 0.000000 
0.000000 0.000000 0.000000 

-0.000000 0.000000 0.000000 
0.000000 0.000000 0.000000 
0.000000 0.000000 0.000000 

0.000000 0.000000 0.000000 
0.000000 -0.000000 0.000000 
0.000000 0.000000 0.000000 

-0.000000 0.000000 0.000000 
0.000000 -0.000000 0.000000 
0.000000 0.000000 0.000000 

-0.000000 -0.000000 0.000000 
0.000000 0.000000 0.000000 
0.000000 0.000000 0.000000 

-0.000000 -0.000000 0.000000 
0.000000 0.000000 0.000000 
0.000000 0.000000 0.000000 

-0.000000 -0.000000 0.000000 
0.000000 0.000000 0.000000 
0.000000 0.000000 0.000000 

-0.000000 -0.000000 0.000000 
0.000000 0.000000 0.000000 
0.000000 0.000000 0.000000 

0.000000 0.000000 0.000000 
0.000000 -0.000000 0.000000 
0.000000 0.000000 0.000000 

-0.000000 -0.000000 0.000000 
0.000000 -0.000000 0.000000 
0.000000 0.000000 0.000000 

0.000000 -0.000000 0.000000 
0.000000 -0.000000 0.000000 
0.000000 0.000000 0.000000 

-0.000000 0.000000 0.000000 
0.000000 0.000000 0.000000 
0.000000 0.000000 0.000000 

-0.000000 -0.000000 0.000000 
0.000000 -0.000000 0.000000 
0.000000 0.000000 0.000000 

0.000000 0.000000 0.000000 
0.000000 0.000000 0.000000 
0.000000 0.000000 0.000000 

0.000000 -0.000000 0.000000 
0.000000 -0.000000 0.000000 
0.000000 0.000000 0.000000 

0.000000 -0.000000 0.000000 
0.000000 -0.000000 0.000000 
0.000000 0.000000 0.000000 

0.000000 -0.000000 0.000000 
0.000000 -0.000000 0.000000 
0.000000 0.000000 0.000000 

0.000000 0.000000 0.000000 
0.000000 -0.000000 0.000000 
0.000000 0.000000 0.000000 

0.000000 0.000000 0.000000 
0.000000 -0.000000 0.000000 
0.000000 0.000000 0.000000 

0.000000 0.000000 0.000000 
0.000000 -0.000000 0.000000 
0.000000 0.000000 0.000000 

0.000000 0.000000 0.000000 
0.000000 -0.000000 0.000000 
0.000000 0.000000 0.000000 

0.000000 0.000000 0.000000 
0.000000 -0.000000 0.000000 
0.000000 0.000000 0.000000 

0.000000 0.000000 0.000000 
0.000000 -0.000000 0.000000 
0.000000 0.000000 0.000000 

0.000000 -0.000000 0.000000 
0.000000 -0.000000 0.000000 
0.000000 0.000000 0.000000 

0.000000 -0.000000 0.000000 
0.000000 -0.000000 0.000000 
0.000000 0.000000 0.000000 

0.000000 -0.000000 0.000000 
0.000000 0.000000 0.000000 
0.000000 0.000000 0.000000 

-0.000000 -0.000000 0.000000 
0.000000 0.000000 0.000000 
0.000000 0.000000 0.000000 

-0.000000 0.000000 0.000000 
0.000000 -0.000000 0.000000 
0.000000 0.000000 0.000000 

-0.000000 0.000000 0.000000 
0.000000 -0.000000 0.000000 
0.000000 0.000000 0.000000 

-0.000000 0.000000 0.000000 
0.000000 0.000000 0.000000 
0.000000 0.000000 0.000000 

-0.000000 0.000000 0.000000 
0.000000 0.000000 0.000000 
0.000000 0.000000 0.000000 

-0.000000 -0.000000 0.000000 
0.000000 0.000000 0.000000 
0.000000 0.000000 0.000000 

-0.000000 -0.000000 0.000000 
0.000000 0.000000 0.000000 
0.000000 0.000000 0.000000 

-0.000000 -0.000000 0.000000 
0.000000 -0.000000 0.000000 
0.000000 0.000000 0.000000 

-0.000000 0.000000 0.000000 
0.000000 -0.000000 0.000000 
0.000000 0.000000 0.000000 

-0.000000 0.000000 0.000000 
0.000000 -0.000000 0.000000 
0.000000 0.000000 0.000000 

-0.000000 -0.000000 0.000000 
0.000000 0.000000 0.000000 
0.000000 0.000000 0.000000 

0.000000 -0.000000 0.000000 
0.000000 0.000000 0.000000 
0.000000 0.000000 0.000000 

0.000000 -0.000000 0.000000 
0.000000 -0.000000 0.000000 
0.000000 0.000000 0.000000 

0.000000 -0.000000 0.000000 
0.000000 -0.000000 0.000000 
0.000000 0.000000 0.000000 

0.000000 0.000000 0.000000 
0.000000 -0.000000 0.000000 
0.000000 0.000000 0.000000 

0.000000 -0.000000 0.000000 
0.000000 -0.000000 0.000000 
0.000000 0.000000 0.000000 

0.000000 -0.000000 0.000000 
0.000000 -0.000000 0.000000 
0.000000 0.000000 0.000000 

0.000000 -0.000000 0.000000 
0.000000 0.000000 0.000000 
0.000000 0.000000 0.000000 

0.000000 -0.000000 0.000000 
0.000000 0.000000 0.000000 
0.000000 0.000000 0.000000 

0.000000 -0.000000 0.000000 
0.000000 0.000000 0.000000 
0.000000 0.000000 0.000000 

-0.000000 0.000000 0.000000 
0.000000 0.000000 0.000000 
0.000000 0.000000 0.000000 

-0.000000 -0.000000 0.000000 
0.000000 -0.000000 0.000000 
0.000000 0.000000 0.000000 

-0.000000 0.000000 0.000000 
0.000000 -0.000000 0.000000 
0.000000 0.000000 0.000000 

0.000000 0.000000 0.000000 
0.000000 -0.000000 0.000000 
0.000000 0.000000 0.000000 

0.000000 -0.000000 0.000000 
0.000000 -0.000000 0.000000 
0.000000 0.000000 0.000000 

0.000000 -0.000000 0.000000 
0.000000 -0.000000 0.000000 
0.000000 0.000000 0.000000 

0.000000 -0.000000 0.000000 
0.000000 0.000000 0.000000 
0.000000 0.000000 0.000000 

0.000000 -0.000000 0.000000 
0.000000 -0.000000 0.000000 
0.000000 0.000000 0.000000 

-0.000000 0.000000 0.000000 
0.000000 -0.000000 0.000000 
0.000000 0.000000 0.000000 

-0.000000 0.000000 0.000000 
0.000000 0.000000 0.000000 
0.000000 0.000000 0.000000 

-0.000000 0.000000 0.000000 
0.000000 0.000000 0.000000 
0.000000 0.000000 0.000000 

-0.000000 0.000000 0.000000 
0.000000 0.000000 0.000000 
0.000000 0.000000 0.000000 

-0.000000 -0.000000 0.000000 
0.000000 -0.000000 0.000000 
0.000000 0.000000 0.000000 

-0.000000 0.000000 0.000000 
0.000000 -0.000000 0.000000 
0.000000 0.000000 0.000000 

-0.000000 -0.000000 0.000000 
0.000000 -0.000000 0.000000 
0.000000 0.000000 0.000000 

-0.000000 -0.000000 0.000000 
0.000000 -0.000000 0.000000 
0.000000 0.000000 0.000000 

0.000000 -0.000000 0.000000 
0.000000 -0.000000 0.000000 
0.000000 0.000000 0.000000 

-0.000000 -0.000000 0.000000 
0.000000 0.000000 0.000000 
0.000000 0.000000 0.000000 

-0.000000 -0.000000 0.000000 
0.000000 0.000000 0.000000 
0.000000 0.000000 0.000000 

-0.000000 -0.000000 0.000000 
0.000000 0.000000 0.000000 
0.000000 0.000000 0.000000 

-0.000000 -0.000000 0.000000 
0.000000 0.000000 0.000000 
0.000000 0.000000 0.000000 

-0.000000 -0.000000 0.000000 
0.000000 0.000000 0.000000 
0.000000 0.000000 0.000000 

0.000000 -0.000000 0.000000 
0.000000 0.000000 0.000000 
0.000000 0.000000 0.000000 

0.000000 -0.000000 0.000000 
0.000000 -0.000000 0.000000 
0.000000 0.000000 0.000000 

-0.000000 0.000000 0.000000 
0.000000 -0.000000 0.000000 
0.000000 0.000000 0.000000 

-0.000000 0.000000 0.000000 
0.000000 0.000000 0.000000 
0.000000 0.000000 0.000000 

-0.000000 0.000000 0.000000 
0.000000 0.000000 0.000000 
0.000000 0.000000 0.000000 

0.000000 -0.000000 0.000000 
0.000000 0.000000 0.000000 
0.000000 0.000000 0.000000 

0.000000 -0.000000 0.000000 
0.000000 -0.000000 0.000000 
0.000000 0.000000 0.000000 

0.000000 -0.000000 0.000000 
0.000000 0.000000 0.000000 
0.000000 0.000000 0.000000 

0.000000 -0.000000 0.000000 
0.000000 0.000000 0.000000 
0.000000 0.000000 0.000000 

0.000000 -0.000000 0.000000 
0.000000 0.000000 0.000000 
0.000000 0.000000 0.000000 

0.000000 -0.000000 0.000000 
0.000000 0.000000 0.000000 
0.000000 0.000000 0.000000 

-0.000000 0.000000 0.000000 
0.000000 0.000000 0.000000 
0.000000 0.000000 0.000000 

0.000000 0.000000 0.000000 
0.000000 -0.000000 0.000000 
0.000000 0.000000 0.000000 

0.000000 0.000000 0.000000 
0.000000 0.000000 0.000000 
0.000000 0.000000 0.000000 

-0.000000 0.000000 0.000000 
0.000000 0.000000 0.000000 
0.000000 0.000000 0.000000 

-0.000000 -0.000000 0.000000 
0.000000 -0.000000 0.000000 
0.000000 0.000000 0.000000 

-0.000000 0.000000 0.000000 
0.000000 -0.000000 0.000000 
0.000000 0.000000 0.000000 

-0.000000 -0.000000 0.000000 
0.000000 0.000000 0.000000 
0.000000 0.000000 0.000000 

-0.000000 -0.000000 0.000000 
0.000000 0.000000 0.000000 
0.000000 0.000000 0.000000 

-0.000000 -0.000000 0.000000 
0.000000 0.000000 0.000000 
0.000000 0.000000 0.000000 

-0.000000 -0.000000 0.000000 
0.000000 0.000000 0.000000 
0.000000 0.000000 0.000000 

-0.000000 -0.000000 0.000000 
0.000000 0.000000 0.000000 
0.000000 0.000000 0.000000 

-0.000000 -0.000000 0.000000 
0.000000 0.000000 0.000000 
0.000000 0.000000 0.000000 

-0.000000 -0.000000 0.000000 
0.000000 0.000000 0.000000 
0.000000 0.000000 0.000000 

0.000000 -0.000000 0.000000 
0.000000 -0.000000 0.000000 
0.000000 0.000000 0.000000 

-0.000000 -0.000000 0.000000 
0.000000 0.000000 0.000000 
0.000000 0.000000 0.000000 

0.000000 -0.000000 0.000000 
0.000000 -0.000000 0.000000 
0.000000 0.000000 0.000000 

-0.000000 0.000000 0.000000 
0.000000 0.000000 0.000000 
0.000000 0.000000 0.000000 

-0.000000 0.000000 0.000000 
0.000000 -0.000000 0.000000 
0.000000 0.000000 0.000000 

0.000000 0.000000 0.000000 
0.000000 -0.000000 0.000000 
0.000000 0.000000 0.000000 

0.000000 -0.000000 0.000000 
0.000000 0.000000 0.000000 
0.000000 0.000000 0.000000 

0.000000 -0.000000 0.000000 
0.000000 0.000000 0.000000 
0.000000 0.000000 0.000000 

0.000000 -0.000000 0.000000 
0.000000 0.000000 0.000000 
0.000000 0.000000 0.000000 

0.000000 -0.000000 0.000000 
0.000000 -0.000000 0.000000 
0.000000 0.000000 0.000000 

0.000000 -0.000000 0.000000 
0.000000 -0.000000 0.000000 
0.000000 0.000000 0.000000 

-0.000000 0.000000 0.000000 
0.000000 -0.000000 0.000000 
0.000000 0.000000 0.000000 

-0.000000 0.000000 0.000000 
0.000000 0.000000 0.000000 
0.000000 0.000000 0.000000 

0.000000 -0.000000 0.000000 
0.000000 0.000000 0.000000 
0.000000 0.000000 0.000000 

0.000000 0.000000 0.000000 
0.000000 0.000000 0.000000 
0.000000 0.000000 0.000000 

0.000000 0.000000 0.000000 
0.000000 0.000000 0.000000 
0.000000 0.000000 0.000000 

0.000000 0.000000 0.000000 
0.000000 0.000000 0.000000 
0.000000 0.000000 0.000000 

0.000000 0.000000 0.000000 
0.000000 -0.000000 0.000000 
0.000000 0.000000 0.000000 

-0.000000 -0.000000 0.000000 
0.000000 -0.000000 0.000000 
0.000000 0.000000 0.000000 

0.000000 -0.000000 0.000000 
0.000000 0.000000 0.000000 
0.000000 0.000000 0.000000 

-0.000000 -0.000000 0.000000 
0.000000 -0.000000 0.000000 
0.000000 0.000000 0.000000 

0.000000 0.000000 0.000000 
0.000000 0.000000 0.000000 
0.000000 0.000000 0.000000 

0.000000 0.000000 0.000000 
0.000000 0.000000 0.000000 
0.000000 0.000000 0.000000 

0.000000 0.000000 0.000000 
0.000000 0.000000 0.000000 
0.000000 0.000000 0.000000 

-0.000000 -0.000000 0.000000 
0.000000 0.000000 0.000000 
0.000000 0.000000 0.000000 

-0.000000 0.000000 0.000000 
0.000000 0.000000 0.000000 
0.000000 0.000000 0.000000 

-0.000000 -0.000000 0.000000 
0.000000 -0.000000 0.000000 
0.000000 0.000000 0.000000 

-0.000000 -0.000000 0.000000 
0.000000 0.000000 0.000000 
0.000000 0.000000 0.000000 

-0.000000 0.000000 0.000000 
0.000000 0.000000 0.000000 
0.000000 0.000000 0.000000 

0.000000 0.000000 0.000000 
0.000000 0.000000 0.000000 
0.000000 0.000000 0.000000 

0.000000 -0.000000 0.000000 
0.000000 -0.000000 0.000000 
0.000000 0.000000 0.000000 

0.000000 0.000000 0.000000 
0.000000 -0.000000 0.000000 
0.000000 0.000000 0.000000 

0.000000 0.000000 0.000000 
0.000000 0.000000 0.000000 
0.000000 0.000000 0.000000 

0.000000 0.000000 0.000000 
0.000000 -0.000000 0.000000 
0.000000 0.000000 0.000000 

0.000000 0.000000 0.000000 
0.000000 0.000000 0.000000 
0.000000 0.000000 0.000000 

0.000000 0.000000 0.000000 
0.000000 -0.000000 0.000000 
0.000000 0.000000 0.000000 

0.000000 0.000000 0.000000 
0.000000 -0.000000 0.000000 
0.000000 0.000000 0.000000 

-0.000000 0.000000 0.000000 
0.000000 0.000000 0.000000 
0.000000 0.000000 0.000000 

0.000000 0.000000 0.000000 
0.000000 0.000000 0.000000 
0.000000 0.000000 0.000000 

0.000000 -0.000000 0.000000 
0.000000 0.000000 0.000000 
0.000000 0.000000 0.000000 

0.000000 -0.000000 0.000000 
0.000000 0.000000 0.000000 
0.000000 0.000000 0.000000 

0.000000 0.000000 0.000000 
0.000000 0.000000 0.000000 
0.000000 0.000000 0.000000 

0.000000 0.000000 0.000000 
0.000000 0.000000 0.000000 
0.000000 0.000000 0.000000 

0.000000 0.000000 0.000000 
0.000000 0.000000 0.000000 
0.000000 0.000000 0.000000 

0.000000 0.000000 0.000000 
0.000000 0.000000 0.000000 
0.000000 0.000000 0.000000 

0.000000 0.000000 0.000000 
0.000000 0.000000 0.000000 
0.000000 0.000000 0.000000 

0.000000 -0.000000 0.000000 
0.000000 -0.000000 0.000000 
0.000000 0.000000 0.000000 

0.000000 0.000000 0.000000 
0.000000 -0.000000 0.000000 
0.000000 0.000000 0.000000 

0.000000 0.000000 0.000000 
0.000000 -0.000000 0.000000 
0.000000 0.000000 0.000000 

0.000000 -0.000000 0.000000 
0.000000 -0.000000 0.000000 
0.000000 0.000000 0.000000 

0.000000 -0.000000 0.000000 
0.000000 0.000000 0.000000 
0.000000 0.000000 0.000000 

0.000000 0.000000 0.000000 
0.000000 0.000000 0.000000 
0.000000 0.000000 0.000000 

-0.000000 0.000000 0.000000 
0.000000 -0.000000 0.000000 
0.000000 0.000000 0.000000 

-0.000000 -0.000000 0.000000 
0.000000 -0.000000 0.000000 
0.000000 0.000000 0.000000 

0.000000 0.000000 0.000000 
0.000000 0.000000 0.000000 
0.000000 0.000000 0.000000 

-0.000000 -0.000000 0.000000 
0.000000 -0.000000 0.000000 
0.000000 0.000000 0.000000 

0.000000 0.000000 0.000000 
0.000000 -0.000000 0.000000 
0.000000 0.000000 0.000000 

0.000000 0.000000 0.000000 
0.000000 -0.000000 0.000000 
0.000000 0.000000 0.000000 

0.000000 0.000000 0.000000 
0.000000 0.000000 0.000000 
0.000000 0.000000 0.000000 

0.000000 -0.000000 0.000000 
0.000000 -0.000000 0.000000 
0.000000 0.000000 0.000000 

-0.000000 -0.000000 0.000000 
0.000000 0.000000 0.000000 
0.000000 0.000000 0.000000 

-0.000000 -0.000000 0.000000 
0.000000 0.000000 0.000000 
0.000000 0.000000 0.000000 

