# vtk DataFile Version 3.0 
vtk output 
ASCII 
DATASET UNSTRUCTURED_GRID 
POINTS 175 float 
-0.026061 -0.148971 0.000000 
-0.106992 -0.080915 0.000000 
-0.054870 -0.089148 0.000000 
-0.028809 -0.043264 0.000000 
-0.186430 -0.016840 0.000000 
-0.137056 -0.019366 0.000000 
-0.114311 0.034281 0.000000 
-0.058186 0.018616 0.000000 
-0.029377 0.058793 0.000000 
-0.265318 0.046316 0.000000 
-0.217198 0.045516 0.000000 
-0.196633 0.102813 0.000000 
-0.143120 0.094104 0.000000 
-0.116563 0.141373 0.000000 
-0.058945 0.121727 0.000000 
-0.029568 0.159847 0.000000 
-0.344206 0.109472 0.000000 
-0.296791 0.109479 0.000000 
-0.278030 0.169422 0.000000 
-0.225992 0.163555 0.000000 
-0.201664 0.215672 0.000000 
-0.145749 0.202198 0.000000 
-0.117890 0.246541 0.000000 
-0.059328 0.223835 0.000000 
-0.029759 0.260901 0.000000 
-0.058559 -0.189722 0.000000 
-0.162226 -0.210564 0.000000 
-0.123292 -0.174947 0.000000 
-0.142917 -0.125963 0.000000 
-0.261851 -0.232721 0.000000 
-0.229092 -0.195693 0.000000 
-0.256854 -0.144462 0.000000 
-0.209613 -0.110349 0.000000 
-0.223062 -0.062775 0.000000 
-0.360414 -0.255021 0.000000 
-0.329787 -0.217898 0.000000 
-0.361761 -0.166096 0.000000 
-0.321587 -0.129687 0.000000 
-0.341985 -0.079453 0.000000 
-0.290702 -0.046654 0.000000 
-0.302189 0.000081 0.000000 
-0.458977 -0.277321 0.000000 
-0.429420 -0.240246 0.000000 
-0.464588 -0.188204 0.000000 
-0.427556 -0.151177 0.000000 
-0.453135 -0.099662 0.000000 
-0.407738 -0.064347 0.000000 
-0.425037 -0.014919 0.000000 
-0.370772 0.016710 0.000000 
-0.381315 0.062938 0.000000 
-0.046960 -0.240537 0.000000 
-0.095301 -0.334583 0.000000 
-0.098873 -0.281935 0.000000 
-0.149405 -0.266738 0.000000 
-0.140093 -0.426287 0.000000 
-0.148617 -0.377588 0.000000 
-0.205981 -0.367351 0.000000 
-0.203197 -0.309148 0.000000 
-0.248777 -0.290001 0.000000 
-0.184111 -0.517250 0.000000 
-0.194039 -0.470159 0.000000 
-0.254475 -0.462860 0.000000 
-0.257893 -0.408750 0.000000 
-0.309886 -0.393377 0.000000 
-0.303554 -0.332832 0.000000 
-0.347255 -0.312674 0.000000 
-0.228129 -0.608214 0.000000 
-0.238687 -0.561990 0.000000 
-0.301302 -0.557038 0.000000 
-0.307162 -0.504999 0.000000 
-0.363386 -0.492878 0.000000 
-0.362692 -0.435366 0.000000 
-0.412122 -0.418073 0.000000 
-0.403017 -0.355927 0.000000 
-0.445733 -0.335348 0.000000 
-0.000000 -0.263152 0.000000 
0.043388 -0.359582 0.000000 
-0.000000 -0.329550 0.000000 
-0.043388 -0.359582 0.000000 
0.087158 -0.451779 0.000000 
0.043769 -0.428080 0.000000 
-0.000000 -0.466546 0.000000 
-0.043769 -0.428080 0.000000 
-0.087158 -0.451779 0.000000 
0.130831 -0.542909 0.000000 
0.087824 -0.521310 0.000000 
0.044436 -0.564010 0.000000 
-0.000000 -0.532944 0.000000 
-0.044436 -0.564010 0.000000 
-0.087824 -0.521310 0.000000 
-0.130831 -0.542909 0.000000 
0.174505 -0.634038 0.000000 
0.131782 -0.613472 0.000000 
0.088871 -0.659339 0.000000 
0.044532 -0.631475 0.000000 
-0.000000 -0.667875 0.000000 
-0.044532 -0.631475 0.000000 
-0.088871 -0.659339 0.000000 
-0.131782 -0.613472 0.000000 
-0.174505 -0.634038 0.000000 
0.046960 -0.240537 0.000000 
0.149405 -0.266738 0.000000 
0.098873 -0.281935 0.000000 
0.095301 -0.334583 0.000000 
0.248777 -0.290001 0.000000 
0.203197 -0.309148 0.000000 
0.205981 -0.367351 0.000000 
0.148617 -0.377588 0.000000 
0.140093 -0.426287 0.000000 
0.347255 -0.312674 0.000000 
0.303554 -0.332832 0.000000 
0.309886 -0.393377 0.000000 
0.257893 -0.408750 0.000000 
0.254475 -0.462860 0.000000 
0.194039 -0.470159 0.000000 
0.184111 -0.517250 0.000000 
0.445733 -0.335348 0.000000 
0.403017 -0.355927 0.000000 
0.412122 -0.418073 0.000000 
0.362692 -0.435366 0.000000 
0.363386 -0.492878 0.000000 
0.307162 -0.504999 0.000000 
0.301302 -0.557038 0.000000 
0.238687 -0.561990 0.000000 
0.228129 -0.608214 0.000000 
0.058559 -0.189722 0.000000 
0.142917 -0.125963 0.000000 
0.123292 -0.174947 0.000000 
0.162226 -0.210564 0.000000 
0.223062 -0.062775 0.000000 
0.209613 -0.110349 0.000000 
0.256854 -0.144462 0.000000 
0.229092 -0.195693 0.000000 
0.261851 -0.232721 0.000000 
0.302189 0.000081 0.000000 
0.290702 -0.046654 0.000000 
0.341985 -0.079453 0.000000 
0.321587 -0.129687 0.000000 
0.361761 -0.166096 0.000000 
0.329787 -0.217898 0.000000 
0.360414 -0.255021 0.000000 
0.381315 0.062938 0.000000 
0.370772 0.016710 0.000000 
0.425037 -0.014919 0.000000 
0.407738 -0.064347 0.000000 
0.453135 -0.099662 0.000000 
0.427556 -0.151177 0.000000 
0.464588 -0.188204 0.000000 
0.429420 -0.240246 0.000000 
0.458977 -0.277321 0.000000 
0.026061 -0.148971 0.000000 
0.028809 -0.043264 0.000000 
0.054870 -0.089148 0.000000 
0.106992 -0.080915 0.000000 
0.029377 0.058793 0.000000 
0.058186 0.018616 0.000000 
0.114311 0.034281 0.000000 
0.137056 -0.019366 0.000000 
0.186430 -0.016840 0.000000 
0.029568 0.159847 0.000000 
0.058945 0.121727 0.000000 
0.116563 0.141373 0.000000 
0.143120 0.094104 0.000000 
0.196633 0.102813 0.000000 
0.217198 0.045516 0.000000 
0.265318 0.046316 0.000000 
0.029759 0.260901 0.000000 
0.059328 0.223835 0.000000 
0.117890 0.246541 0.000000 
0.145749 0.202198 0.000000 
0.201664 0.215672 0.000000 
0.225992 0.163555 0.000000 
0.278030 0.169422 0.000000 
0.296791 0.109479 0.000000 
0.344206 0.109472 0.000000 
CELLS 175 350 
1 0 
1 1 
1 2 
1 3 
1 4 
1 5 
1 6 
1 7 
1 8 
1 9 
1 10 
1 11 
1 12 
1 13 
1 14 
1 15 
1 16 
1 17 
1 18 
1 19 
1 20 
1 21 
1 22 
1 23 
1 24 
1 25 
1 26 
1 27 
1 28 
1 29 
1 30 
1 31 
1 32 
1 33 
1 34 
1 35 
1 36 
1 37 
1 38 
1 39 
1 40 
1 41 
1 42 
1 43 
1 44 
1 45 
1 46 
1 47 
1 48 
1 49 
1 50 
1 51 
1 52 
1 53 
1 54 
1 55 
1 56 
1 57 
1 58 
1 59 
1 60 
1 61 
1 62 
1 63 
1 64 
1 65 
1 66 
1 67 
1 68 
1 69 
1 70 
1 71 
1 72 
1 73 
1 74 
1 75 
1 76 
1 77 
1 78 
1 79 
1 80 
1 81 
1 82 
1 83 
1 84 
1 85 
1 86 
1 87 
1 88 
1 89 
1 90 
1 91 
1 92 
1 93 
1 94 
1 95 
1 96 
1 97 
1 98 
1 99 
1 100 
1 101 
1 102 
1 103 
1 104 
1 105 
1 106 
1 107 
1 108 
1 109 
1 110 
1 111 
1 112 
1 113 
1 114 
1 115 
1 116 
1 117 
1 118 
1 119 
1 120 
1 121 
1 122 
1 123 
1 124 
1 125 
1 126 
1 127 
1 128 
1 129 
1 130 
1 131 
1 132 
1 133 
1 134 
1 135 
1 136 
1 137 
1 138 
1 139 
1 140 
1 141 
1 142 
1 143 
1 144 
1 145 
1 146 
1 147 
1 148 
1 149 
1 150 
1 151 
1 152 
1 153 
1 154 
1 155 
1 156 
1 157 
1 158 
1 159 
1 160 
1 161 
1 162 
1 163 
1 164 
1 165 
1 166 
1 167 
1 168 
1 169 
1 170 
1 171 
1 172 
1 173 
1 174 
CELL_TYPES 175 
1 
1 
1 
1 
1 
1 
1 
1 
1 
1 
1 
1 
1 
1 
1 
1 
1 
1 
1 
1 
1 
1 
1 
1 
1 
1 
1 
1 
1 
1 
1 
1 
1 
1 
1 
1 
1 
1 
1 
1 
1 
1 
1 
1 
1 
1 
1 
1 
1 
1 
1 
1 
1 
1 
1 
1 
1 
1 
1 
1 
1 
1 
1 
1 
1 
1 
1 
1 
1 
1 
1 
1 
1 
1 
1 
1 
1 
1 
1 
1 
1 
1 
1 
1 
1 
1 
1 
1 
1 
1 
1 
1 
1 
1 
1 
1 
1 
1 
1 
1 
1 
1 
1 
1 
1 
1 
1 
1 
1 
1 
1 
1 
1 
1 
1 
1 
1 
1 
1 
1 
1 
1 
1 
1 
1 
1 
1 
1 
1 
1 
1 
1 
1 
1 
1 
1 
1 
1 
1 
1 
1 
1 
1 
1 
1 
1 
1 
1 
1 
1 
1 
1 
1 
1 
1 
1 
1 
1 
1 
1 
1 
1 
1 
1 
1 
1 
1 
1 
1 
1 
1 
1 
1 
1 
1 
POINT_DATA 175 
VECTORS X_GC float 
-0.026061 -0.148971 0.000000 
-0.106992 -0.080915 0.000000 
-0.054870 -0.089148 0.000000 
-0.028809 -0.043264 0.000000 
-0.186430 -0.016840 0.000000 
-0.137056 -0.019366 0.000000 
-0.114311 0.034281 0.000000 
-0.058186 0.018616 0.000000 
-0.029377 0.058793 0.000000 
-0.265318 0.046316 0.000000 
-0.217198 0.045516 0.000000 
-0.196633 0.102813 0.000000 
-0.143120 0.094104 0.000000 
-0.116563 0.141373 0.000000 
-0.058945 0.121727 0.000000 
-0.029568 0.159847 0.000000 
-0.344206 0.109472 0.000000 
-0.296791 0.109479 0.000000 
-0.278030 0.169422 0.000000 
-0.225992 0.163555 0.000000 
-0.201664 0.215672 0.000000 
-0.145749 0.202198 0.000000 
-0.117890 0.246541 0.000000 
-0.059328 0.223835 0.000000 
-0.029759 0.260901 0.000000 
-0.058559 -0.189722 0.000000 
-0.162226 -0.210564 0.000000 
-0.123292 -0.174947 0.000000 
-0.142917 -0.125963 0.000000 
-0.261851 -0.232721 0.000000 
-0.229092 -0.195693 0.000000 
-0.256854 -0.144462 0.000000 
-0.209613 -0.110349 0.000000 
-0.223062 -0.062775 0.000000 
-0.360414 -0.255021 0.000000 
-0.329787 -0.217898 0.000000 
-0.361761 -0.166096 0.000000 
-0.321587 -0.129687 0.000000 
-0.341985 -0.079453 0.000000 
-0.290702 -0.046654 0.000000 
-0.302189 0.000081 0.000000 
-0.458977 -0.277321 0.000000 
-0.429420 -0.240246 0.000000 
-0.464588 -0.188204 0.000000 
-0.427556 -0.151177 0.000000 
-0.453135 -0.099662 0.000000 
-0.407738 -0.064347 0.000000 
-0.425037 -0.014919 0.000000 
-0.370772 0.016710 0.000000 
-0.381315 0.062938 0.000000 
-0.046960 -0.240537 0.000000 
-0.095301 -0.334583 0.000000 
-0.098873 -0.281935 0.000000 
-0.149405 -0.266738 0.000000 
-0.140093 -0.426287 0.000000 
-0.148617 -0.377588 0.000000 
-0.205981 -0.367351 0.000000 
-0.203197 -0.309148 0.000000 
-0.248777 -0.290001 0.000000 
-0.184111 -0.517250 0.000000 
-0.194039 -0.470159 0.000000 
-0.254475 -0.462860 0.000000 
-0.257893 -0.408750 0.000000 
-0.309886 -0.393377 0.000000 
-0.303554 -0.332832 0.000000 
-0.347255 -0.312674 0.000000 
-0.228129 -0.608214 0.000000 
-0.238687 -0.561990 0.000000 
-0.301302 -0.557038 0.000000 
-0.307162 -0.504999 0.000000 
-0.363386 -0.492878 0.000000 
-0.362692 -0.435366 0.000000 
-0.412122 -0.418073 0.000000 
-0.403017 -0.355927 0.000000 
-0.445733 -0.335348 0.000000 
-0.000000 -0.263152 0.000000 
0.043388 -0.359582 0.000000 
-0.000000 -0.329550 0.000000 
-0.043388 -0.359582 0.000000 
0.087158 -0.451779 0.000000 
0.043769 -0.428080 0.000000 
-0.000000 -0.466546 0.000000 
-0.043769 -0.428080 0.000000 
-0.087158 -0.451779 0.000000 
0.130831 -0.542909 0.000000 
0.087824 -0.521310 0.000000 
0.044436 -0.564010 0.000000 
-0.000000 -0.532944 0.000000 
-0.044436 -0.564010 0.000000 
-0.087824 -0.521310 0.000000 
-0.130831 -0.542909 0.000000 
0.174505 -0.634038 0.000000 
0.131782 -0.613472 0.000000 
0.088871 -0.659339 0.000000 
0.044532 -0.631475 0.000000 
-0.000000 -0.667875 0.000000 
-0.044532 -0.631475 0.000000 
-0.088871 -0.659339 0.000000 
-0.131782 -0.613472 0.000000 
-0.174505 -0.634038 0.000000 
0.046960 -0.240537 0.000000 
0.149405 -0.266738 0.000000 
0.098873 -0.281935 0.000000 
0.095301 -0.334583 0.000000 
0.248777 -0.290001 0.000000 
0.203197 -0.309148 0.000000 
0.205981 -0.367351 0.000000 
0.148617 -0.377588 0.000000 
0.140093 -0.426287 0.000000 
0.347255 -0.312674 0.000000 
0.303554 -0.332832 0.000000 
0.309886 -0.393377 0.000000 
0.257893 -0.408750 0.000000 
0.254475 -0.462860 0.000000 
0.194039 -0.470159 0.000000 
0.184111 -0.517250 0.000000 
0.445733 -0.335348 0.000000 
0.403017 -0.355927 0.000000 
0.412122 -0.418073 0.000000 
0.362692 -0.435366 0.000000 
0.363386 -0.492878 0.000000 
0.307162 -0.504999 0.000000 
0.301302 -0.557038 0.000000 
0.238687 -0.561990 0.000000 
0.228129 -0.608214 0.000000 
0.058559 -0.189722 0.000000 
0.142917 -0.125963 0.000000 
0.123292 -0.174947 0.000000 
0.162226 -0.210564 0.000000 
0.223062 -0.062775 0.000000 
0.209613 -0.110349 0.000000 
0.256854 -0.144462 0.000000 
0.229092 -0.195693 0.000000 
0.261851 -0.232721 0.000000 
0.302189 0.000081 0.000000 
0.290702 -0.046654 0.000000 
0.341985 -0.079453 0.000000 
0.321587 -0.129687 0.000000 
0.361761 -0.166096 0.000000 
0.329787 -0.217898 0.000000 
0.360414 -0.255021 0.000000 
0.381315 0.062938 0.000000 
0.370772 0.016710 0.000000 
0.425037 -0.014919 0.000000 
0.407738 -0.064347 0.000000 
0.453135 -0.099662 0.000000 
0.427556 -0.151177 0.000000 
0.464588 -0.188204 0.000000 
0.429420 -0.240246 0.000000 
0.458977 -0.277321 0.000000 
0.026061 -0.148971 0.000000 
0.028809 -0.043264 0.000000 
0.054870 -0.089148 0.000000 
0.106992 -0.080915 0.000000 
0.029377 0.058793 0.000000 
0.058186 0.018616 0.000000 
0.114311 0.034281 0.000000 
0.137056 -0.019366 0.000000 
0.186430 -0.016840 0.000000 
0.029568 0.159847 0.000000 
0.058945 0.121727 0.000000 
0.116563 0.141373 0.000000 
0.143120 0.094104 0.000000 
0.196633 0.102813 0.000000 
0.217198 0.045516 0.000000 
0.265318 0.046316 0.000000 
0.029759 0.260901 0.000000 
0.059328 0.223835 0.000000 
0.117890 0.246541 0.000000 
0.145749 0.202198 0.000000 
0.201664 0.215672 0.000000 
0.225992 0.163555 0.000000 
0.278030 0.169422 0.000000 
0.296791 0.109479 0.000000 
0.344206 0.109472 0.000000 
VECTORS X_EC float 
0.338794 0.511106 0.000000 
-0.609100 -0.407642 0.000000 
0.713312 -0.296501 0.000000 
0.374519 -0.915931 0.000000 
0.423588 0.727338 0.000000 
-0.218274 0.761442 0.000000 
-0.513962 0.037203 0.000000 
0.756418 0.248689 0.000000 
0.381900 -0.293703 0.000000 
-0.550868 -0.125265 0.000000 
0.823577 -0.114469 0.000000 
0.556234 -0.887973 0.000000 
-0.139443 -0.770404 0.000000 
-0.484677 0.591471 0.000000 
0.766286 0.856686 0.000000 
0.384386 0.342066 0.000000 
0.474677 -0.977868 0.000000 
-0.141715 -0.977964 0.000000 
-0.385608 0.212808 0.000000 
0.937896 0.292003 0.000000 
0.621631 -0.411577 0.000000 
-0.105264 -0.229678 0.000000 
-0.467428 -0.828304 0.000000 
0.771260 -0.521776 0.000000 
0.386873 0.977835 0.000000 
0.761262 -0.938759 0.000000 
0.108942 -0.657383 0.000000 
-0.397202 0.861778 0.000000 
-0.142083 0.200503 0.000000 
-0.595936 -0.358272 0.000000 
0.978194 -0.858138 0.000000 
-0.660903 0.450237 0.000000 
0.724964 -0.010283 0.000000 
0.899809 -0.652532 0.000000 
0.685384 -0.057220 0.000000 
0.287229 -0.558378 0.000000 
0.702895 0.742293 0.000000 
0.180633 0.250774 0.000000 
0.445811 -0.427385 0.000000 
-0.220880 -0.870171 0.000000 
-0.071546 0.498903 0.000000 
-0.033296 0.243832 0.000000 
-0.417537 -0.256677 0.000000 
0.039645 -0.959240 0.000000 
-0.441768 0.540889 0.000000 
-0.109248 -0.154562 0.000000 
-0.699407 -0.631317 0.000000 
-0.474522 0.701403 0.000000 
0.820030 0.274410 0.000000 
0.957100 -0.349662 0.000000 
0.610485 -0.252753 0.000000 
-0.761092 -0.983134 0.000000 
-0.714655 0.306129 0.000000 
-0.057734 0.100962 0.000000 
-0.178789 0.254871 0.000000 
-0.067979 -0.402556 0.000000 
0.677748 -0.540759 0.000000 
0.641556 0.673496 0.000000 
-0.765897 0.415017 0.000000 
0.393446 -0.517120 0.000000 
0.522510 0.847150 0.000000 
-0.691820 0.748605 0.000000 
-0.647393 0.018123 0.000000 
0.028512 -0.189404 0.000000 
-0.053800 0.993236 0.000000 
0.514316 0.721105 0.000000 
0.965681 0.710889 0.000000 
-0.897068 0.086860 0.000000 
-0.083078 0.020007 0.000000 
-0.006893 -0.682518 0.000000 
0.724017 -0.846151 0.000000 
0.714996 0.377446 0.000000 
-0.642413 0.143989 0.000000 
-0.760780 -0.694992 0.000000 
-0.205471 -0.972807 0.000000 
0.000000 0.052549 0.000000 
-0.564049 -0.645639 0.000000 
0.000000 0.948925 0.000000 
0.564049 -0.645639 0.000000 
0.866949 0.599017 0.000000 
-0.569003 0.279086 0.000000 
0.000000 0.798374 0.000000 
0.569003 0.279086 0.000000 
-0.866949 0.599017 0.000000 
0.299194 -0.170733 0.000000 
0.858290 -0.462317 0.000000 
-0.577662 0.114129 0.000000 
0.000000 -0.305249 0.000000 
0.577662 0.114129 0.000000 
-0.858290 -0.462317 0.000000 
-0.299194 -0.170733 0.000000 
-0.268560 -0.940483 0.000000 
0.286830 0.781875 0.000000 
0.844677 -0.598927 0.000000 
-0.578910 -0.975089 0.000000 
0.000000 -0.483685 0.000000 
0.578910 -0.975089 0.000000 
-0.844677 -0.598927 0.000000 
-0.286830 0.781875 0.000000 
0.268560 -0.940483 0.000000 
-0.610485 -0.252753 0.000000 
0.057734 0.100962 0.000000 
0.714655 0.306129 0.000000 
0.761092 -0.983134 0.000000 
0.765897 0.415017 0.000000 
-0.641556 0.673496 0.000000 
-0.677748 -0.540759 0.000000 
0.067979 -0.402556 0.000000 
0.178789 0.254871 0.000000 
-0.514316 0.721105 0.000000 
0.053800 0.993236 0.000000 
-0.028512 -0.189404 0.000000 
0.647393 0.018123 0.000000 
0.691820 0.748605 0.000000 
-0.522510 0.847150 0.000000 
-0.393446 -0.517120 0.000000 
0.205471 -0.972807 0.000000 
0.760780 -0.694992 0.000000 
0.642413 0.143989 0.000000 
-0.714996 0.377446 0.000000 
-0.724017 -0.846151 0.000000 
0.006894 -0.682518 0.000000 
0.083078 0.020007 0.000000 
0.897068 0.086860 0.000000 
-0.965681 0.710889 0.000000 
-0.761262 -0.938759 0.000000 
0.142083 0.200503 0.000000 
0.397202 0.861778 0.000000 
-0.108942 -0.657383 0.000000 
-0.899809 -0.652532 0.000000 
-0.724964 -0.010283 0.000000 
0.660903 0.450237 0.000000 
-0.978194 -0.858138 0.000000 
0.595936 -0.358272 0.000000 
0.071546 0.498903 0.000000 
0.220880 -0.870171 0.000000 
-0.445811 -0.427385 0.000000 
-0.180633 0.250774 0.000000 
-0.702895 0.742293 0.000000 
-0.287229 -0.558378 0.000000 
-0.685384 -0.057220 0.000000 
-0.957100 -0.349662 0.000000 
-0.820030 0.274410 0.000000 
0.474522 0.701404 0.000000 
0.699407 -0.631317 0.000000 
0.109248 -0.154562 0.000000 
0.441768 0.540889 0.000000 
-0.039645 -0.959240 0.000000 
0.417537 -0.256677 0.000000 
0.033296 0.243832 0.000000 
-0.338794 0.511106 0.000000 
-0.374519 -0.915931 0.000000 
-0.713312 -0.296501 0.000000 
0.609100 -0.407642 0.000000 
-0.381900 -0.293703 0.000000 
-0.756418 0.248689 0.000000 
0.513962 0.037203 0.000000 
0.218274 0.761442 0.000000 
-0.423588 0.727338 0.000000 
-0.384386 0.342066 0.000000 
-0.766286 0.856686 0.000000 
0.484677 0.591471 0.000000 
0.139443 -0.770404 0.000000 
-0.556234 -0.887973 0.000000 
-0.823577 -0.114469 0.000000 
0.550868 -0.125265 0.000000 
-0.386873 0.977835 0.000000 
-0.771260 -0.521776 0.000000 
0.467428 -0.828304 0.000000 
0.105264 -0.229678 0.000000 
-0.621631 -0.411577 0.000000 
-0.937896 0.292003 0.000000 
0.385608 0.212808 0.000000 
0.141715 -0.977964 0.000000 
-0.474677 -0.977868 0.000000 
CELL_DATA 175 
SCALARS MASS float 
LOOKUP_TABLE default 
0.078183 
0.086427 
0.094672 
0.086427 
0.088131 
0.092111 
0.085854 
0.092111 
0.088131 
0.088705 
0.091000 
0.086983 
0.091556 
0.086983 
0.091000 
0.088705 
0.089278 
0.091574 
0.089278 
0.092722 
0.089278 
0.092722 
0.089278 
0.091574 
0.089278 
0.078183 
0.086427 
0.094672 
0.086427 
0.088131 
0.092111 
0.085854 
0.092111 
0.088131 
0.088705 
0.091000 
0.086983 
0.091556 
0.086983 
0.091000 
0.088705 
0.089278 
0.091574 
0.089278 
0.092722 
0.089278 
0.092722 
0.089278 
0.091574 
0.089278 
0.078183 
0.086427 
0.094672 
0.086427 
0.088131 
0.092111 
0.085854 
0.092111 
0.088131 
0.088705 
0.091000 
0.086983 
0.091556 
0.086983 
0.091000 
0.088705 
0.089278 
0.091574 
0.089278 
0.092722 
0.089278 
0.092722 
0.089278 
0.091574 
0.089278 
0.078183 
0.086427 
0.094672 
0.086427 
0.088131 
0.092111 
0.085854 
0.092111 
0.088131 
0.088705 
0.091000 
0.086983 
0.091556 
0.086983 
0.091000 
0.088705 
0.089278 
0.091574 
0.089278 
0.092722 
0.089278 
0.092722 
0.089278 
0.091574 
0.089278 
0.078183 
0.086427 
0.094672 
0.086427 
0.088131 
0.092111 
0.085854 
0.092111 
0.088131 
0.088705 
0.091000 
0.086983 
0.091556 
0.086983 
0.091000 
0.088705 
0.089278 
0.091574 
0.089278 
0.092722 
0.089278 
0.092722 
0.089278 
0.091574 
0.089278 
0.078183 
0.086427 
0.094672 
0.086427 
0.088131 
0.092111 
0.085854 
0.092111 
0.088131 
0.088705 
0.091000 
0.086983 
0.091556 
0.086983 
0.091000 
0.088705 
0.089278 
0.091574 
0.089278 
0.092722 
0.089278 
0.092722 
0.089278 
0.091574 
0.089278 
0.078183 
0.086427 
0.094672 
0.086427 
0.088131 
0.092111 
0.085854 
0.092111 
0.088131 
0.088705 
0.091000 
0.086983 
0.091556 
0.086983 
0.091000 
0.088705 
0.089278 
0.091574 
0.089278 
0.092722 
0.089278 
0.092722 
0.089278 
0.091574 
0.089278 
SCALARS MASS float 
LOOKUP_TABLE default 
0.078183 
0.086427 
0.094672 
0.086427 
0.088131 
0.092111 
0.085854 
0.092111 
0.088131 
0.088705 
0.091000 
0.086983 
0.091556 
0.086983 
0.091000 
0.088705 
0.089278 
0.091574 
0.089278 
0.092722 
0.089278 
0.092722 
0.089278 
0.091574 
0.089278 
0.078183 
0.086427 
0.094672 
0.086427 
0.088131 
0.092111 
0.085854 
0.092111 
0.088131 
0.088705 
0.091000 
0.086983 
0.091556 
0.086983 
0.091000 
0.088705 
0.089278 
0.091574 
0.089278 
0.092722 
0.089278 
0.092722 
0.089278 
0.091574 
0.089278 
0.078183 
0.086427 
0.094672 
0.086427 
0.088131 
0.092111 
0.085854 
0.092111 
0.088131 
0.088705 
0.091000 
0.086983 
0.091556 
0.086983 
0.091000 
0.088705 
0.089278 
0.091574 
0.089278 
0.092722 
0.089278 
0.092722 
0.089278 
0.091574 
0.089278 
0.078183 
0.086427 
0.094672 
0.086427 
0.088131 
0.092111 
0.085854 
0.092111 
0.088131 
0.088705 
0.091000 
0.086983 
0.091556 
0.086983 
0.091000 
0.088705 
0.089278 
0.091574 
0.089278 
0.092722 
0.089278 
0.092722 
0.089278 
0.091574 
0.089278 
0.078183 
0.086427 
0.094672 
0.086427 
0.088131 
0.092111 
0.085854 
0.092111 
0.088131 
0.088705 
0.091000 
0.086983 
0.091556 
0.086983 
0.091000 
0.088705 
0.089278 
0.091574 
0.089278 
0.092722 
0.089278 
0.092722 
0.089278 
0.091574 
0.089278 
0.078183 
0.086427 
0.094672 
0.086427 
0.088131 
0.092111 
0.085854 
0.092111 
0.088131 
0.088705 
0.091000 
0.086983 
0.091556 
0.086983 
0.091000 
0.088705 
0.089278 
0.091574 
0.089278 
0.092722 
0.089278 
0.092722 
0.089278 
0.091574 
0.089278 
0.078183 
0.086427 
0.094672 
0.086427 
0.088131 
0.092111 
0.085854 
0.092111 
0.088131 
0.088705 
0.091000 
0.086983 
0.091556 
0.086983 
0.091000 
0.088705 
0.089278 
0.091574 
0.089278 
0.092722 
0.089278 
0.092722 
0.089278 
0.091574 
0.089278 
SCALARS DENSITY float 
LOOKUP_TABLE default 
20.000000 
20.000000 
20.000000 
20.000000 
20.000000 
20.000000 
20.000000 
20.000000 
20.000000 
20.000000 
20.000000 
20.000000 
20.000000 
20.000000 
20.000000 
20.000000 
20.000000 
20.000000 
20.000000 
20.000000 
20.000000 
20.000000 
20.000000 
20.000000 
20.000000 
20.000000 
20.000000 
20.000000 
20.000000 
20.000000 
20.000000 
20.000000 
20.000000 
20.000000 
20.000000 
20.000000 
20.000000 
20.000000 
20.000000 
20.000000 
20.000000 
20.000000 
20.000000 
20.000000 
20.000000 
20.000000 
20.000000 
20.000000 
20.000000 
20.000000 
20.000000 
20.000000 
20.000000 
20.000000 
20.000000 
20.000000 
20.000000 
20.000000 
20.000000 
20.000000 
20.000000 
20.000000 
20.000000 
20.000000 
20.000000 
20.000000 
20.000000 
20.000000 
20.000000 
20.000000 
20.000000 
20.000000 
20.000000 
20.000000 
20.000000 
20.000000 
20.000000 
20.000000 
20.000000 
20.000000 
20.000000 
20.000000 
20.000000 
20.000000 
20.000000 
20.000000 
20.000000 
20.000000 
20.000000 
20.000000 
20.000000 
20.000000 
20.000000 
20.000000 
20.000000 
20.000000 
20.000000 
20.000000 
20.000000 
20.000000 
20.000000 
20.000000 
20.000000 
20.000000 
20.000000 
20.000000 
20.000000 
20.000000 
20.000000 
20.000000 
20.000000 
20.000000 
20.000000 
20.000000 
20.000000 
20.000000 
20.000000 
20.000000 
20.000000 
20.000000 
20.000000 
20.000000 
20.000000 
20.000000 
20.000000 
20.000000 
20.000000 
20.000000 
20.000000 
20.000000 
20.000000 
20.000000 
20.000000 
20.000000 
20.000000 
20.000000 
20.000000 
20.000000 
20.000000 
20.000000 
20.000000 
20.000000 
20.000000 
20.000000 
20.000000 
20.000000 
20.000000 
20.000000 
20.000000 
20.000000 
20.000000 
20.000000 
20.000000 
20.000000 
20.000000 
20.000000 
20.000000 
20.000000 
20.000000 
20.000000 
20.000000 
20.000000 
20.000000 
20.000000 
20.000000 
20.000000 
20.000000 
20.000000 
20.000000 
20.000000 
20.000000 
20.000000 
20.000000 
20.000000 
20.000000 
SCALARS ELEM_i float 
LOOKUP_TABLE default 
181 
208 
181 
181 
209 
209 
209 
182 
182 
236 
209 
209 
209 
210 
183 
183 
236 
236 
237 
210 
210 
210 
210 
183 
184 
180 
207 
208 
208 
234 
207 
235 
208 
208 
234 
234 
235 
235 
235 
235 
236 
261 
261 
261 
262 
262 
262 
263 
236 
236 
180 
206 
207 
207 
206 
206 
206 
207 
234 
205 
206 
233 
233 
233 
234 
234 
205 
232 
232 
232 
232 
233 
260 
260 
260 
180 
179 
180 
179 
152 
179 
179 
179 
206 
151 
151 
178 
178 
178 
205 
205 
150 
151 
150 
177 
177 
177 
204 
205 
204 
180 
153 
153 
152 
126 
153 
152 
152 
152 
126 
126 
125 
125 
125 
152 
151 
98 
98 
98 
125 
124 
124 
124 
124 
151 
180 
154 
154 
153 
154 
154 
127 
153 
126 
128 
127 
127 
127 
127 
126 
126 
128 
128 
101 
100 
100 
100 
99 
99 
99 
181 
181 
181 
154 
182 
182 
155 
155 
155 
183 
183 
156 
155 
155 
155 
128 
184 
183 
156 
156 
156 
156 
129 
128 
128 
VECTORS VELOCITY float 
-0.000000 -1.995746 0.000000 
-0.000000 -1.995746 0.000000 
-0.000000 -1.995746 0.000000 
-0.000000 -1.995746 0.000000 
-0.000000 -1.995746 0.000000 
-0.000000 -1.995746 0.000000 
-0.000000 -1.995746 0.000000 
-0.000000 -1.995746 0.000000 
-0.000000 -1.995746 0.000000 
-0.000000 -1.995746 0.000000 
-0.000000 -1.995746 0.000000 
-0.000000 -1.995746 0.000000 
-0.000000 -1.995746 0.000000 
-0.000000 -1.995746 0.000000 
-0.000000 -1.995746 0.000000 
-0.000000 -1.995746 0.000000 
0.000000 -1.995746 0.000000 
0.000000 -1.995746 0.000000 
0.000000 -1.995746 0.000000 
0.000000 -1.995746 0.000000 
0.000000 -1.995746 0.000000 
-0.000000 -1.995746 0.000000 
0.000000 -1.995746 0.000000 
-0.000000 -1.995746 0.000000 
-0.000000 -1.995746 0.000000 
-0.000000 -1.995746 0.000000 
-0.000000 -1.995746 0.000000 
-0.000000 -1.995746 0.000000 
-0.000000 -1.995746 0.000000 
-0.000000 -1.995746 0.000000 
-0.000000 -1.995746 0.000000 
-0.000000 -1.995746 0.000000 
-0.000000 -1.995746 0.000000 
-0.000000 -1.995746 0.000000 
-0.000000 -1.995746 0.000000 
-0.000000 -1.995746 0.000000 
-0.000000 -1.995746 0.000000 
-0.000000 -1.995746 0.000000 
0.000000 -1.995746 0.000000 
0.000000 -1.995746 0.000000 
0.000000 -1.995746 0.000000 
0.000000 -1.995746 0.000000 
0.000000 -1.995746 0.000000 
0.000000 -1.995746 0.000000 
-0.000000 -1.995746 0.000000 
-0.000000 -1.995746 0.000000 
0.000000 -1.995746 0.000000 
0.000000 -1.995746 0.000000 
0.000000 -1.995746 0.000000 
-0.000000 -1.995746 0.000000 
-0.000000 -1.995746 0.000000 
-0.000000 -1.995746 0.000000 
-0.000000 -1.995746 0.000000 
-0.000000 -1.995746 0.000000 
-0.000000 -1.995746 0.000000 
-0.000000 -1.995746 0.000000 
0.000000 -1.995746 0.000000 
0.000000 -1.995746 0.000000 
0.000000 -1.995746 0.000000 
0.000000 -1.995746 0.000000 
-0.000000 -1.995746 0.000000 
0.000000 -1.995746 0.000000 
0.000000 -1.995746 0.000000 
0.000000 -1.995746 0.000000 
0.000000 -1.995746 0.000000 
0.000000 -1.995746 0.000000 
0.000000 -1.995746 0.000000 
0.000000 -1.995746 0.000000 
0.000000 -1.995746 0.000000 
0.000000 -1.995746 0.000000 
0.000000 -1.995746 0.000000 
0.000000 -1.995746 0.000000 
0.000000 -1.995746 0.000000 
0.000000 -1.995746 0.000000 
0.000000 -1.995746 0.000000 
-0.000000 -1.995746 0.000000 
0.000000 -1.995746 0.000000 
0.000000 -1.995746 0.000000 
-0.000000 -1.995746 0.000000 
0.000000 -1.995746 0.000000 
0.000000 -1.995746 0.000000 
-0.000000 -1.995746 0.000000 
-0.000000 -1.995746 0.000000 
-0.000000 -1.995746 0.000000 
0.000000 -1.995746 0.000000 
0.000000 -1.995746 0.000000 
0.000000 -1.995746 0.000000 
0.000000 -1.995746 0.000000 
0.000000 -1.995746 0.000000 
-0.000000 -1.995746 0.000000 
0.000000 -1.995746 0.000000 
0.000000 -1.995746 0.000000 
0.000000 -1.995746 0.000000 
0.000000 -1.995746 0.000000 
0.000000 -1.995746 0.000000 
0.000000 -1.995746 0.000000 
0.000000 -1.995746 0.000000 
0.000000 -1.995746 0.000000 
0.000000 -1.995746 0.000000 
0.000000 -1.995746 0.000000 
-0.000000 -1.995746 0.000000 
0.000000 -1.995746 0.000000 
0.000000 -1.995746 0.000000 
0.000000 -1.995746 0.000000 
0.000000 -1.995746 0.000000 
0.000000 -1.995746 0.000000 
0.000000 -1.995746 0.000000 
0.000000 -1.995746 0.000000 
0.000000 -1.995746 0.000000 
0.000000 -1.995746 0.000000 
0.000000 -1.995746 0.000000 
0.000000 -1.995746 0.000000 
0.000000 -1.995746 0.000000 
0.000000 -1.995746 0.000000 
0.000000 -1.995746 0.000000 
-0.000000 -1.995746 0.000000 
0.000000 -1.995746 0.000000 
-0.000000 -1.995746 0.000000 
0.000000 -1.995746 0.000000 
-0.000000 -1.995746 0.000000 
-0.000000 -1.995746 0.000000 
0.000000 -1.995746 0.000000 
0.000000 -1.995746 0.000000 
-0.000000 -1.995746 0.000000 
-0.000000 -1.995746 0.000000 
-0.000000 -1.995746 0.000000 
-0.000000 -1.995746 0.000000 
-0.000000 -1.995746 0.000000 
-0.000000 -1.995746 0.000000 
0.000000 -1.995746 0.000000 
0.000000 -1.995746 0.000000 
0.000000 -1.995746 0.000000 
0.000000 -1.995746 0.000000 
0.000000 -1.995746 0.000000 
-0.000000 -1.995746 0.000000 
-0.000000 -1.995746 0.000000 
0.000000 -1.995746 0.000000 
0.000000 -1.995746 0.000000 
0.000000 -1.995746 0.000000 
0.000000 -1.995746 0.000000 
0.000000 -1.995746 0.000000 
-0.000000 -1.995746 0.000000 
-0.000000 -1.995746 0.000000 
0.000000 -1.995746 0.000000 
-0.000000 -1.995746 0.000000 
-0.000000 -1.995746 0.000000 
-0.000000 -1.995746 0.000000 
-0.000000 -1.995746 0.000000 
-0.000000 -1.995746 0.000000 
0.000000 -1.995746 0.000000 
-0.000000 -1.995746 0.000000 
-0.000000 -1.995746 0.000000 
-0.000000 -1.995746 0.000000 
-0.000000 -1.995746 0.000000 
-0.000000 -1.995746 0.000000 
-0.000000 -1.995746 0.000000 
-0.000000 -1.995746 0.000000 
-0.000000 -1.995746 0.000000 
-0.000000 -1.995746 0.000000 
-0.000000 -1.995746 0.000000 
-0.000000 -1.995746 0.000000 
-0.000000 -1.995746 0.000000 
-0.000000 -1.995746 0.000000 
0.000000 -1.995746 0.000000 
-0.000000 -1.995746 0.000000 
-0.000000 -1.995746 0.000000 
-0.000000 -1.995746 0.000000 
-0.000000 -1.995746 0.000000 
-0.000000 -1.995746 0.000000 
-0.000000 -1.995746 0.000000 
-0.000000 -1.995746 0.000000 
0.000000 -1.995746 0.000000 
-0.000000 -1.995746 0.000000 
-0.000000 -1.995746 0.000000 
-0.000000 -1.995746 0.000000 
TENSORS STRESS float 
0.000000 0.000000 0.000000 
0.000000 0.000000 0.000000 
0.000000 0.000000 0.000000 

-0.000000 0.000000 0.000000 
0.000000 0.000000 0.000000 
0.000000 0.000000 0.000000 

0.000000 0.000000 0.000000 
0.000000 0.000000 0.000000 
0.000000 0.000000 0.000000 

0.000000 0.000000 0.000000 
0.000000 0.000000 0.000000 
0.000000 0.000000 0.000000 

0.000000 0.000000 0.000000 
0.000000 0.000000 0.000000 
0.000000 0.000000 0.000000 

0.000000 -0.000000 0.000000 
0.000000 0.000000 0.000000 
0.000000 0.000000 0.000000 

-0.000000 0.000000 0.000000 
0.000000 -0.000000 0.000000 
0.000000 0.000000 0.000000 

-0.000000 0.000000 0.000000 
0.000000 -0.000000 0.000000 
0.000000 0.000000 0.000000 

-0.000000 -0.000000 0.000000 
0.000000 -0.000000 0.000000 
0.000000 0.000000 0.000000 

0.000000 0.000000 0.000000 
0.000000 0.000000 0.000000 
0.000000 0.000000 0.000000 

0.000000 -0.000000 0.000000 
0.000000 -0.000000 0.000000 
0.000000 0.000000 0.000000 

0.000000 -0.000000 0.000000 
0.000000 0.000000 0.000000 
0.000000 0.000000 0.000000 

-0.000000 -0.000000 0.000000 
0.000000 -0.000000 0.000000 
0.000000 0.000000 0.000000 

0.000000 -0.000000 0.000000 
0.000000 0.000000 0.000000 
0.000000 0.000000 0.000000 

-0.000000 0.000000 0.000000 
0.000000 -0.000000 0.000000 
0.000000 0.000000 0.000000 

-0.000000 0.000000 0.000000 
0.000000 -0.000000 0.000000 
0.000000 0.000000 0.000000 

0.000000 0.000000 0.000000 
0.000000 0.000000 0.000000 
0.000000 0.000000 0.000000 

0.000000 0.000000 0.000000 
0.000000 0.000000 0.000000 
0.000000 0.000000 0.000000 

0.000000 0.000000 0.000000 
0.000000 -0.000000 0.000000 
0.000000 0.000000 0.000000 

-0.000000 0.000000 0.000000 
0.000000 0.000000 0.000000 
0.000000 0.000000 0.000000 

-0.000000 -0.000000 0.000000 
0.000000 -0.000000 0.000000 
0.000000 0.000000 0.000000 

-0.000000 -0.000000 0.000000 
0.000000 0.000000 0.000000 
0.000000 0.000000 0.000000 

0.000000 -0.000000 0.000000 
0.000000 0.000000 0.000000 
0.000000 0.000000 0.000000 

-0.000000 0.000000 0.000000 
0.000000 -0.000000 0.000000 
0.000000 0.000000 0.000000 

0.000000 -0.000000 0.000000 
0.000000 0.000000 0.000000 
0.000000 0.000000 0.000000 

0.000000 -0.000000 0.000000 
0.000000 0.000000 0.000000 
0.000000 0.000000 0.000000 

0.000000 -0.000000 0.000000 
0.000000 0.000000 0.000000 
0.000000 0.000000 0.000000 

-0.000000 0.000000 0.000000 
0.000000 0.000000 0.000000 
0.000000 0.000000 0.000000 

-0.000000 0.000000 0.000000 
0.000000 -0.000000 0.000000 
0.000000 0.000000 0.000000 

-0.000000 -0.000000 0.000000 
0.000000 -0.000000 0.000000 
0.000000 0.000000 0.000000 

0.000000 0.000000 0.000000 
0.000000 0.000000 0.000000 
0.000000 0.000000 0.000000 

0.000000 -0.000000 0.000000 
0.000000 0.000000 0.000000 
0.000000 0.000000 0.000000 

-0.000000 0.000000 0.000000 
0.000000 0.000000 0.000000 
0.000000 0.000000 0.000000 

-0.000000 -0.000000 0.000000 
0.000000 0.000000 0.000000 
0.000000 0.000000 0.000000 

0.000000 -0.000000 0.000000 
0.000000 0.000000 0.000000 
0.000000 0.000000 0.000000 

0.000000 -0.000000 0.000000 
0.000000 0.000000 0.000000 
0.000000 0.000000 0.000000 

0.000000 -0.000000 0.000000 
0.000000 0.000000 0.000000 
0.000000 0.000000 0.000000 

0.000000 -0.000000 0.000000 
0.000000 -0.000000 0.000000 
0.000000 0.000000 0.000000 

0.000000 -0.000000 0.000000 
0.000000 -0.000000 0.000000 
0.000000 0.000000 0.000000 

0.000000 -0.000000 0.000000 
0.000000 0.000000 0.000000 
0.000000 0.000000 0.000000 

0.000000 0.000000 0.000000 
0.000000 0.000000 0.000000 
0.000000 0.000000 0.000000 

0.000000 0.000000 0.000000 
0.000000 -0.000000 0.000000 
0.000000 0.000000 0.000000 

0.000000 0.000000 0.000000 
0.000000 0.000000 0.000000 
0.000000 0.000000 0.000000 

0.000000 -0.000000 0.000000 
0.000000 0.000000 0.000000 
0.000000 0.000000 0.000000 

0.000000 0.000000 0.000000 
0.000000 0.000000 0.000000 
0.000000 0.000000 0.000000 

0.000000 0.000000 0.000000 
0.000000 -0.000000 0.000000 
0.000000 0.000000 0.000000 

0.000000 0.000000 0.000000 
0.000000 0.000000 0.000000 
0.000000 0.000000 0.000000 

-0.000000 0.000000 0.000000 
0.000000 0.000000 0.000000 
0.000000 0.000000 0.000000 

0.000000 0.000000 0.000000 
0.000000 0.000000 0.000000 
0.000000 0.000000 0.000000 

0.000000 -0.000000 0.000000 
0.000000 0.000000 0.000000 
0.000000 0.000000 0.000000 

-0.000000 -0.000000 0.000000 
0.000000 0.000000 0.000000 
0.000000 0.000000 0.000000 

-0.000000 0.000000 0.000000 
0.000000 -0.000000 0.000000 
0.000000 0.000000 0.000000 

0.000000 -0.000000 0.000000 
0.000000 0.000000 0.000000 
0.000000 0.000000 0.000000 

0.000000 -0.000000 0.000000 
0.000000 0.000000 0.000000 
0.000000 0.000000 0.000000 

-0.000000 0.000000 0.000000 
0.000000 -0.000000 0.000000 
0.000000 0.000000 0.000000 

-0.000000 -0.000000 0.000000 
0.000000 -0.000000 0.000000 
0.000000 0.000000 0.000000 

-0.000000 0.000000 0.000000 
0.000000 -0.000000 0.000000 
0.000000 0.000000 0.000000 

0.000000 -0.000000 0.000000 
0.000000 0.000000 0.000000 
0.000000 0.000000 0.000000 

0.000000 -0.000000 0.000000 
0.000000 0.000000 0.000000 
0.000000 0.000000 0.000000 

0.000000 -0.000000 0.000000 
0.000000 0.000000 0.000000 
0.000000 0.000000 0.000000 

-0.000000 0.000000 0.000000 
0.000000 -0.000000 0.000000 
0.000000 0.000000 0.000000 

0.000000 0.000000 0.000000 
0.000000 0.000000 0.000000 
0.000000 0.000000 0.000000 

0.000000 0.000000 0.000000 
0.000000 -0.000000 0.000000 
0.000000 0.000000 0.000000 

0.000000 -0.000000 0.000000 
0.000000 -0.000000 0.000000 
0.000000 0.000000 0.000000 

0.000000 -0.000000 0.000000 
0.000000 0.000000 0.000000 
0.000000 0.000000 0.000000 

0.000000 -0.000000 0.000000 
0.000000 0.000000 0.000000 
0.000000 0.000000 0.000000 

0.000000 -0.000000 0.000000 
0.000000 0.000000 0.000000 
0.000000 0.000000 0.000000 

-0.000000 -0.000000 0.000000 
0.000000 0.000000 0.000000 
0.000000 0.000000 0.000000 

-0.000000 -0.000000 0.000000 
0.000000 -0.000000 0.000000 
0.000000 0.000000 0.000000 

0.000000 0.000000 0.000000 
0.000000 0.000000 0.000000 
0.000000 0.000000 0.000000 

0.000000 0.000000 0.000000 
0.000000 -0.000000 0.000000 
0.000000 0.000000 0.000000 

0.000000 0.000000 0.000000 
0.000000 0.000000 0.000000 
0.000000 0.000000 0.000000 

-0.000000 -0.000000 0.000000 
0.000000 -0.000000 0.000000 
0.000000 0.000000 0.000000 

0.000000 -0.000000 0.000000 
0.000000 0.000000 0.000000 
0.000000 0.000000 0.000000 

0.000000 0.000000 0.000000 
0.000000 0.000000 0.000000 
0.000000 0.000000 0.000000 

-0.000000 -0.000000 0.000000 
0.000000 -0.000000 0.000000 
0.000000 0.000000 0.000000 

-0.000000 -0.000000 0.000000 
0.000000 -0.000000 0.000000 
0.000000 0.000000 0.000000 

-0.000000 0.000000 0.000000 
0.000000 -0.000000 0.000000 
0.000000 0.000000 0.000000 

-0.000000 0.000000 0.000000 
0.000000 -0.000000 0.000000 
0.000000 0.000000 0.000000 

-0.000000 -0.000000 0.000000 
0.000000 -0.000000 0.000000 
0.000000 0.000000 0.000000 

-0.000000 -0.000000 0.000000 
0.000000 0.000000 0.000000 
0.000000 0.000000 0.000000 

-0.000000 -0.000000 0.000000 
0.000000 -0.000000 0.000000 
0.000000 0.000000 0.000000 

-0.000000 0.000000 0.000000 
0.000000 0.000000 0.000000 
0.000000 0.000000 0.000000 

-0.000000 -0.000000 0.000000 
0.000000 -0.000000 0.000000 
0.000000 0.000000 0.000000 

-0.000000 0.000000 0.000000 
0.000000 -0.000000 0.000000 
0.000000 0.000000 0.000000 

0.000000 -0.000000 0.000000 
0.000000 0.000000 0.000000 
0.000000 0.000000 0.000000 

-0.000000 0.000000 0.000000 
0.000000 0.000000 0.000000 
0.000000 0.000000 0.000000 

-0.000000 0.000000 0.000000 
0.000000 -0.000000 0.000000 
0.000000 0.000000 0.000000 

-0.000000 0.000000 0.000000 
0.000000 -0.000000 0.000000 
0.000000 0.000000 0.000000 

0.000000 0.000000 0.000000 
0.000000 0.000000 0.000000 
0.000000 0.000000 0.000000 

-0.000000 -0.000000 0.000000 
0.000000 -0.000000 0.000000 
0.000000 0.000000 0.000000 

-0.000000 -0.000000 0.000000 
0.000000 -0.000000 0.000000 
0.000000 0.000000 0.000000 

-0.000000 0.000000 0.000000 
0.000000 -0.000000 0.000000 
0.000000 0.000000 0.000000 

-0.000000 -0.000000 0.000000 
0.000000 0.000000 0.000000 
0.000000 0.000000 0.000000 

-0.000000 0.000000 0.000000 
0.000000 -0.000000 0.000000 
0.000000 0.000000 0.000000 

0.000000 0.000000 0.000000 
0.000000 0.000000 0.000000 
0.000000 0.000000 0.000000 

-0.000000 0.000000 0.000000 
0.000000 -0.000000 0.000000 
0.000000 0.000000 0.000000 

-0.000000 -0.000000 0.000000 
0.000000 -0.000000 0.000000 
0.000000 0.000000 0.000000 

0.000000 -0.000000 0.000000 
0.000000 0.000000 0.000000 
0.000000 0.000000 0.000000 

-0.000000 0.000000 0.000000 
0.000000 -0.000000 0.000000 
0.000000 0.000000 0.000000 

-0.000000 -0.000000 0.000000 
0.000000 -0.000000 0.000000 
0.000000 0.000000 0.000000 

-0.000000 -0.000000 0.000000 
0.000000 -0.000000 0.000000 
0.000000 0.000000 0.000000 

-0.000000 -0.000000 0.000000 
0.000000 -0.000000 0.000000 
0.000000 0.000000 0.000000 

0.000000 -0.000000 0.000000 
0.000000 -0.000000 0.000000 
0.000000 0.000000 0.000000 

0.000000 0.000000 0.000000 
0.000000 0.000000 0.000000 
0.000000 0.000000 0.000000 

0.000000 -0.000000 0.000000 
0.000000 -0.000000 0.000000 
0.000000 0.000000 0.000000 

0.000000 -0.000000 0.000000 
0.000000 0.000000 0.000000 
0.000000 0.000000 0.000000 

-0.000000 -0.000000 0.000000 
0.000000 -0.000000 0.000000 
0.000000 0.000000 0.000000 

0.000000 -0.000000 0.000000 
0.000000 0.000000 0.000000 
0.000000 0.000000 0.000000 

0.000000 0.000000 0.000000 
0.000000 0.000000 0.000000 
0.000000 0.000000 0.000000 

0.000000 -0.000000 0.000000 
0.000000 0.000000 0.000000 
0.000000 0.000000 0.000000 

-0.000000 -0.000000 0.000000 
0.000000 -0.000000 0.000000 
0.000000 0.000000 0.000000 

-0.000000 -0.000000 0.000000 
0.000000 -0.000000 0.000000 
0.000000 0.000000 0.000000 

-0.000000 -0.000000 0.000000 
0.000000 -0.000000 0.000000 
0.000000 0.000000 0.000000 

-0.000000 -0.000000 0.000000 
0.000000 -0.000000 0.000000 
0.000000 0.000000 0.000000 

-0.000000 0.000000 0.000000 
0.000000 -0.000000 0.000000 
0.000000 0.000000 0.000000 

0.000000 -0.000000 0.000000 
0.000000 0.000000 0.000000 
0.000000 0.000000 0.000000 

0.000000 -0.000000 0.000000 
0.000000 0.000000 0.000000 
0.000000 0.000000 0.000000 

0.000000 -0.000000 0.000000 
0.000000 0.000000 0.000000 
0.000000 0.000000 0.000000 

-0.000000 -0.000000 0.000000 
0.000000 -0.000000 0.000000 
0.000000 0.000000 0.000000 

-0.000000 -0.000000 0.000000 
0.000000 -0.000000 0.000000 
0.000000 0.000000 0.000000 

0.000000 0.000000 0.000000 
0.000000 -0.000000 0.000000 
0.000000 0.000000 0.000000 

0.000000 0.000000 0.000000 
0.000000 0.000000 0.000000 
0.000000 0.000000 0.000000 

-0.000000 0.000000 0.000000 
0.000000 -0.000000 0.000000 
0.000000 0.000000 0.000000 

0.000000 0.000000 0.000000 
0.000000 0.000000 0.000000 
0.000000 0.000000 0.000000 

0.000000 -0.000000 0.000000 
0.000000 0.000000 0.000000 
0.000000 0.000000 0.000000 

-0.000000 0.000000 0.000000 
0.000000 0.000000 0.000000 
0.000000 0.000000 0.000000 

-0.000000 0.000000 0.000000 
0.000000 0.000000 0.000000 
0.000000 0.000000 0.000000 

-0.000000 0.000000 0.000000 
0.000000 0.000000 0.000000 
0.000000 0.000000 0.000000 

-0.000000 0.000000 0.000000 
0.000000 -0.000000 0.000000 
0.000000 0.000000 0.000000 

-0.000000 0.000000 0.000000 
0.000000 -0.000000 0.000000 
0.000000 0.000000 0.000000 

-0.000000 0.000000 0.000000 
0.000000 -0.000000 0.000000 
0.000000 0.000000 0.000000 

0.000000 0.000000 0.000000 
0.000000 0.000000 0.000000 
0.000000 0.000000 0.000000 

0.000000 -0.000000 0.000000 
0.000000 0.000000 0.000000 
0.000000 0.000000 0.000000 

-0.000000 0.000000 0.000000 
0.000000 -0.000000 0.000000 
0.000000 0.000000 0.000000 

-0.000000 0.000000 0.000000 
0.000000 -0.000000 0.000000 
0.000000 0.000000 0.000000 

-0.000000 -0.000000 0.000000 
0.000000 -0.000000 0.000000 
0.000000 0.000000 0.000000 

-0.000000 -0.000000 0.000000 
0.000000 -0.000000 0.000000 
0.000000 0.000000 0.000000 

0.000000 -0.000000 0.000000 
0.000000 -0.000000 0.000000 
0.000000 0.000000 0.000000 

0.000000 -0.000000 0.000000 
0.000000 -0.000000 0.000000 
0.000000 0.000000 0.000000 

0.000000 -0.000000 0.000000 
0.000000 0.000000 0.000000 
0.000000 0.000000 0.000000 

0.000000 0.000000 0.000000 
0.000000 0.000000 0.000000 
0.000000 0.000000 0.000000 

-0.000000 -0.000000 0.000000 
0.000000 -0.000000 0.000000 
0.000000 0.000000 0.000000 

-0.000000 -0.000000 0.000000 
0.000000 -0.000000 0.000000 
0.000000 0.000000 0.000000 

0.000000 -0.000000 0.000000 
0.000000 0.000000 0.000000 
0.000000 0.000000 0.000000 

0.000000 0.000000 0.000000 
0.000000 0.000000 0.000000 
0.000000 0.000000 0.000000 

-0.000000 -0.000000 0.000000 
0.000000 -0.000000 0.000000 
0.000000 0.000000 0.000000 

-0.000000 0.000000 0.000000 
0.000000 -0.000000 0.000000 
0.000000 0.000000 0.000000 

-0.000000 0.000000 0.000000 
0.000000 0.000000 0.000000 
0.000000 0.000000 0.000000 

0.000000 0.000000 0.000000 
0.000000 0.000000 0.000000 
0.000000 0.000000 0.000000 

0.000000 0.000000 0.000000 
0.000000 0.000000 0.000000 
0.000000 0.000000 0.000000 

0.000000 0.000000 0.000000 
0.000000 -0.000000 0.000000 
0.000000 0.000000 0.000000 

0.000000 0.000000 0.000000 
0.000000 0.000000 0.000000 
0.000000 0.000000 0.000000 

-0.000000 0.000000 0.000000 
0.000000 -0.000000 0.000000 
0.000000 0.000000 0.000000 

-0.000000 -0.000000 0.000000 
0.000000 0.000000 0.000000 
0.000000 0.000000 0.000000 

-0.000000 0.000000 0.000000 
0.000000 -0.000000 0.000000 
0.000000 0.000000 0.000000 

-0.000000 0.000000 0.000000 
0.000000 0.000000 0.000000 
0.000000 0.000000 0.000000 

-0.000000 -0.000000 0.000000 
0.000000 0.000000 0.000000 
0.000000 0.000000 0.000000 

-0.000000 -0.000000 0.000000 
0.000000 0.000000 0.000000 
0.000000 0.000000 0.000000 

-0.000000 0.000000 0.000000 
0.000000 -0.000000 0.000000 
0.000000 0.000000 0.000000 

-0.000000 0.000000 0.000000 
0.000000 0.000000 0.000000 
0.000000 0.000000 0.000000 

-0.000000 0.000000 0.000000 
0.000000 -0.000000 0.000000 
0.000000 0.000000 0.000000 

-0.000000 0.000000 0.000000 
0.000000 -0.000000 0.000000 
0.000000 0.000000 0.000000 

-0.000000 0.000000 0.000000 
0.000000 -0.000000 0.000000 
0.000000 0.000000 0.000000 

-0.000000 0.000000 0.000000 
0.000000 0.000000 0.000000 
0.000000 0.000000 0.000000 

-0.000000 -0.000000 0.000000 
0.000000 -0.000000 0.000000 
0.000000 0.000000 0.000000 

-0.000000 -0.000000 0.000000 
0.000000 -0.000000 0.000000 
0.000000 0.000000 0.000000 

0.000000 0.000000 0.000000 
0.000000 0.000000 0.000000 
0.000000 0.000000 0.000000 

-0.000000 -0.000000 0.000000 
0.000000 -0.000000 0.000000 
0.000000 0.000000 0.000000 

-0.000000 -0.000000 0.000000 
0.000000 -0.000000 0.000000 
0.000000 0.000000 0.000000 

-0.000000 -0.000000 0.000000 
0.000000 -0.000000 0.000000 
0.000000 0.000000 0.000000 

-0.000000 -0.000000 0.000000 
0.000000 -0.000000 0.000000 
0.000000 0.000000 0.000000 

0.000000 -0.000000 0.000000 
0.000000 0.000000 0.000000 
0.000000 0.000000 0.000000 

-0.000000 -0.000000 0.000000 
0.000000 -0.000000 0.000000 
0.000000 0.000000 0.000000 

0.000000 0.000000 0.000000 
0.000000 0.000000 0.000000 
0.000000 0.000000 0.000000 

TENSORS STRAIN float 
0.000000 0.000000 0.000000 
0.000000 -0.000000 0.000000 
0.000000 0.000000 0.000000 

-0.000000 0.000000 0.000000 
0.000000 0.000000 0.000000 
0.000000 0.000000 0.000000 

0.000000 0.000000 0.000000 
0.000000 0.000000 0.000000 
0.000000 0.000000 0.000000 

0.000000 0.000000 0.000000 
0.000000 0.000000 0.000000 
0.000000 0.000000 0.000000 

0.000000 0.000000 0.000000 
0.000000 0.000000 0.000000 
0.000000 0.000000 0.000000 

0.000000 -0.000000 0.000000 
0.000000 0.000000 0.000000 
0.000000 0.000000 0.000000 

0.000000 0.000000 0.000000 
0.000000 -0.000000 0.000000 
0.000000 0.000000 0.000000 

-0.000000 0.000000 0.000000 
0.000000 -0.000000 0.000000 
0.000000 0.000000 0.000000 

-0.000000 -0.000000 0.000000 
0.000000 -0.000000 0.000000 
0.000000 0.000000 0.000000 

0.000000 0.000000 0.000000 
0.000000 0.000000 0.000000 
0.000000 0.000000 0.000000 

0.000000 -0.000000 0.000000 
0.000000 -0.000000 0.000000 
0.000000 0.000000 0.000000 

0.000000 -0.000000 0.000000 
0.000000 0.000000 0.000000 
0.000000 0.000000 0.000000 

0.000000 -0.000000 0.000000 
0.000000 -0.000000 0.000000 
0.000000 0.000000 0.000000 

-0.000000 -0.000000 0.000000 
0.000000 0.000000 0.000000 
0.000000 0.000000 0.000000 

-0.000000 0.000000 0.000000 
0.000000 -0.000000 0.000000 
0.000000 0.000000 0.000000 

-0.000000 0.000000 0.000000 
0.000000 -0.000000 0.000000 
0.000000 0.000000 0.000000 

0.000000 0.000000 0.000000 
0.000000 0.000000 0.000000 
0.000000 0.000000 0.000000 

0.000000 0.000000 0.000000 
0.000000 0.000000 0.000000 
0.000000 0.000000 0.000000 

0.000000 0.000000 0.000000 
0.000000 -0.000000 0.000000 
0.000000 0.000000 0.000000 

-0.000000 0.000000 0.000000 
0.000000 0.000000 0.000000 
0.000000 0.000000 0.000000 

-0.000000 -0.000000 0.000000 
0.000000 -0.000000 0.000000 
0.000000 0.000000 0.000000 

-0.000000 -0.000000 0.000000 
0.000000 0.000000 0.000000 
0.000000 0.000000 0.000000 

-0.000000 -0.000000 0.000000 
0.000000 0.000000 0.000000 
0.000000 0.000000 0.000000 

-0.000000 0.000000 0.000000 
0.000000 -0.000000 0.000000 
0.000000 0.000000 0.000000 

-0.000000 -0.000000 0.000000 
0.000000 0.000000 0.000000 
0.000000 0.000000 0.000000 

0.000000 -0.000000 0.000000 
0.000000 0.000000 0.000000 
0.000000 0.000000 0.000000 

-0.000000 -0.000000 0.000000 
0.000000 0.000000 0.000000 
0.000000 0.000000 0.000000 

-0.000000 0.000000 0.000000 
0.000000 0.000000 0.000000 
0.000000 0.000000 0.000000 

-0.000000 0.000000 0.000000 
0.000000 -0.000000 0.000000 
0.000000 0.000000 0.000000 

-0.000000 -0.000000 0.000000 
0.000000 -0.000000 0.000000 
0.000000 0.000000 0.000000 

-0.000000 0.000000 0.000000 
0.000000 0.000000 0.000000 
0.000000 0.000000 0.000000 

0.000000 -0.000000 0.000000 
0.000000 -0.000000 0.000000 
0.000000 0.000000 0.000000 

-0.000000 0.000000 0.000000 
0.000000 0.000000 0.000000 
0.000000 0.000000 0.000000 

-0.000000 -0.000000 0.000000 
0.000000 0.000000 0.000000 
0.000000 0.000000 0.000000 

-0.000000 -0.000000 0.000000 
0.000000 0.000000 0.000000 
0.000000 0.000000 0.000000 

-0.000000 -0.000000 0.000000 
0.000000 0.000000 0.000000 
0.000000 0.000000 0.000000 

0.000000 -0.000000 0.000000 
0.000000 0.000000 0.000000 
0.000000 0.000000 0.000000 

0.000000 -0.000000 0.000000 
0.000000 -0.000000 0.000000 
0.000000 0.000000 0.000000 

0.000000 -0.000000 0.000000 
0.000000 -0.000000 0.000000 
0.000000 0.000000 0.000000 

0.000000 -0.000000 0.000000 
0.000000 0.000000 0.000000 
0.000000 0.000000 0.000000 

0.000000 0.000000 0.000000 
0.000000 0.000000 0.000000 
0.000000 0.000000 0.000000 

0.000000 0.000000 0.000000 
0.000000 -0.000000 0.000000 
0.000000 0.000000 0.000000 

0.000000 0.000000 0.000000 
0.000000 0.000000 0.000000 
0.000000 0.000000 0.000000 

0.000000 -0.000000 0.000000 
0.000000 0.000000 0.000000 
0.000000 0.000000 0.000000 

0.000000 0.000000 0.000000 
0.000000 0.000000 0.000000 
0.000000 0.000000 0.000000 

0.000000 0.000000 0.000000 
0.000000 -0.000000 0.000000 
0.000000 0.000000 0.000000 

0.000000 0.000000 0.000000 
0.000000 0.000000 0.000000 
0.000000 0.000000 0.000000 

-0.000000 0.000000 0.000000 
0.000000 0.000000 0.000000 
0.000000 0.000000 0.000000 

0.000000 0.000000 0.000000 
0.000000 -0.000000 0.000000 
0.000000 0.000000 0.000000 

0.000000 -0.000000 0.000000 
0.000000 0.000000 0.000000 
0.000000 0.000000 0.000000 

-0.000000 -0.000000 0.000000 
0.000000 0.000000 0.000000 
0.000000 0.000000 0.000000 

-0.000000 0.000000 0.000000 
0.000000 -0.000000 0.000000 
0.000000 0.000000 0.000000 

0.000000 -0.000000 0.000000 
0.000000 0.000000 0.000000 
0.000000 0.000000 0.000000 

0.000000 -0.000000 0.000000 
0.000000 0.000000 0.000000 
0.000000 0.000000 0.000000 

-0.000000 0.000000 0.000000 
0.000000 -0.000000 0.000000 
0.000000 0.000000 0.000000 

-0.000000 -0.000000 0.000000 
0.000000 -0.000000 0.000000 
0.000000 0.000000 0.000000 

-0.000000 0.000000 0.000000 
0.000000 -0.000000 0.000000 
0.000000 0.000000 0.000000 

-0.000000 -0.000000 0.000000 
0.000000 0.000000 0.000000 
0.000000 0.000000 0.000000 

-0.000000 -0.000000 0.000000 
0.000000 0.000000 0.000000 
0.000000 0.000000 0.000000 

-0.000000 -0.000000 0.000000 
0.000000 0.000000 0.000000 
0.000000 0.000000 0.000000 

-0.000000 0.000000 0.000000 
0.000000 -0.000000 0.000000 
0.000000 0.000000 0.000000 

0.000000 0.000000 0.000000 
0.000000 -0.000000 0.000000 
0.000000 0.000000 0.000000 

0.000000 0.000000 0.000000 
0.000000 -0.000000 0.000000 
0.000000 0.000000 0.000000 

0.000000 -0.000000 0.000000 
0.000000 -0.000000 0.000000 
0.000000 0.000000 0.000000 

0.000000 -0.000000 0.000000 
0.000000 0.000000 0.000000 
0.000000 0.000000 0.000000 

-0.000000 -0.000000 0.000000 
0.000000 0.000000 0.000000 
0.000000 0.000000 0.000000 

0.000000 -0.000000 0.000000 
0.000000 0.000000 0.000000 
0.000000 0.000000 0.000000 

-0.000000 -0.000000 0.000000 
0.000000 0.000000 0.000000 
0.000000 0.000000 0.000000 

-0.000000 -0.000000 0.000000 
0.000000 -0.000000 0.000000 
0.000000 0.000000 0.000000 

0.000000 0.000000 0.000000 
0.000000 -0.000000 0.000000 
0.000000 0.000000 0.000000 

0.000000 0.000000 0.000000 
0.000000 -0.000000 0.000000 
0.000000 0.000000 0.000000 

0.000000 0.000000 0.000000 
0.000000 0.000000 0.000000 
0.000000 0.000000 0.000000 

0.000000 -0.000000 0.000000 
0.000000 -0.000000 0.000000 
0.000000 0.000000 0.000000 

0.000000 -0.000000 0.000000 
0.000000 -0.000000 0.000000 
0.000000 0.000000 0.000000 

0.000000 0.000000 0.000000 
0.000000 0.000000 0.000000 
0.000000 0.000000 0.000000 

-0.000000 -0.000000 0.000000 
0.000000 -0.000000 0.000000 
0.000000 0.000000 0.000000 

-0.000000 -0.000000 0.000000 
0.000000 -0.000000 0.000000 
0.000000 0.000000 0.000000 

-0.000000 0.000000 0.000000 
0.000000 -0.000000 0.000000 
0.000000 0.000000 0.000000 

-0.000000 0.000000 0.000000 
0.000000 -0.000000 0.000000 
0.000000 0.000000 0.000000 

0.000000 -0.000000 0.000000 
0.000000 -0.000000 0.000000 
0.000000 0.000000 0.000000 

-0.000000 -0.000000 0.000000 
0.000000 0.000000 0.000000 
0.000000 0.000000 0.000000 

0.000000 -0.000000 0.000000 
0.000000 -0.000000 0.000000 
0.000000 0.000000 0.000000 

-0.000000 0.000000 0.000000 
0.000000 0.000000 0.000000 
0.000000 0.000000 0.000000 

-0.000000 -0.000000 0.000000 
0.000000 -0.000000 0.000000 
0.000000 0.000000 0.000000 

-0.000000 0.000000 0.000000 
0.000000 -0.000000 0.000000 
0.000000 0.000000 0.000000 

0.000000 -0.000000 0.000000 
0.000000 0.000000 0.000000 
0.000000 0.000000 0.000000 

-0.000000 0.000000 0.000000 
0.000000 0.000000 0.000000 
0.000000 0.000000 0.000000 

-0.000000 0.000000 0.000000 
0.000000 -0.000000 0.000000 
0.000000 0.000000 0.000000 

-0.000000 0.000000 0.000000 
0.000000 -0.000000 0.000000 
0.000000 0.000000 0.000000 

-0.000000 0.000000 0.000000 
0.000000 0.000000 0.000000 
0.000000 0.000000 0.000000 

-0.000000 -0.000000 0.000000 
0.000000 -0.000000 0.000000 
0.000000 0.000000 0.000000 

-0.000000 -0.000000 0.000000 
0.000000 -0.000000 0.000000 
0.000000 0.000000 0.000000 

-0.000000 0.000000 0.000000 
0.000000 0.000000 0.000000 
0.000000 0.000000 0.000000 

-0.000000 -0.000000 0.000000 
0.000000 0.000000 0.000000 
0.000000 0.000000 0.000000 

-0.000000 0.000000 0.000000 
0.000000 0.000000 0.000000 
0.000000 0.000000 0.000000 

-0.000000 0.000000 0.000000 
0.000000 0.000000 0.000000 
0.000000 0.000000 0.000000 

-0.000000 0.000000 0.000000 
0.000000 0.000000 0.000000 
0.000000 0.000000 0.000000 

0.000000 -0.000000 0.000000 
0.000000 -0.000000 0.000000 
0.000000 0.000000 0.000000 

0.000000 -0.000000 0.000000 
0.000000 0.000000 0.000000 
0.000000 0.000000 0.000000 

0.000000 0.000000 0.000000 
0.000000 -0.000000 0.000000 
0.000000 0.000000 0.000000 

-0.000000 -0.000000 0.000000 
0.000000 -0.000000 0.000000 
0.000000 0.000000 0.000000 

-0.000000 -0.000000 0.000000 
0.000000 -0.000000 0.000000 
0.000000 0.000000 0.000000 

0.000000 -0.000000 0.000000 
0.000000 -0.000000 0.000000 
0.000000 0.000000 0.000000 

0.000000 -0.000000 0.000000 
0.000000 -0.000000 0.000000 
0.000000 0.000000 0.000000 

0.000000 0.000000 0.000000 
0.000000 -0.000000 0.000000 
0.000000 0.000000 0.000000 

0.000000 -0.000000 0.000000 
0.000000 -0.000000 0.000000 
0.000000 0.000000 0.000000 

0.000000 -0.000000 0.000000 
0.000000 0.000000 0.000000 
0.000000 0.000000 0.000000 

0.000000 -0.000000 0.000000 
0.000000 -0.000000 0.000000 
0.000000 0.000000 0.000000 

0.000000 -0.000000 0.000000 
0.000000 -0.000000 0.000000 
0.000000 0.000000 0.000000 

0.000000 0.000000 0.000000 
0.000000 0.000000 0.000000 
0.000000 0.000000 0.000000 

0.000000 -0.000000 0.000000 
0.000000 -0.000000 0.000000 
0.000000 0.000000 0.000000 

0.000000 -0.000000 0.000000 
0.000000 -0.000000 0.000000 
0.000000 0.000000 0.000000 

0.000000 -0.000000 0.000000 
0.000000 -0.000000 0.000000 
0.000000 0.000000 0.000000 

0.000000 -0.000000 0.000000 
0.000000 -0.000000 0.000000 
0.000000 0.000000 0.000000 

0.000000 -0.000000 0.000000 
0.000000 -0.000000 0.000000 
0.000000 0.000000 0.000000 

0.000000 0.000000 0.000000 
0.000000 -0.000000 0.000000 
0.000000 0.000000 0.000000 

-0.000000 -0.000000 0.000000 
0.000000 0.000000 0.000000 
0.000000 0.000000 0.000000 

0.000000 -0.000000 0.000000 
0.000000 0.000000 0.000000 
0.000000 0.000000 0.000000 

0.000000 -0.000000 0.000000 
0.000000 0.000000 0.000000 
0.000000 0.000000 0.000000 

0.000000 -0.000000 0.000000 
0.000000 -0.000000 0.000000 
0.000000 0.000000 0.000000 

0.000000 -0.000000 0.000000 
0.000000 -0.000000 0.000000 
0.000000 0.000000 0.000000 

0.000000 0.000000 0.000000 
0.000000 -0.000000 0.000000 
0.000000 0.000000 0.000000 

0.000000 0.000000 0.000000 
0.000000 0.000000 0.000000 
0.000000 0.000000 0.000000 

0.000000 0.000000 0.000000 
0.000000 -0.000000 0.000000 
0.000000 0.000000 0.000000 

-0.000000 0.000000 0.000000 
0.000000 0.000000 0.000000 
0.000000 0.000000 0.000000 

0.000000 -0.000000 0.000000 
0.000000 0.000000 0.000000 
0.000000 0.000000 0.000000 

-0.000000 0.000000 0.000000 
0.000000 0.000000 0.000000 
0.000000 0.000000 0.000000 

-0.000000 0.000000 0.000000 
0.000000 0.000000 0.000000 
0.000000 0.000000 0.000000 

-0.000000 0.000000 0.000000 
0.000000 0.000000 0.000000 
0.000000 0.000000 0.000000 

-0.000000 0.000000 0.000000 
0.000000 -0.000000 0.000000 
0.000000 0.000000 0.000000 

-0.000000 0.000000 0.000000 
0.000000 -0.000000 0.000000 
0.000000 0.000000 0.000000 

0.000000 0.000000 0.000000 
0.000000 -0.000000 0.000000 
0.000000 0.000000 0.000000 

-0.000000 0.000000 0.000000 
0.000000 0.000000 0.000000 
0.000000 0.000000 0.000000 

0.000000 -0.000000 0.000000 
0.000000 0.000000 0.000000 
0.000000 0.000000 0.000000 

-0.000000 0.000000 0.000000 
0.000000 0.000000 0.000000 
0.000000 0.000000 0.000000 

-0.000000 0.000000 0.000000 
0.000000 -0.000000 0.000000 
0.000000 0.000000 0.000000 

-0.000000 -0.000000 0.000000 
0.000000 -0.000000 0.000000 
0.000000 0.000000 0.000000 

0.000000 -0.000000 0.000000 
0.000000 -0.000000 0.000000 
0.000000 0.000000 0.000000 

0.000000 -0.000000 0.000000 
0.000000 -0.000000 0.000000 
0.000000 0.000000 0.000000 

0.000000 -0.000000 0.000000 
0.000000 -0.000000 0.000000 
0.000000 0.000000 0.000000 

0.000000 -0.000000 0.000000 
0.000000 0.000000 0.000000 
0.000000 0.000000 0.000000 

-0.000000 0.000000 0.000000 
0.000000 0.000000 0.000000 
0.000000 0.000000 0.000000 

-0.000000 -0.000000 0.000000 
0.000000 -0.000000 0.000000 
0.000000 0.000000 0.000000 

-0.000000 -0.000000 0.000000 
0.000000 -0.000000 0.000000 
0.000000 0.000000 0.000000 

0.000000 -0.000000 0.000000 
0.000000 0.000000 0.000000 
0.000000 0.000000 0.000000 

0.000000 0.000000 0.000000 
0.000000 -0.000000 0.000000 
0.000000 0.000000 0.000000 

0.000000 -0.000000 0.000000 
0.000000 -0.000000 0.000000 
0.000000 0.000000 0.000000 

-0.000000 0.000000 0.000000 
0.000000 -0.000000 0.000000 
0.000000 0.000000 0.000000 

-0.000000 0.000000 0.000000 
0.000000 0.000000 0.000000 
0.000000 0.000000 0.000000 

-0.000000 0.000000 0.000000 
0.000000 0.000000 0.000000 
0.000000 0.000000 0.000000 

0.000000 0.000000 0.000000 
0.000000 0.000000 0.000000 
0.000000 0.000000 0.000000 

0.000000 0.000000 0.000000 
0.000000 -0.000000 0.000000 
0.000000 0.000000 0.000000 

0.000000 0.000000 0.000000 
0.000000 0.000000 0.000000 
0.000000 0.000000 0.000000 

-0.000000 0.000000 0.000000 
0.000000 -0.000000 0.000000 
0.000000 0.000000 0.000000 

-0.000000 -0.000000 0.000000 
0.000000 0.000000 0.000000 
0.000000 0.000000 0.000000 

-0.000000 0.000000 0.000000 
0.000000 -0.000000 0.000000 
0.000000 0.000000 0.000000 

-0.000000 0.000000 0.000000 
0.000000 0.000000 0.000000 
0.000000 0.000000 0.000000 

-0.000000 -0.000000 0.000000 
0.000000 0.000000 0.000000 
0.000000 0.000000 0.000000 

-0.000000 -0.000000 0.000000 
0.000000 0.000000 0.000000 
0.000000 0.000000 0.000000 

-0.000000 0.000000 0.000000 
0.000000 -0.000000 0.000000 
0.000000 0.000000 0.000000 

-0.000000 0.000000 0.000000 
0.000000 0.000000 0.000000 
0.000000 0.000000 0.000000 

-0.000000 0.000000 0.000000 
0.000000 -0.000000 0.000000 
0.000000 0.000000 0.000000 

-0.000000 0.000000 0.000000 
0.000000 0.000000 0.000000 
0.000000 0.000000 0.000000 

-0.000000 0.000000 0.000000 
0.000000 -0.000000 0.000000 
0.000000 0.000000 0.000000 

-0.000000 0.000000 0.000000 
0.000000 0.000000 0.000000 
0.000000 0.000000 0.000000 

-0.000000 -0.000000 0.000000 
0.000000 -0.000000 0.000000 
0.000000 0.000000 0.000000 

-0.000000 -0.000000 0.000000 
0.000000 0.000000 0.000000 
0.000000 0.000000 0.000000 

-0.000000 0.000000 0.000000 
0.000000 0.000000 0.000000 
0.000000 0.000000 0.000000 

0.000000 -0.000000 0.000000 
0.000000 -0.000000 0.000000 
0.000000 0.000000 0.000000 

-0.000000 -0.000000 0.000000 
0.000000 -0.000000 0.000000 
0.000000 0.000000 0.000000 

-0.000000 -0.000000 0.000000 
0.000000 -0.000000 0.000000 
0.000000 0.000000 0.000000 

-0.000000 -0.000000 0.000000 
0.000000 -0.000000 0.000000 
0.000000 0.000000 0.000000 

0.000000 -0.000000 0.000000 
0.000000 0.000000 0.000000 
0.000000 0.000000 0.000000 

-0.000000 -0.000000 0.000000 
0.000000 -0.000000 0.000000 
0.000000 0.000000 0.000000 

-0.000000 0.000000 0.000000 
0.000000 0.000000 0.000000 
0.000000 0.000000 0.000000 

