# vtk DataFile Version 3.0 
vtk output 
ASCII 
DATASET UNSTRUCTURED_GRID 
POINTS 175 float 
-0.026061 -0.507710 0.000000 
-0.106992 -0.439655 0.000000 
-0.054870 -0.447888 0.000000 
-0.028809 -0.402004 0.000000 
-0.186430 -0.375579 0.000000 
-0.137056 -0.378106 0.000000 
-0.114311 -0.324458 0.000000 
-0.058186 -0.340124 0.000000 
-0.029377 -0.299947 0.000000 
-0.265318 -0.312424 0.000000 
-0.217198 -0.313223 0.000000 
-0.196633 -0.255927 0.000000 
-0.143120 -0.264636 0.000000 
-0.116563 -0.217367 0.000000 
-0.058945 -0.237013 0.000000 
-0.029568 -0.198893 0.000000 
-0.344206 -0.249268 0.000000 
-0.296791 -0.249261 0.000000 
-0.278030 -0.189318 0.000000 
-0.225992 -0.195184 0.000000 
-0.201664 -0.143067 0.000000 
-0.145749 -0.156541 0.000000 
-0.117890 -0.112199 0.000000 
-0.059328 -0.134904 0.000000 
-0.029759 -0.097838 0.000000 
-0.058559 -0.548461 0.000000 
-0.162226 -0.569304 0.000000 
-0.123292 -0.533686 0.000000 
-0.142917 -0.484703 0.000000 
-0.261851 -0.591460 0.000000 
-0.229092 -0.554433 0.000000 
-0.256854 -0.503202 0.000000 
-0.209613 -0.469089 0.000000 
-0.223062 -0.421515 0.000000 
-0.360414 -0.613760 0.000000 
-0.329787 -0.576637 0.000000 
-0.361761 -0.524835 0.000000 
-0.321587 -0.488427 0.000000 
-0.341985 -0.438192 0.000000 
-0.290702 -0.405394 0.000000 
-0.302189 -0.358658 0.000000 
-0.458977 -0.636060 0.000000 
-0.429420 -0.598986 0.000000 
-0.464588 -0.546944 0.000000 
-0.427556 -0.509917 0.000000 
-0.453135 -0.458402 0.000000 
-0.407738 -0.423086 0.000000 
-0.425037 -0.373658 0.000000 
-0.370772 -0.342029 0.000000 
-0.381315 -0.295802 0.000000 
-0.046960 -0.599276 0.000000 
-0.095301 -0.693322 0.000000 
-0.098873 -0.640675 0.000000 
-0.149405 -0.625477 0.000000 
-0.140093 -0.785026 0.000000 
-0.148617 -0.736328 0.000000 
-0.205981 -0.726091 0.000000 
-0.203197 -0.667887 0.000000 
-0.248777 -0.648741 0.000000 
-0.184111 -0.875990 0.000000 
-0.194039 -0.828899 0.000000 
-0.254475 -0.821599 0.000000 
-0.257893 -0.767489 0.000000 
-0.309886 -0.752117 0.000000 
-0.303554 -0.691572 0.000000 
-0.347255 -0.671414 0.000000 
-0.228129 -0.966954 0.000000 
-0.238687 -0.920729 0.000000 
-0.301302 -0.915777 0.000000 
-0.307162 -0.863738 0.000000 
-0.363386 -0.851617 0.000000 
-0.362692 -0.794106 0.000000 
-0.412122 -0.776813 0.000000 
-0.403017 -0.714666 0.000000 
-0.445733 -0.694087 0.000000 
-0.000000 -0.621891 0.000000 
0.043388 -0.718322 0.000000 
-0.000000 -0.688290 0.000000 
-0.043388 -0.718322 0.000000 
0.087158 -0.810519 0.000000 
0.043769 -0.786820 0.000000 
-0.000000 -0.825286 0.000000 
-0.043769 -0.786820 0.000000 
-0.087158 -0.810519 0.000000 
0.130831 -0.901648 0.000000 
0.087824 -0.880049 0.000000 
0.044436 -0.922749 0.000000 
-0.000000 -0.891684 0.000000 
-0.044436 -0.922749 0.000000 
-0.087824 -0.880049 0.000000 
-0.130831 -0.901648 0.000000 
0.174505 -0.992778 0.000000 
0.131782 -0.972212 0.000000 
0.088871 -1.018078 0.000000 
0.044532 -0.990214 0.000000 
-0.000000 -1.026615 0.000000 
-0.044532 -0.990214 0.000000 
-0.088871 -1.018078 0.000000 
-0.131782 -0.972212 0.000000 
-0.174505 -0.992778 0.000000 
0.046960 -0.599276 0.000000 
0.149405 -0.625477 0.000000 
0.098873 -0.640675 0.000000 
0.095301 -0.693322 0.000000 
0.248777 -0.648741 0.000000 
0.203197 -0.667887 0.000000 
0.205981 -0.726091 0.000000 
0.148617 -0.736328 0.000000 
0.140093 -0.785026 0.000000 
0.347255 -0.671414 0.000000 
0.303554 -0.691572 0.000000 
0.309886 -0.752117 0.000000 
0.257893 -0.767489 0.000000 
0.254475 -0.821599 0.000000 
0.194039 -0.828899 0.000000 
0.184111 -0.875990 0.000000 
0.445733 -0.694087 0.000000 
0.403017 -0.714666 0.000000 
0.412122 -0.776813 0.000000 
0.362692 -0.794106 0.000000 
0.363386 -0.851617 0.000000 
0.307162 -0.863738 0.000000 
0.301302 -0.915777 0.000000 
0.238687 -0.920729 0.000000 
0.228129 -0.966954 0.000000 
0.058559 -0.548461 0.000000 
0.142917 -0.484703 0.000000 
0.123292 -0.533686 0.000000 
0.162226 -0.569304 0.000000 
0.223062 -0.421515 0.000000 
0.209613 -0.469089 0.000000 
0.256854 -0.503202 0.000000 
0.229092 -0.554433 0.000000 
0.261851 -0.591460 0.000000 
0.302189 -0.358658 0.000000 
0.290702 -0.405394 0.000000 
0.341985 -0.438193 0.000000 
0.321587 -0.488427 0.000000 
0.361761 -0.524835 0.000000 
0.329787 -0.576637 0.000000 
0.360414 -0.613760 0.000000 
0.381315 -0.295802 0.000000 
0.370772 -0.342029 0.000000 
0.425037 -0.373658 0.000000 
0.407738 -0.423086 0.000000 
0.453135 -0.458402 0.000000 
0.427556 -0.509917 0.000000 
0.464588 -0.546944 0.000000 
0.429420 -0.598986 0.000000 
0.458977 -0.636060 0.000000 
0.026061 -0.507710 0.000000 
0.028809 -0.402004 0.000000 
0.054870 -0.447888 0.000000 
0.106992 -0.439655 0.000000 
0.029377 -0.299947 0.000000 
0.058186 -0.340124 0.000000 
0.114311 -0.324458 0.000000 
0.137056 -0.378106 0.000000 
0.186430 -0.375579 0.000000 
0.029568 -0.198893 0.000000 
0.058945 -0.237013 0.000000 
0.116563 -0.217367 0.000000 
0.143120 -0.264636 0.000000 
0.196633 -0.255927 0.000000 
0.217198 -0.313223 0.000000 
0.265318 -0.312424 0.000000 
0.029759 -0.097838 0.000000 
0.059328 -0.134904 0.000000 
0.117890 -0.112199 0.000000 
0.145749 -0.156541 0.000000 
0.201664 -0.143067 0.000000 
0.225992 -0.195184 0.000000 
0.278030 -0.189318 0.000000 
0.296791 -0.249261 0.000000 
0.344206 -0.249268 0.000000 
CELLS 175 350 
1 0 
1 1 
1 2 
1 3 
1 4 
1 5 
1 6 
1 7 
1 8 
1 9 
1 10 
1 11 
1 12 
1 13 
1 14 
1 15 
1 16 
1 17 
1 18 
1 19 
1 20 
1 21 
1 22 
1 23 
1 24 
1 25 
1 26 
1 27 
1 28 
1 29 
1 30 
1 31 
1 32 
1 33 
1 34 
1 35 
1 36 
1 37 
1 38 
1 39 
1 40 
1 41 
1 42 
1 43 
1 44 
1 45 
1 46 
1 47 
1 48 
1 49 
1 50 
1 51 
1 52 
1 53 
1 54 
1 55 
1 56 
1 57 
1 58 
1 59 
1 60 
1 61 
1 62 
1 63 
1 64 
1 65 
1 66 
1 67 
1 68 
1 69 
1 70 
1 71 
1 72 
1 73 
1 74 
1 75 
1 76 
1 77 
1 78 
1 79 
1 80 
1 81 
1 82 
1 83 
1 84 
1 85 
1 86 
1 87 
1 88 
1 89 
1 90 
1 91 
1 92 
1 93 
1 94 
1 95 
1 96 
1 97 
1 98 
1 99 
1 100 
1 101 
1 102 
1 103 
1 104 
1 105 
1 106 
1 107 
1 108 
1 109 
1 110 
1 111 
1 112 
1 113 
1 114 
1 115 
1 116 
1 117 
1 118 
1 119 
1 120 
1 121 
1 122 
1 123 
1 124 
1 125 
1 126 
1 127 
1 128 
1 129 
1 130 
1 131 
1 132 
1 133 
1 134 
1 135 
1 136 
1 137 
1 138 
1 139 
1 140 
1 141 
1 142 
1 143 
1 144 
1 145 
1 146 
1 147 
1 148 
1 149 
1 150 
1 151 
1 152 
1 153 
1 154 
1 155 
1 156 
1 157 
1 158 
1 159 
1 160 
1 161 
1 162 
1 163 
1 164 
1 165 
1 166 
1 167 
1 168 
1 169 
1 170 
1 171 
1 172 
1 173 
1 174 
CELL_TYPES 175 
1 
1 
1 
1 
1 
1 
1 
1 
1 
1 
1 
1 
1 
1 
1 
1 
1 
1 
1 
1 
1 
1 
1 
1 
1 
1 
1 
1 
1 
1 
1 
1 
1 
1 
1 
1 
1 
1 
1 
1 
1 
1 
1 
1 
1 
1 
1 
1 
1 
1 
1 
1 
1 
1 
1 
1 
1 
1 
1 
1 
1 
1 
1 
1 
1 
1 
1 
1 
1 
1 
1 
1 
1 
1 
1 
1 
1 
1 
1 
1 
1 
1 
1 
1 
1 
1 
1 
1 
1 
1 
1 
1 
1 
1 
1 
1 
1 
1 
1 
1 
1 
1 
1 
1 
1 
1 
1 
1 
1 
1 
1 
1 
1 
1 
1 
1 
1 
1 
1 
1 
1 
1 
1 
1 
1 
1 
1 
1 
1 
1 
1 
1 
1 
1 
1 
1 
1 
1 
1 
1 
1 
1 
1 
1 
1 
1 
1 
1 
1 
1 
1 
1 
1 
1 
1 
1 
1 
1 
1 
1 
1 
1 
1 
1 
1 
1 
1 
1 
1 
1 
1 
1 
1 
1 
1 
POINT_DATA 175 
VECTORS X_GC float 
-0.026061 -0.507710 0.000000 
-0.106992 -0.439655 0.000000 
-0.054870 -0.447888 0.000000 
-0.028809 -0.402004 0.000000 
-0.186430 -0.375579 0.000000 
-0.137056 -0.378106 0.000000 
-0.114311 -0.324458 0.000000 
-0.058186 -0.340124 0.000000 
-0.029377 -0.299947 0.000000 
-0.265318 -0.312424 0.000000 
-0.217198 -0.313223 0.000000 
-0.196633 -0.255927 0.000000 
-0.143120 -0.264636 0.000000 
-0.116563 -0.217367 0.000000 
-0.058945 -0.237013 0.000000 
-0.029568 -0.198893 0.000000 
-0.344206 -0.249268 0.000000 
-0.296791 -0.249261 0.000000 
-0.278030 -0.189318 0.000000 
-0.225992 -0.195184 0.000000 
-0.201664 -0.143067 0.000000 
-0.145749 -0.156541 0.000000 
-0.117890 -0.112199 0.000000 
-0.059328 -0.134904 0.000000 
-0.029759 -0.097838 0.000000 
-0.058559 -0.548461 0.000000 
-0.162226 -0.569304 0.000000 
-0.123292 -0.533686 0.000000 
-0.142917 -0.484703 0.000000 
-0.261851 -0.591460 0.000000 
-0.229092 -0.554433 0.000000 
-0.256854 -0.503202 0.000000 
-0.209613 -0.469089 0.000000 
-0.223062 -0.421515 0.000000 
-0.360414 -0.613760 0.000000 
-0.329787 -0.576637 0.000000 
-0.361761 -0.524835 0.000000 
-0.321587 -0.488427 0.000000 
-0.341985 -0.438192 0.000000 
-0.290702 -0.405394 0.000000 
-0.302189 -0.358658 0.000000 
-0.458977 -0.636060 0.000000 
-0.429420 -0.598986 0.000000 
-0.464588 -0.546944 0.000000 
-0.427556 -0.509917 0.000000 
-0.453135 -0.458402 0.000000 
-0.407738 -0.423086 0.000000 
-0.425037 -0.373658 0.000000 
-0.370772 -0.342029 0.000000 
-0.381315 -0.295802 0.000000 
-0.046960 -0.599276 0.000000 
-0.095301 -0.693322 0.000000 
-0.098873 -0.640675 0.000000 
-0.149405 -0.625477 0.000000 
-0.140093 -0.785026 0.000000 
-0.148617 -0.736328 0.000000 
-0.205981 -0.726091 0.000000 
-0.203197 -0.667887 0.000000 
-0.248777 -0.648741 0.000000 
-0.184111 -0.875990 0.000000 
-0.194039 -0.828899 0.000000 
-0.254475 -0.821599 0.000000 
-0.257893 -0.767489 0.000000 
-0.309886 -0.752117 0.000000 
-0.303554 -0.691572 0.000000 
-0.347255 -0.671414 0.000000 
-0.228129 -0.966954 0.000000 
-0.238687 -0.920729 0.000000 
-0.301302 -0.915777 0.000000 
-0.307162 -0.863738 0.000000 
-0.363386 -0.851617 0.000000 
-0.362692 -0.794106 0.000000 
-0.412122 -0.776813 0.000000 
-0.403017 -0.714666 0.000000 
-0.445733 -0.694087 0.000000 
-0.000000 -0.621891 0.000000 
0.043388 -0.718322 0.000000 
-0.000000 -0.688290 0.000000 
-0.043388 -0.718322 0.000000 
0.087158 -0.810519 0.000000 
0.043769 -0.786820 0.000000 
-0.000000 -0.825286 0.000000 
-0.043769 -0.786820 0.000000 
-0.087158 -0.810519 0.000000 
0.130831 -0.901648 0.000000 
0.087824 -0.880049 0.000000 
0.044436 -0.922749 0.000000 
-0.000000 -0.891684 0.000000 
-0.044436 -0.922749 0.000000 
-0.087824 -0.880049 0.000000 
-0.130831 -0.901648 0.000000 
0.174505 -0.992778 0.000000 
0.131782 -0.972212 0.000000 
0.088871 -1.018078 0.000000 
0.044532 -0.990214 0.000000 
-0.000000 -1.026615 0.000000 
-0.044532 -0.990214 0.000000 
-0.088871 -1.018078 0.000000 
-0.131782 -0.972212 0.000000 
-0.174505 -0.992778 0.000000 
0.046960 -0.599276 0.000000 
0.149405 -0.625477 0.000000 
0.098873 -0.640675 0.000000 
0.095301 -0.693322 0.000000 
0.248777 -0.648741 0.000000 
0.203197 -0.667887 0.000000 
0.205981 -0.726091 0.000000 
0.148617 -0.736328 0.000000 
0.140093 -0.785026 0.000000 
0.347255 -0.671414 0.000000 
0.303554 -0.691572 0.000000 
0.309886 -0.752117 0.000000 
0.257893 -0.767489 0.000000 
0.254475 -0.821599 0.000000 
0.194039 -0.828899 0.000000 
0.184111 -0.875990 0.000000 
0.445733 -0.694087 0.000000 
0.403017 -0.714666 0.000000 
0.412122 -0.776813 0.000000 
0.362692 -0.794106 0.000000 
0.363386 -0.851617 0.000000 
0.307162 -0.863738 0.000000 
0.301302 -0.915777 0.000000 
0.238687 -0.920729 0.000000 
0.228129 -0.966954 0.000000 
0.058559 -0.548461 0.000000 
0.142917 -0.484703 0.000000 
0.123292 -0.533686 0.000000 
0.162226 -0.569304 0.000000 
0.223062 -0.421515 0.000000 
0.209613 -0.469089 0.000000 
0.256854 -0.503202 0.000000 
0.229092 -0.554433 0.000000 
0.261851 -0.591460 0.000000 
0.302189 -0.358658 0.000000 
0.290702 -0.405394 0.000000 
0.341985 -0.438193 0.000000 
0.321587 -0.488427 0.000000 
0.361761 -0.524835 0.000000 
0.329787 -0.576637 0.000000 
0.360414 -0.613760 0.000000 
0.381315 -0.295802 0.000000 
0.370772 -0.342029 0.000000 
0.425037 -0.373658 0.000000 
0.407738 -0.423086 0.000000 
0.453135 -0.458402 0.000000 
0.427556 -0.509917 0.000000 
0.464588 -0.546944 0.000000 
0.429420 -0.598986 0.000000 
0.458977 -0.636060 0.000000 
0.026061 -0.507710 0.000000 
0.028809 -0.402004 0.000000 
0.054870 -0.447888 0.000000 
0.106992 -0.439655 0.000000 
0.029377 -0.299947 0.000000 
0.058186 -0.340124 0.000000 
0.114311 -0.324458 0.000000 
0.137056 -0.378106 0.000000 
0.186430 -0.375579 0.000000 
0.029568 -0.198893 0.000000 
0.058945 -0.237013 0.000000 
0.116563 -0.217367 0.000000 
0.143120 -0.264636 0.000000 
0.196633 -0.255927 0.000000 
0.217198 -0.313223 0.000000 
0.265318 -0.312424 0.000000 
0.029759 -0.097838 0.000000 
0.059328 -0.134904 0.000000 
0.117890 -0.112199 0.000000 
0.145749 -0.156541 0.000000 
0.201664 -0.143067 0.000000 
0.225992 -0.195184 0.000000 
0.278030 -0.189318 0.000000 
0.296791 -0.249261 0.000000 
0.344206 -0.249268 0.000000 
VECTORS X_EC float 
0.338794 -0.645910 0.000000 
-0.609100 0.435342 0.000000 
0.713312 0.546482 0.000000 
0.374519 -0.072947 0.000000 
0.423588 -0.429678 0.000000 
-0.218274 -0.395574 0.000000 
-0.513962 0.880187 0.000000 
0.756418 -0.908327 0.000000 
0.381900 0.549281 0.000000 
-0.550868 0.717719 0.000000 
0.823577 0.728515 0.000000 
0.556234 -0.044989 0.000000 
-0.139443 0.072579 0.000000 
-0.484677 -0.565545 0.000000 
0.766286 -0.300330 0.000000 
0.384386 -0.814950 0.000000 
0.474677 -0.134884 0.000000 
-0.141715 -0.134980 0.000000 
-0.385608 -0.944209 0.000000 
0.937896 -0.865013 0.000000 
0.621631 0.431407 0.000000 
-0.105264 0.613306 0.000000 
-0.467428 0.014680 0.000000 
0.771260 0.321208 0.000000 
0.386873 -0.179181 0.000000 
0.761262 -0.095775 0.000000 
0.108942 0.185601 0.000000 
-0.397202 -0.295238 0.000000 
-0.142083 -0.956513 0.000000 
-0.595936 0.484712 0.000000 
0.978194 -0.015154 0.000000 
-0.660903 -0.706779 0.000000 
0.724964 0.832701 0.000000 
0.899809 0.190452 0.000000 
0.685384 0.785764 0.000000 
0.287229 0.284606 0.000000 
0.702895 -0.414723 0.000000 
0.180633 -0.906242 0.000000 
0.445811 0.415599 0.000000 
-0.220880 -0.027187 0.000000 
-0.071546 -0.658113 0.000000 
-0.033296 -0.913184 0.000000 
-0.417537 0.586307 0.000000 
0.039645 -0.116256 0.000000 
-0.441768 -0.616127 0.000000 
-0.109248 0.688422 0.000000 
-0.699407 0.211667 0.000000 
-0.474522 -0.455613 0.000000 
0.820030 -0.882606 0.000000 
0.957100 0.493322 0.000000 
0.610485 0.590231 0.000000 
-0.761092 -0.140150 0.000000 
-0.714655 -0.850887 0.000000 
-0.057734 0.943946 0.000000 
-0.178789 -0.902146 0.000000 
-0.067979 0.440428 0.000000 
0.677748 0.302225 0.000000 
0.641556 -0.483520 0.000000 
-0.765897 -0.741999 0.000000 
0.393446 0.325864 0.000000 
0.522510 -0.309866 0.000000 
-0.691820 -0.408411 0.000000 
-0.647393 0.861107 0.000000 
0.028512 0.653580 0.000000 
-0.053800 -0.163780 0.000000 
0.514316 -0.435911 0.000000 
0.965681 -0.446127 0.000000 
-0.897068 0.929844 0.000000 
-0.083078 0.862991 0.000000 
-0.006893 0.160466 0.000000 
0.724017 -0.003167 0.000000 
0.714996 -0.779570 0.000000 
-0.642413 0.986972 0.000000 
-0.760780 0.147992 0.000000 
-0.205471 -0.129823 0.000000 
0.000000 0.895532 0.000000 
-0.564049 0.197345 0.000000 
0.000000 -0.208091 0.000000 
0.564049 0.197345 0.000000 
0.866949 -0.557999 0.000000 
-0.569003 -0.877930 0.000000 
0.000000 -0.358642 0.000000 
0.569003 -0.877930 0.000000 
-0.866949 -0.557999 0.000000 
0.299194 0.672251 0.000000 
0.858290 0.380667 0.000000 
-0.577662 0.957113 0.000000 
0.000000 0.537735 0.000000 
0.577662 0.957113 0.000000 
-0.858290 0.380667 0.000000 
-0.299194 0.672251 0.000000 
-0.268560 -0.097499 0.000000 
0.286830 -0.375141 0.000000 
0.844677 0.244057 0.000000 
-0.578910 -0.132105 0.000000 
0.000000 0.359299 0.000000 
0.578910 -0.132105 0.000000 
-0.844677 0.244057 0.000000 
-0.286830 -0.375141 0.000000 
0.268560 -0.097499 0.000000 
-0.610485 0.590231 0.000000 
0.057734 0.943946 0.000000 
0.714655 -0.850887 0.000000 
0.761092 -0.140150 0.000000 
0.765897 -0.741999 0.000000 
-0.641556 -0.483520 0.000000 
-0.677748 0.302225 0.000000 
0.067979 0.440428 0.000000 
0.178789 -0.902145 0.000000 
-0.514316 -0.435911 0.000000 
0.053800 -0.163780 0.000000 
-0.028512 0.653580 0.000000 
0.647393 0.861107 0.000000 
0.691820 -0.408411 0.000000 
-0.522510 -0.309866 0.000000 
-0.393446 0.325864 0.000000 
0.205471 -0.129823 0.000000 
0.760780 0.147992 0.000000 
0.642413 0.986972 0.000000 
-0.714996 -0.779570 0.000000 
-0.724017 -0.003167 0.000000 
0.006894 0.160466 0.000000 
0.083078 0.862991 0.000000 
0.897068 0.929844 0.000000 
-0.965681 -0.446127 0.000000 
-0.761262 -0.095775 0.000000 
0.142083 -0.956513 0.000000 
0.397202 -0.295238 0.000000 
-0.108942 0.185601 0.000000 
-0.899809 0.190452 0.000000 
-0.724964 0.832701 0.000000 
0.660903 -0.706779 0.000000 
-0.978194 -0.015154 0.000000 
0.595936 0.484712 0.000000 
0.071546 -0.658113 0.000000 
0.220880 -0.027187 0.000000 
-0.445811 0.415599 0.000000 
-0.180633 -0.906242 0.000000 
-0.702895 -0.414723 0.000000 
-0.287229 0.284606 0.000000 
-0.685384 0.785764 0.000000 
-0.957100 0.493322 0.000000 
-0.820030 -0.882606 0.000000 
0.474522 -0.455613 0.000000 
0.699407 0.211667 0.000000 
0.109248 0.688422 0.000000 
0.441768 -0.616127 0.000000 
-0.039645 -0.116256 0.000000 
0.417537 0.586307 0.000000 
0.033296 -0.913184 0.000000 
-0.338794 -0.645910 0.000000 
-0.374519 -0.072947 0.000000 
-0.713312 0.546482 0.000000 
0.609100 0.435342 0.000000 
-0.381900 0.549281 0.000000 
-0.756418 -0.908327 0.000000 
0.513962 0.880187 0.000000 
0.218274 -0.395574 0.000000 
-0.423588 -0.429678 0.000000 
-0.384386 -0.814950 0.000000 
-0.766286 -0.300330 0.000000 
0.484677 -0.565545 0.000000 
0.139443 0.072579 0.000000 
-0.556234 -0.044989 0.000000 
-0.823577 0.728515 0.000000 
0.550868 0.717719 0.000000 
-0.386873 -0.179181 0.000000 
-0.771260 0.321208 0.000000 
0.467428 0.014680 0.000000 
0.105264 0.613306 0.000000 
-0.621631 0.431407 0.000000 
-0.937896 -0.865013 0.000000 
0.385608 -0.944208 0.000000 
0.141715 -0.134980 0.000000 
-0.474677 -0.134884 0.000000 
CELL_DATA 175 
SCALARS MASS float 
LOOKUP_TABLE default 
0.078183 
0.086427 
0.094672 
0.086427 
0.088131 
0.092111 
0.085854 
0.092111 
0.088131 
0.088705 
0.091000 
0.086983 
0.091556 
0.086983 
0.091000 
0.088705 
0.089278 
0.091574 
0.089278 
0.092722 
0.089278 
0.092722 
0.089278 
0.091574 
0.089278 
0.078183 
0.086427 
0.094672 
0.086427 
0.088131 
0.092111 
0.085854 
0.092111 
0.088131 
0.088705 
0.091000 
0.086983 
0.091556 
0.086983 
0.091000 
0.088705 
0.089278 
0.091574 
0.089278 
0.092722 
0.089278 
0.092722 
0.089278 
0.091574 
0.089278 
0.078183 
0.086427 
0.094672 
0.086427 
0.088131 
0.092111 
0.085854 
0.092111 
0.088131 
0.088705 
0.091000 
0.086983 
0.091556 
0.086983 
0.091000 
0.088705 
0.089278 
0.091574 
0.089278 
0.092722 
0.089278 
0.092722 
0.089278 
0.091574 
0.089278 
0.078183 
0.086427 
0.094672 
0.086427 
0.088131 
0.092111 
0.085854 
0.092111 
0.088131 
0.088705 
0.091000 
0.086983 
0.091556 
0.086983 
0.091000 
0.088705 
0.089278 
0.091574 
0.089278 
0.092722 
0.089278 
0.092722 
0.089278 
0.091574 
0.089278 
0.078183 
0.086427 
0.094672 
0.086427 
0.088131 
0.092111 
0.085854 
0.092111 
0.088131 
0.088705 
0.091000 
0.086983 
0.091556 
0.086983 
0.091000 
0.088705 
0.089278 
0.091574 
0.089278 
0.092722 
0.089278 
0.092722 
0.089278 
0.091574 
0.089278 
0.078183 
0.086427 
0.094672 
0.086427 
0.088131 
0.092111 
0.085854 
0.092111 
0.088131 
0.088705 
0.091000 
0.086983 
0.091556 
0.086983 
0.091000 
0.088705 
0.089278 
0.091574 
0.089278 
0.092722 
0.089278 
0.092722 
0.089278 
0.091574 
0.089278 
0.078183 
0.086427 
0.094672 
0.086427 
0.088131 
0.092111 
0.085854 
0.092111 
0.088131 
0.088705 
0.091000 
0.086983 
0.091556 
0.086983 
0.091000 
0.088705 
0.089278 
0.091574 
0.089278 
0.092722 
0.089278 
0.092722 
0.089278 
0.091574 
0.089278 
SCALARS MASS float 
LOOKUP_TABLE default 
0.078183 
0.086427 
0.094672 
0.086427 
0.088131 
0.092111 
0.085854 
0.092111 
0.088131 
0.088705 
0.091000 
0.086983 
0.091556 
0.086983 
0.091000 
0.088705 
0.089278 
0.091574 
0.089278 
0.092722 
0.089278 
0.092722 
0.089278 
0.091574 
0.089278 
0.078183 
0.086427 
0.094672 
0.086427 
0.088131 
0.092111 
0.085854 
0.092111 
0.088131 
0.088705 
0.091000 
0.086983 
0.091556 
0.086983 
0.091000 
0.088705 
0.089278 
0.091574 
0.089278 
0.092722 
0.089278 
0.092722 
0.089278 
0.091574 
0.089278 
0.078183 
0.086427 
0.094672 
0.086427 
0.088131 
0.092111 
0.085854 
0.092111 
0.088131 
0.088705 
0.091000 
0.086983 
0.091556 
0.086983 
0.091000 
0.088705 
0.089278 
0.091574 
0.089278 
0.092722 
0.089278 
0.092722 
0.089278 
0.091574 
0.089278 
0.078183 
0.086427 
0.094672 
0.086427 
0.088131 
0.092111 
0.085854 
0.092111 
0.088131 
0.088705 
0.091000 
0.086983 
0.091556 
0.086983 
0.091000 
0.088705 
0.089278 
0.091574 
0.089278 
0.092722 
0.089278 
0.092722 
0.089278 
0.091574 
0.089278 
0.078183 
0.086427 
0.094672 
0.086427 
0.088131 
0.092111 
0.085854 
0.092111 
0.088131 
0.088705 
0.091000 
0.086983 
0.091556 
0.086983 
0.091000 
0.088705 
0.089278 
0.091574 
0.089278 
0.092722 
0.089278 
0.092722 
0.089278 
0.091574 
0.089278 
0.078183 
0.086427 
0.094672 
0.086427 
0.088131 
0.092111 
0.085854 
0.092111 
0.088131 
0.088705 
0.091000 
0.086983 
0.091556 
0.086983 
0.091000 
0.088705 
0.089278 
0.091574 
0.089278 
0.092722 
0.089278 
0.092722 
0.089278 
0.091574 
0.089278 
0.078183 
0.086427 
0.094672 
0.086427 
0.088131 
0.092111 
0.085854 
0.092111 
0.088131 
0.088705 
0.091000 
0.086983 
0.091556 
0.086983 
0.091000 
0.088705 
0.089278 
0.091574 
0.089278 
0.092722 
0.089278 
0.092722 
0.089278 
0.091574 
0.089278 
SCALARS DENSITY float 
LOOKUP_TABLE default 
20.000000 
20.000000 
20.000000 
20.000000 
20.000000 
20.000000 
20.000000 
20.000000 
20.000000 
20.000000 
20.000000 
20.000000 
20.000000 
20.000000 
20.000000 
20.000000 
20.000000 
20.000000 
20.000000 
20.000000 
20.000000 
20.000000 
20.000000 
20.000000 
20.000000 
20.000000 
20.000000 
20.000000 
20.000000 
20.000000 
20.000000 
20.000000 
20.000000 
20.000000 
20.000000 
20.000000 
20.000000 
20.000000 
20.000000 
20.000000 
20.000000 
20.000000 
20.000000 
20.000000 
20.000000 
20.000000 
20.000000 
20.000000 
20.000000 
20.000000 
20.000000 
20.000000 
20.000000 
20.000000 
20.000000 
20.000000 
20.000000 
20.000000 
20.000000 
20.000000 
20.000000 
20.000000 
20.000000 
20.000000 
20.000000 
20.000000 
20.000000 
20.000000 
20.000000 
20.000000 
20.000000 
20.000000 
20.000000 
20.000000 
20.000000 
20.000000 
20.000000 
20.000000 
20.000000 
20.000000 
20.000000 
20.000000 
20.000000 
20.000000 
20.000000 
20.000000 
20.000000 
20.000000 
20.000000 
20.000000 
20.000000 
20.000000 
20.000000 
20.000000 
20.000000 
20.000000 
20.000000 
20.000000 
20.000000 
20.000000 
20.000000 
20.000000 
20.000000 
20.000000 
20.000000 
20.000000 
20.000000 
20.000000 
20.000000 
20.000000 
20.000000 
20.000000 
20.000000 
20.000000 
20.000000 
20.000000 
20.000000 
20.000000 
20.000000 
20.000000 
20.000000 
20.000000 
20.000000 
20.000000 
20.000000 
20.000000 
20.000000 
20.000000 
20.000000 
20.000000 
20.000000 
20.000000 
20.000000 
20.000000 
20.000000 
20.000000 
20.000000 
20.000000 
20.000000 
20.000000 
20.000000 
20.000000 
20.000000 
20.000000 
20.000000 
20.000000 
20.000000 
20.000000 
20.000000 
20.000000 
20.000000 
20.000000 
20.000000 
20.000000 
20.000000 
20.000000 
20.000000 
20.000000 
20.000000 
20.000000 
20.000000 
20.000000 
20.000000 
20.000000 
20.000000 
20.000000 
20.000000 
20.000000 
20.000000 
20.000000 
20.000000 
20.000000 
20.000000 
20.000000 
20.000000 
SCALARS ELEM_i float 
LOOKUP_TABLE default 
178 
206 
179 
179 
206 
206 
207 
179 
180 
234 
207 
207 
207 
207 
180 
180 
234 
234 
234 
207 
208 
208 
208 
181 
181 
178 
205 
205 
205 
232 
205 
232 
206 
206 
232 
232 
232 
232 
233 
233 
233 
258 
259 
259 
259 
260 
260 
260 
233 
234 
178 
204 
204 
205 
203 
204 
204 
204 
231 
203 
203 
230 
231 
231 
231 
231 
202 
230 
230 
230 
230 
230 
258 
258 
258 
178 
177 
177 
177 
149 
176 
176 
176 
203 
149 
149 
176 
176 
176 
203 
203 
148 
148 
148 
175 
175 
175 
202 
202 
202 
178 
151 
150 
150 
123 
150 
150 
150 
149 
123 
123 
123 
123 
122 
149 
149 
96 
96 
96 
122 
122 
122 
122 
122 
148 
178 
151 
151 
151 
152 
152 
124 
151 
124 
125 
125 
125 
124 
124 
124 
124 
126 
125 
98 
98 
98 
97 
97 
97 
96 
178 
179 
179 
152 
180 
179 
153 
152 
152 
180 
180 
153 
153 
153 
153 
126 
181 
181 
154 
154 
154 
153 
126 
126 
126 
VECTORS VELOCITY float 
0.000000 -3.319704 0.000000 
0.000000 -3.319704 0.000000 
0.000000 -3.319704 0.000000 
-0.000000 -3.319704 0.000000 
0.000000 -3.319704 0.000000 
0.000000 -3.319704 0.000000 
-0.000000 -3.319704 0.000000 
-0.000000 -3.319704 0.000000 
-0.000000 -3.319704 0.000000 
-0.000000 -3.319704 0.000000 
0.000000 -3.319704 0.000000 
-0.000000 -3.319704 0.000000 
-0.000000 -3.319704 0.000000 
-0.000000 -3.319704 0.000000 
-0.000000 -3.319704 0.000000 
-0.000000 -3.319704 0.000000 
0.000000 -3.319704 0.000000 
-0.000000 -3.319704 0.000000 
0.000000 -3.319704 0.000000 
-0.000000 -3.319704 0.000000 
0.000000 -3.319704 0.000000 
-0.000000 -3.319704 0.000000 
0.000000 -3.319704 0.000000 
-0.000000 -3.319704 0.000000 
0.000000 -3.319704 0.000000 
0.000000 -3.319704 0.000000 
0.000000 -3.319704 0.000000 
0.000000 -3.319704 0.000000 
0.000000 -3.319704 0.000000 
0.000000 -3.319704 0.000000 
0.000000 -3.319704 0.000000 
0.000000 -3.319704 0.000000 
0.000000 -3.319704 0.000000 
0.000000 -3.319704 0.000000 
-0.000000 -3.319704 0.000000 
-0.000000 -3.319704 0.000000 
-0.000000 -3.319704 0.000000 
-0.000000 -3.319704 0.000000 
-0.000000 -3.319704 0.000000 
0.000000 -3.319704 0.000000 
-0.000000 -3.319704 0.000000 
-0.000000 -3.319704 0.000000 
-0.000000 -3.319704 0.000000 
0.000000 -3.319704 0.000000 
-0.000000 -3.319704 0.000000 
0.000000 -3.319704 0.000000 
-0.000000 -3.319704 0.000000 
-0.000000 -3.319704 0.000000 
-0.000000 -3.319704 0.000000 
-0.000000 -3.319704 0.000000 
0.000000 -3.319704 0.000000 
-0.000000 -3.319704 0.000000 
0.000000 -3.319704 0.000000 
0.000000 -3.319704 0.000000 
-0.000000 -3.319704 0.000000 
-0.000000 -3.319704 0.000000 
-0.000000 -3.319704 0.000000 
-0.000000 -3.319704 0.000000 
-0.000000 -3.319704 0.000000 
0.000000 -3.319704 0.000000 
0.000000 -3.319704 0.000000 
-0.000000 -3.319704 0.000000 
-0.000000 -3.319704 0.000000 
-0.000000 -3.319704 0.000000 
-0.000000 -3.319704 0.000000 
0.000000 -3.319704 0.000000 
-0.000000 -3.319704 0.000000 
0.000000 -3.319704 0.000000 
0.000000 -3.319704 0.000000 
-0.000000 -3.319704 0.000000 
-0.000000 -3.319704 0.000000 
-0.000000 -3.319704 0.000000 
-0.000000 -3.319704 0.000000 
-0.000000 -3.319704 0.000000 
-0.000000 -3.319704 0.000000 
0.000000 -3.319704 0.000000 
-0.000000 -3.319704 0.000000 
0.000000 -3.319704 0.000000 
-0.000000 -3.319704 0.000000 
0.000000 -3.319704 0.000000 
0.000000 -3.319704 0.000000 
0.000000 -3.319704 0.000000 
-0.000000 -3.319704 0.000000 
-0.000000 -3.319704 0.000000 
0.000000 -3.319704 0.000000 
0.000000 -3.319704 0.000000 
0.000000 -3.319704 0.000000 
0.000000 -3.319704 0.000000 
0.000000 -3.319704 0.000000 
0.000000 -3.319704 0.000000 
0.000000 -3.319704 0.000000 
-0.000000 -3.319704 0.000000 
-0.000000 -3.319704 0.000000 
-0.000000 -3.319704 0.000000 
-0.000000 -3.319704 0.000000 
-0.000000 -3.319704 0.000000 
-0.000000 -3.319704 0.000000 
-0.000000 -3.319704 0.000000 
-0.000000 -3.319704 0.000000 
-0.000000 -3.319704 0.000000 
0.000000 -3.319704 0.000000 
-0.000000 -3.319704 0.000000 
0.000000 -3.319704 0.000000 
0.000000 -3.319704 0.000000 
-0.000000 -3.319704 0.000000 
-0.000000 -3.319704 0.000000 
0.000000 -3.319704 0.000000 
0.000000 -3.319704 0.000000 
0.000000 -3.319704 0.000000 
0.000000 -3.319704 0.000000 
-0.000000 -3.319704 0.000000 
0.000000 -3.319704 0.000000 
0.000000 -3.319704 0.000000 
0.000000 -3.319704 0.000000 
0.000000 -3.319704 0.000000 
0.000000 -3.319704 0.000000 
0.000000 -3.319704 0.000000 
0.000000 -3.319704 0.000000 
-0.000000 -3.319704 0.000000 
0.000000 -3.319704 0.000000 
0.000000 -3.319704 0.000000 
0.000000 -3.319704 0.000000 
0.000000 -3.319704 0.000000 
0.000000 -3.319704 0.000000 
0.000000 -3.319704 0.000000 
0.000000 -3.319704 0.000000 
0.000000 -3.319704 0.000000 
0.000000 -3.319704 0.000000 
0.000000 -3.319704 0.000000 
0.000000 -3.319704 0.000000 
0.000000 -3.319704 0.000000 
0.000000 -3.319704 0.000000 
0.000000 -3.319704 0.000000 
-0.000000 -3.319704 0.000000 
0.000000 -3.319704 0.000000 
0.000000 -3.319704 0.000000 
0.000000 -3.319704 0.000000 
0.000000 -3.319704 0.000000 
-0.000000 -3.319704 0.000000 
-0.000000 -3.319704 0.000000 
-0.000000 -3.319704 0.000000 
-0.000000 -3.319704 0.000000 
-0.000000 -3.319704 0.000000 
0.000000 -3.319704 0.000000 
0.000000 -3.319704 0.000000 
0.000000 -3.319704 0.000000 
0.000000 -3.319704 0.000000 
0.000000 -3.319704 0.000000 
-0.000000 -3.319704 0.000000 
0.000000 -3.319704 0.000000 
0.000000 -3.319704 0.000000 
-0.000000 -3.319704 0.000000 
0.000000 -3.319704 0.000000 
-0.000000 -3.319704 0.000000 
-0.000000 -3.319704 0.000000 
-0.000000 -3.319704 0.000000 
-0.000000 -3.319704 0.000000 
-0.000000 -3.319704 0.000000 
0.000000 -3.319704 0.000000 
0.000000 -3.319704 0.000000 
0.000000 -3.319704 0.000000 
-0.000000 -3.319704 0.000000 
-0.000000 -3.319704 0.000000 
-0.000000 -3.319704 0.000000 
0.000000 -3.319704 0.000000 
0.000000 -3.319704 0.000000 
0.000000 -3.319704 0.000000 
0.000000 -3.319704 0.000000 
-0.000000 -3.319704 0.000000 
-0.000000 -3.319704 0.000000 
-0.000000 -3.319704 0.000000 
-0.000000 -3.319704 0.000000 
-0.000000 -3.319704 0.000000 
-0.000000 -3.319704 0.000000 
-0.000000 -3.319704 0.000000 
TENSORS STRESS float 
0.000000 0.000000 0.000000 
0.000000 0.000000 0.000000 
0.000000 0.000000 0.000000 

0.000000 -0.000000 0.000000 
0.000000 0.000000 0.000000 
0.000000 0.000000 0.000000 

-0.000000 0.000000 0.000000 
0.000000 -0.000000 0.000000 
0.000000 0.000000 0.000000 

-0.000000 0.000000 0.000000 
0.000000 -0.000000 0.000000 
0.000000 0.000000 0.000000 

-0.000000 -0.000000 0.000000 
0.000000 -0.000000 0.000000 
0.000000 0.000000 0.000000 

-0.000000 -0.000000 0.000000 
0.000000 0.000000 0.000000 
0.000000 0.000000 0.000000 

-0.000000 0.000000 0.000000 
0.000000 -0.000000 0.000000 
0.000000 0.000000 0.000000 

-0.000000 -0.000000 0.000000 
0.000000 0.000000 0.000000 
0.000000 0.000000 0.000000 

-0.000000 -0.000000 0.000000 
0.000000 -0.000000 0.000000 
0.000000 0.000000 0.000000 

-0.000000 -0.000000 0.000000 
0.000000 -0.000000 0.000000 
0.000000 0.000000 0.000000 

-0.000000 -0.000000 0.000000 
0.000000 -0.000000 0.000000 
0.000000 0.000000 0.000000 

-0.000000 0.000000 0.000000 
0.000000 -0.000000 0.000000 
0.000000 0.000000 0.000000 

0.000000 -0.000000 0.000000 
0.000000 0.000000 0.000000 
0.000000 0.000000 0.000000 

0.000000 0.000000 0.000000 
0.000000 0.000000 0.000000 
0.000000 0.000000 0.000000 

0.000000 0.000000 0.000000 
0.000000 -0.000000 0.000000 
0.000000 0.000000 0.000000 

0.000000 -0.000000 0.000000 
0.000000 -0.000000 0.000000 
0.000000 0.000000 0.000000 

-0.000000 0.000000 0.000000 
0.000000 0.000000 0.000000 
0.000000 0.000000 0.000000 

-0.000000 0.000000 0.000000 
0.000000 -0.000000 0.000000 
0.000000 0.000000 0.000000 

-0.000000 -0.000000 0.000000 
0.000000 0.000000 0.000000 
0.000000 0.000000 0.000000 

0.000000 0.000000 0.000000 
0.000000 0.000000 0.000000 
0.000000 0.000000 0.000000 

-0.000000 0.000000 0.000000 
0.000000 -0.000000 0.000000 
0.000000 0.000000 0.000000 

-0.000000 0.000000 0.000000 
0.000000 0.000000 0.000000 
0.000000 0.000000 0.000000 

0.000000 -0.000000 0.000000 
0.000000 0.000000 0.000000 
0.000000 0.000000 0.000000 

0.000000 -0.000000 0.000000 
0.000000 0.000000 0.000000 
0.000000 0.000000 0.000000 

0.000000 0.000000 0.000000 
0.000000 0.000000 0.000000 
0.000000 0.000000 0.000000 

0.000000 0.000000 0.000000 
0.000000 0.000000 0.000000 
0.000000 0.000000 0.000000 

0.000000 0.000000 0.000000 
0.000000 0.000000 0.000000 
0.000000 0.000000 0.000000 

0.000000 0.000000 0.000000 
0.000000 -0.000000 0.000000 
0.000000 0.000000 0.000000 

-0.000000 -0.000000 0.000000 
0.000000 -0.000000 0.000000 
0.000000 0.000000 0.000000 

0.000000 -0.000000 0.000000 
0.000000 -0.000000 0.000000 
0.000000 0.000000 0.000000 

0.000000 -0.000000 0.000000 
0.000000 -0.000000 0.000000 
0.000000 0.000000 0.000000 

-0.000000 -0.000000 0.000000 
0.000000 -0.000000 0.000000 
0.000000 0.000000 0.000000 

0.000000 -0.000000 0.000000 
0.000000 0.000000 0.000000 
0.000000 0.000000 0.000000 

-0.000000 -0.000000 0.000000 
0.000000 -0.000000 0.000000 
0.000000 0.000000 0.000000 

0.000000 -0.000000 0.000000 
0.000000 -0.000000 0.000000 
0.000000 0.000000 0.000000 

0.000000 0.000000 0.000000 
0.000000 0.000000 0.000000 
0.000000 0.000000 0.000000 

0.000000 -0.000000 0.000000 
0.000000 -0.000000 0.000000 
0.000000 0.000000 0.000000 

0.000000 0.000000 0.000000 
0.000000 0.000000 0.000000 
0.000000 0.000000 0.000000 

0.000000 0.000000 0.000000 
0.000000 0.000000 0.000000 
0.000000 0.000000 0.000000 

0.000000 0.000000 0.000000 
0.000000 0.000000 0.000000 
0.000000 0.000000 0.000000 

-0.000000 -0.000000 0.000000 
0.000000 -0.000000 0.000000 
0.000000 0.000000 0.000000 

0.000000 -0.000000 0.000000 
0.000000 -0.000000 0.000000 
0.000000 0.000000 0.000000 

0.000000 0.000000 0.000000 
0.000000 0.000000 0.000000 
0.000000 0.000000 0.000000 

0.000000 -0.000000 0.000000 
0.000000 0.000000 0.000000 
0.000000 0.000000 0.000000 

0.000000 0.000000 0.000000 
0.000000 0.000000 0.000000 
0.000000 0.000000 0.000000 

-0.000000 -0.000000 0.000000 
0.000000 -0.000000 0.000000 
0.000000 0.000000 0.000000 

-0.000000 0.000000 0.000000 
0.000000 -0.000000 0.000000 
0.000000 0.000000 0.000000 

0.000000 0.000000 0.000000 
0.000000 -0.000000 0.000000 
0.000000 0.000000 0.000000 

0.000000 0.000000 0.000000 
0.000000 0.000000 0.000000 
0.000000 0.000000 0.000000 

-0.000000 -0.000000 0.000000 
0.000000 -0.000000 0.000000 
0.000000 0.000000 0.000000 

0.000000 0.000000 0.000000 
0.000000 0.000000 0.000000 
0.000000 0.000000 0.000000 

0.000000 -0.000000 0.000000 
0.000000 0.000000 0.000000 
0.000000 0.000000 0.000000 

-0.000000 0.000000 0.000000 
0.000000 -0.000000 0.000000 
0.000000 0.000000 0.000000 

0.000000 0.000000 0.000000 
0.000000 0.000000 0.000000 
0.000000 0.000000 0.000000 

0.000000 -0.000000 0.000000 
0.000000 -0.000000 0.000000 
0.000000 0.000000 0.000000 

0.000000 -0.000000 0.000000 
0.000000 -0.000000 0.000000 
0.000000 0.000000 0.000000 

0.000000 0.000000 0.000000 
0.000000 0.000000 0.000000 
0.000000 0.000000 0.000000 

0.000000 -0.000000 0.000000 
0.000000 -0.000000 0.000000 
0.000000 0.000000 0.000000 

-0.000000 0.000000 0.000000 
0.000000 -0.000000 0.000000 
0.000000 0.000000 0.000000 

-0.000000 -0.000000 0.000000 
0.000000 0.000000 0.000000 
0.000000 0.000000 0.000000 

-0.000000 -0.000000 0.000000 
0.000000 0.000000 0.000000 
0.000000 0.000000 0.000000 

-0.000000 0.000000 0.000000 
0.000000 -0.000000 0.000000 
0.000000 0.000000 0.000000 

-0.000000 0.000000 0.000000 
0.000000 -0.000000 0.000000 
0.000000 0.000000 0.000000 

-0.000000 0.000000 0.000000 
0.000000 -0.000000 0.000000 
0.000000 0.000000 0.000000 

-0.000000 0.000000 0.000000 
0.000000 -0.000000 0.000000 
0.000000 0.000000 0.000000 

-0.000000 -0.000000 0.000000 
0.000000 -0.000000 0.000000 
0.000000 0.000000 0.000000 

0.000000 -0.000000 0.000000 
0.000000 0.000000 0.000000 
0.000000 0.000000 0.000000 

0.000000 0.000000 0.000000 
0.000000 0.000000 0.000000 
0.000000 0.000000 0.000000 

0.000000 0.000000 0.000000 
0.000000 0.000000 0.000000 
0.000000 0.000000 0.000000 

0.000000 -0.000000 0.000000 
0.000000 0.000000 0.000000 
0.000000 0.000000 0.000000 

0.000000 0.000000 0.000000 
0.000000 0.000000 0.000000 
0.000000 0.000000 0.000000 

-0.000000 -0.000000 0.000000 
0.000000 0.000000 0.000000 
0.000000 0.000000 0.000000 

0.000000 -0.000000 0.000000 
0.000000 0.000000 0.000000 
0.000000 0.000000 0.000000 

0.000000 -0.000000 0.000000 
0.000000 -0.000000 0.000000 
0.000000 0.000000 0.000000 

0.000000 -0.000000 0.000000 
0.000000 0.000000 0.000000 
0.000000 0.000000 0.000000 

-0.000000 0.000000 0.000000 
0.000000 -0.000000 0.000000 
0.000000 0.000000 0.000000 

-0.000000 -0.000000 0.000000 
0.000000 -0.000000 0.000000 
0.000000 0.000000 0.000000 

0.000000 -0.000000 0.000000 
0.000000 0.000000 0.000000 
0.000000 0.000000 0.000000 

0.000000 -0.000000 0.000000 
0.000000 0.000000 0.000000 
0.000000 0.000000 0.000000 

-0.000000 -0.000000 0.000000 
0.000000 -0.000000 0.000000 
0.000000 0.000000 0.000000 

-0.000000 0.000000 0.000000 
0.000000 -0.000000 0.000000 
0.000000 0.000000 0.000000 

-0.000000 0.000000 0.000000 
0.000000 -0.000000 0.000000 
0.000000 0.000000 0.000000 

-0.000000 0.000000 0.000000 
0.000000 -0.000000 0.000000 
0.000000 0.000000 0.000000 

0.000000 -0.000000 0.000000 
0.000000 0.000000 0.000000 
0.000000 0.000000 0.000000 

-0.000000 0.000000 0.000000 
0.000000 0.000000 0.000000 
0.000000 0.000000 0.000000 

-0.000000 0.000000 0.000000 
0.000000 0.000000 0.000000 
0.000000 0.000000 0.000000 

-0.000000 0.000000 0.000000 
0.000000 0.000000 0.000000 
0.000000 0.000000 0.000000 

-0.000000 -0.000000 0.000000 
0.000000 -0.000000 0.000000 
0.000000 0.000000 0.000000 

-0.000000 0.000000 0.000000 
0.000000 -0.000000 0.000000 
0.000000 0.000000 0.000000 

-0.000000 0.000000 0.000000 
0.000000 0.000000 0.000000 
0.000000 0.000000 0.000000 

-0.000000 -0.000000 0.000000 
0.000000 -0.000000 0.000000 
0.000000 0.000000 0.000000 

-0.000000 -0.000000 0.000000 
0.000000 -0.000000 0.000000 
0.000000 0.000000 0.000000 

-0.000000 0.000000 0.000000 
0.000000 -0.000000 0.000000 
0.000000 0.000000 0.000000 

-0.000000 -0.000000 0.000000 
0.000000 -0.000000 0.000000 
0.000000 0.000000 0.000000 

-0.000000 0.000000 0.000000 
0.000000 -0.000000 0.000000 
0.000000 0.000000 0.000000 

-0.000000 0.000000 0.000000 
0.000000 -0.000000 0.000000 
0.000000 0.000000 0.000000 

-0.000000 0.000000 0.000000 
0.000000 -0.000000 0.000000 
0.000000 0.000000 0.000000 

-0.000000 -0.000000 0.000000 
0.000000 -0.000000 0.000000 
0.000000 0.000000 0.000000 

-0.000000 -0.000000 0.000000 
0.000000 -0.000000 0.000000 
0.000000 0.000000 0.000000 

-0.000000 -0.000000 0.000000 
0.000000 -0.000000 0.000000 
0.000000 0.000000 0.000000 

-0.000000 0.000000 0.000000 
0.000000 -0.000000 0.000000 
0.000000 0.000000 0.000000 

-0.000000 -0.000000 0.000000 
0.000000 -0.000000 0.000000 
0.000000 0.000000 0.000000 

0.000000 -0.000000 0.000000 
0.000000 0.000000 0.000000 
0.000000 0.000000 0.000000 

0.000000 0.000000 0.000000 
0.000000 0.000000 0.000000 
0.000000 0.000000 0.000000 

-0.000000 -0.000000 0.000000 
0.000000 -0.000000 0.000000 
0.000000 0.000000 0.000000 

0.000000 0.000000 0.000000 
0.000000 0.000000 0.000000 
0.000000 0.000000 0.000000 

0.000000 -0.000000 0.000000 
0.000000 0.000000 0.000000 
0.000000 0.000000 0.000000 

0.000000 -0.000000 0.000000 
0.000000 0.000000 0.000000 
0.000000 0.000000 0.000000 

0.000000 -0.000000 0.000000 
0.000000 0.000000 0.000000 
0.000000 0.000000 0.000000 

0.000000 0.000000 0.000000 
0.000000 0.000000 0.000000 
0.000000 0.000000 0.000000 

-0.000000 -0.000000 0.000000 
0.000000 -0.000000 0.000000 
0.000000 0.000000 0.000000 

-0.000000 0.000000 0.000000 
0.000000 -0.000000 0.000000 
0.000000 0.000000 0.000000 

-0.000000 0.000000 0.000000 
0.000000 0.000000 0.000000 
0.000000 0.000000 0.000000 

-0.000000 0.000000 0.000000 
0.000000 -0.000000 0.000000 
0.000000 0.000000 0.000000 

0.000000 0.000000 0.000000 
0.000000 0.000000 0.000000 
0.000000 0.000000 0.000000 

-0.000000 -0.000000 0.000000 
0.000000 -0.000000 0.000000 
0.000000 0.000000 0.000000 

-0.000000 0.000000 0.000000 
0.000000 -0.000000 0.000000 
0.000000 0.000000 0.000000 

-0.000000 0.000000 0.000000 
0.000000 -0.000000 0.000000 
0.000000 0.000000 0.000000 

-0.000000 0.000000 0.000000 
0.000000 -0.000000 0.000000 
0.000000 0.000000 0.000000 

-0.000000 0.000000 0.000000 
0.000000 0.000000 0.000000 
0.000000 0.000000 0.000000 

0.000000 0.000000 0.000000 
0.000000 0.000000 0.000000 
0.000000 0.000000 0.000000 

0.000000 -0.000000 0.000000 
0.000000 0.000000 0.000000 
0.000000 0.000000 0.000000 

0.000000 0.000000 0.000000 
0.000000 0.000000 0.000000 
0.000000 0.000000 0.000000 

-0.000000 0.000000 0.000000 
0.000000 -0.000000 0.000000 
0.000000 0.000000 0.000000 

0.000000 0.000000 0.000000 
0.000000 0.000000 0.000000 
0.000000 0.000000 0.000000 

-0.000000 0.000000 0.000000 
0.000000 -0.000000 0.000000 
0.000000 0.000000 0.000000 

-0.000000 -0.000000 0.000000 
0.000000 -0.000000 0.000000 
0.000000 0.000000 0.000000 

-0.000000 -0.000000 0.000000 
0.000000 -0.000000 0.000000 
0.000000 0.000000 0.000000 

-0.000000 -0.000000 0.000000 
0.000000 0.000000 0.000000 
0.000000 0.000000 0.000000 

0.000000 0.000000 0.000000 
0.000000 0.000000 0.000000 
0.000000 0.000000 0.000000 

-0.000000 -0.000000 0.000000 
0.000000 0.000000 0.000000 
0.000000 0.000000 0.000000 

-0.000000 0.000000 0.000000 
0.000000 -0.000000 0.000000 
0.000000 0.000000 0.000000 

-0.000000 -0.000000 0.000000 
0.000000 0.000000 0.000000 
0.000000 0.000000 0.000000 

0.000000 0.000000 0.000000 
0.000000 0.000000 0.000000 
0.000000 0.000000 0.000000 

0.000000 0.000000 0.000000 
0.000000 0.000000 0.000000 
0.000000 0.000000 0.000000 

-0.000000 -0.000000 0.000000 
0.000000 0.000000 0.000000 
0.000000 0.000000 0.000000 

-0.000000 -0.000000 0.000000 
0.000000 -0.000000 0.000000 
0.000000 0.000000 0.000000 

-0.000000 0.000000 0.000000 
0.000000 0.000000 0.000000 
0.000000 0.000000 0.000000 

-0.000000 -0.000000 0.000000 
0.000000 -0.000000 0.000000 
0.000000 0.000000 0.000000 

-0.000000 0.000000 0.000000 
0.000000 -0.000000 0.000000 
0.000000 0.000000 0.000000 

0.000000 0.000000 0.000000 
0.000000 0.000000 0.000000 
0.000000 0.000000 0.000000 

0.000000 -0.000000 0.000000 
0.000000 0.000000 0.000000 
0.000000 0.000000 0.000000 

0.000000 0.000000 0.000000 
0.000000 0.000000 0.000000 
0.000000 0.000000 0.000000 

-0.000000 -0.000000 0.000000 
0.000000 -0.000000 0.000000 
0.000000 0.000000 0.000000 

0.000000 -0.000000 0.000000 
0.000000 0.000000 0.000000 
0.000000 0.000000 0.000000 

0.000000 -0.000000 0.000000 
0.000000 -0.000000 0.000000 
0.000000 0.000000 0.000000 

0.000000 0.000000 0.000000 
0.000000 0.000000 0.000000 
0.000000 0.000000 0.000000 

0.000000 -0.000000 0.000000 
0.000000 0.000000 0.000000 
0.000000 0.000000 0.000000 

-0.000000 0.000000 0.000000 
0.000000 -0.000000 0.000000 
0.000000 0.000000 0.000000 

0.000000 0.000000 0.000000 
0.000000 0.000000 0.000000 
0.000000 0.000000 0.000000 

0.000000 0.000000 0.000000 
0.000000 0.000000 0.000000 
0.000000 0.000000 0.000000 

0.000000 0.000000 0.000000 
0.000000 0.000000 0.000000 
0.000000 0.000000 0.000000 

0.000000 0.000000 0.000000 
0.000000 0.000000 0.000000 
0.000000 0.000000 0.000000 

-0.000000 -0.000000 0.000000 
0.000000 -0.000000 0.000000 
0.000000 0.000000 0.000000 

-0.000000 -0.000000 0.000000 
0.000000 -0.000000 0.000000 
0.000000 0.000000 0.000000 

0.000000 -0.000000 0.000000 
0.000000 0.000000 0.000000 
0.000000 0.000000 0.000000 

0.000000 0.000000 0.000000 
0.000000 0.000000 0.000000 
0.000000 0.000000 0.000000 

0.000000 -0.000000 0.000000 
0.000000 0.000000 0.000000 
0.000000 0.000000 0.000000 

0.000000 0.000000 0.000000 
0.000000 0.000000 0.000000 
0.000000 0.000000 0.000000 

-0.000000 0.000000 0.000000 
0.000000 -0.000000 0.000000 
0.000000 0.000000 0.000000 

0.000000 0.000000 0.000000 
0.000000 -0.000000 0.000000 
0.000000 0.000000 0.000000 

0.000000 -0.000000 0.000000 
0.000000 0.000000 0.000000 
0.000000 0.000000 0.000000 

0.000000 -0.000000 0.000000 
0.000000 0.000000 0.000000 
0.000000 0.000000 0.000000 

0.000000 0.000000 0.000000 
0.000000 -0.000000 0.000000 
0.000000 0.000000 0.000000 

0.000000 -0.000000 0.000000 
0.000000 0.000000 0.000000 
0.000000 0.000000 0.000000 

0.000000 -0.000000 0.000000 
0.000000 -0.000000 0.000000 
0.000000 0.000000 0.000000 

-0.000000 -0.000000 0.000000 
0.000000 -0.000000 0.000000 
0.000000 0.000000 0.000000 

0.000000 -0.000000 0.000000 
0.000000 0.000000 0.000000 
0.000000 0.000000 0.000000 

0.000000 0.000000 0.000000 
0.000000 0.000000 0.000000 
0.000000 0.000000 0.000000 

-0.000000 0.000000 0.000000 
0.000000 -0.000000 0.000000 
0.000000 0.000000 0.000000 

0.000000 -0.000000 0.000000 
0.000000 0.000000 0.000000 
0.000000 0.000000 0.000000 

-0.000000 -0.000000 0.000000 
0.000000 -0.000000 0.000000 
0.000000 0.000000 0.000000 

-0.000000 0.000000 0.000000 
0.000000 -0.000000 0.000000 
0.000000 0.000000 0.000000 

-0.000000 0.000000 0.000000 
0.000000 -0.000000 0.000000 
0.000000 0.000000 0.000000 

0.000000 -0.000000 0.000000 
0.000000 0.000000 0.000000 
0.000000 0.000000 0.000000 

TENSORS STRAIN float 
0.000000 0.000000 0.000000 
0.000000 0.000000 0.000000 
0.000000 0.000000 0.000000 

-0.000000 -0.000000 0.000000 
0.000000 0.000000 0.000000 
0.000000 0.000000 0.000000 

0.000000 0.000000 0.000000 
0.000000 -0.000000 0.000000 
0.000000 0.000000 0.000000 

0.000000 0.000000 0.000000 
0.000000 -0.000000 0.000000 
0.000000 0.000000 0.000000 

-0.000000 -0.000000 0.000000 
0.000000 -0.000000 0.000000 
0.000000 0.000000 0.000000 

-0.000000 -0.000000 0.000000 
0.000000 0.000000 0.000000 
0.000000 0.000000 0.000000 

-0.000000 0.000000 0.000000 
0.000000 -0.000000 0.000000 
0.000000 0.000000 0.000000 

-0.000000 -0.000000 0.000000 
0.000000 0.000000 0.000000 
0.000000 0.000000 0.000000 

0.000000 -0.000000 0.000000 
0.000000 -0.000000 0.000000 
0.000000 0.000000 0.000000 

-0.000000 -0.000000 0.000000 
0.000000 -0.000000 0.000000 
0.000000 0.000000 0.000000 

-0.000000 -0.000000 0.000000 
0.000000 -0.000000 0.000000 
0.000000 0.000000 0.000000 

-0.000000 0.000000 0.000000 
0.000000 -0.000000 0.000000 
0.000000 0.000000 0.000000 

-0.000000 -0.000000 0.000000 
0.000000 0.000000 0.000000 
0.000000 0.000000 0.000000 

-0.000000 0.000000 0.000000 
0.000000 0.000000 0.000000 
0.000000 0.000000 0.000000 

0.000000 0.000000 0.000000 
0.000000 -0.000000 0.000000 
0.000000 0.000000 0.000000 

0.000000 -0.000000 0.000000 
0.000000 -0.000000 0.000000 
0.000000 0.000000 0.000000 

-0.000000 0.000000 0.000000 
0.000000 0.000000 0.000000 
0.000000 0.000000 0.000000 

-0.000000 0.000000 0.000000 
0.000000 0.000000 0.000000 
0.000000 0.000000 0.000000 

-0.000000 -0.000000 0.000000 
0.000000 0.000000 0.000000 
0.000000 0.000000 0.000000 

-0.000000 0.000000 0.000000 
0.000000 0.000000 0.000000 
0.000000 0.000000 0.000000 

-0.000000 0.000000 0.000000 
0.000000 0.000000 0.000000 
0.000000 0.000000 0.000000 

-0.000000 0.000000 0.000000 
0.000000 0.000000 0.000000 
0.000000 0.000000 0.000000 

-0.000000 -0.000000 0.000000 
0.000000 0.000000 0.000000 
0.000000 0.000000 0.000000 

0.000000 -0.000000 0.000000 
0.000000 -0.000000 0.000000 
0.000000 0.000000 0.000000 

0.000000 0.000000 0.000000 
0.000000 0.000000 0.000000 
0.000000 0.000000 0.000000 

-0.000000 0.000000 0.000000 
0.000000 0.000000 0.000000 
0.000000 0.000000 0.000000 

0.000000 0.000000 0.000000 
0.000000 0.000000 0.000000 
0.000000 0.000000 0.000000 

0.000000 0.000000 0.000000 
0.000000 -0.000000 0.000000 
0.000000 0.000000 0.000000 

0.000000 -0.000000 0.000000 
0.000000 -0.000000 0.000000 
0.000000 0.000000 0.000000 

0.000000 -0.000000 0.000000 
0.000000 -0.000000 0.000000 
0.000000 0.000000 0.000000 

0.000000 -0.000000 0.000000 
0.000000 -0.000000 0.000000 
0.000000 0.000000 0.000000 

0.000000 -0.000000 0.000000 
0.000000 -0.000000 0.000000 
0.000000 0.000000 0.000000 

-0.000000 -0.000000 0.000000 
0.000000 0.000000 0.000000 
0.000000 0.000000 0.000000 

-0.000000 -0.000000 0.000000 
0.000000 -0.000000 0.000000 
0.000000 0.000000 0.000000 

0.000000 -0.000000 0.000000 
0.000000 -0.000000 0.000000 
0.000000 0.000000 0.000000 

0.000000 0.000000 0.000000 
0.000000 -0.000000 0.000000 
0.000000 0.000000 0.000000 

0.000000 -0.000000 0.000000 
0.000000 -0.000000 0.000000 
0.000000 0.000000 0.000000 

0.000000 0.000000 0.000000 
0.000000 0.000000 0.000000 
0.000000 0.000000 0.000000 

0.000000 0.000000 0.000000 
0.000000 0.000000 0.000000 
0.000000 0.000000 0.000000 

-0.000000 0.000000 0.000000 
0.000000 0.000000 0.000000 
0.000000 0.000000 0.000000 

-0.000000 -0.000000 0.000000 
0.000000 -0.000000 0.000000 
0.000000 0.000000 0.000000 

0.000000 -0.000000 0.000000 
0.000000 -0.000000 0.000000 
0.000000 0.000000 0.000000 

0.000000 0.000000 0.000000 
0.000000 0.000000 0.000000 
0.000000 0.000000 0.000000 

0.000000 -0.000000 0.000000 
0.000000 0.000000 0.000000 
0.000000 0.000000 0.000000 

0.000000 0.000000 0.000000 
0.000000 0.000000 0.000000 
0.000000 0.000000 0.000000 

-0.000000 -0.000000 0.000000 
0.000000 -0.000000 0.000000 
0.000000 0.000000 0.000000 

-0.000000 0.000000 0.000000 
0.000000 -0.000000 0.000000 
0.000000 0.000000 0.000000 

0.000000 0.000000 0.000000 
0.000000 -0.000000 0.000000 
0.000000 0.000000 0.000000 

-0.000000 0.000000 0.000000 
0.000000 0.000000 0.000000 
0.000000 0.000000 0.000000 

-0.000000 -0.000000 0.000000 
0.000000 0.000000 0.000000 
0.000000 0.000000 0.000000 

-0.000000 0.000000 0.000000 
0.000000 0.000000 0.000000 
0.000000 0.000000 0.000000 

0.000000 -0.000000 0.000000 
0.000000 0.000000 0.000000 
0.000000 0.000000 0.000000 

0.000000 0.000000 0.000000 
0.000000 -0.000000 0.000000 
0.000000 0.000000 0.000000 

0.000000 0.000000 0.000000 
0.000000 0.000000 0.000000 
0.000000 0.000000 0.000000 

0.000000 -0.000000 0.000000 
0.000000 -0.000000 0.000000 
0.000000 0.000000 0.000000 

0.000000 -0.000000 0.000000 
0.000000 -0.000000 0.000000 
0.000000 0.000000 0.000000 

0.000000 0.000000 0.000000 
0.000000 -0.000000 0.000000 
0.000000 0.000000 0.000000 

0.000000 -0.000000 0.000000 
0.000000 -0.000000 0.000000 
0.000000 0.000000 0.000000 

0.000000 0.000000 0.000000 
0.000000 -0.000000 0.000000 
0.000000 0.000000 0.000000 

-0.000000 -0.000000 0.000000 
0.000000 0.000000 0.000000 
0.000000 0.000000 0.000000 

-0.000000 -0.000000 0.000000 
0.000000 0.000000 0.000000 
0.000000 0.000000 0.000000 

-0.000000 0.000000 0.000000 
0.000000 -0.000000 0.000000 
0.000000 0.000000 0.000000 

-0.000000 0.000000 0.000000 
0.000000 -0.000000 0.000000 
0.000000 0.000000 0.000000 

-0.000000 0.000000 0.000000 
0.000000 -0.000000 0.000000 
0.000000 0.000000 0.000000 

-0.000000 0.000000 0.000000 
0.000000 0.000000 0.000000 
0.000000 0.000000 0.000000 

-0.000000 -0.000000 0.000000 
0.000000 -0.000000 0.000000 
0.000000 0.000000 0.000000 

-0.000000 -0.000000 0.000000 
0.000000 0.000000 0.000000 
0.000000 0.000000 0.000000 

0.000000 0.000000 0.000000 
0.000000 0.000000 0.000000 
0.000000 0.000000 0.000000 

0.000000 0.000000 0.000000 
0.000000 0.000000 0.000000 
0.000000 0.000000 0.000000 

0.000000 -0.000000 0.000000 
0.000000 0.000000 0.000000 
0.000000 0.000000 0.000000 

0.000000 0.000000 0.000000 
0.000000 0.000000 0.000000 
0.000000 0.000000 0.000000 

-0.000000 -0.000000 0.000000 
0.000000 0.000000 0.000000 
0.000000 0.000000 0.000000 

0.000000 -0.000000 0.000000 
0.000000 0.000000 0.000000 
0.000000 0.000000 0.000000 

0.000000 -0.000000 0.000000 
0.000000 -0.000000 0.000000 
0.000000 0.000000 0.000000 

0.000000 -0.000000 0.000000 
0.000000 0.000000 0.000000 
0.000000 0.000000 0.000000 

-0.000000 0.000000 0.000000 
0.000000 0.000000 0.000000 
0.000000 0.000000 0.000000 

-0.000000 -0.000000 0.000000 
0.000000 -0.000000 0.000000 
0.000000 0.000000 0.000000 

-0.000000 -0.000000 0.000000 
0.000000 0.000000 0.000000 
0.000000 0.000000 0.000000 

-0.000000 -0.000000 0.000000 
0.000000 0.000000 0.000000 
0.000000 0.000000 0.000000 

-0.000000 -0.000000 0.000000 
0.000000 -0.000000 0.000000 
0.000000 0.000000 0.000000 

0.000000 0.000000 0.000000 
0.000000 -0.000000 0.000000 
0.000000 0.000000 0.000000 

0.000000 0.000000 0.000000 
0.000000 -0.000000 0.000000 
0.000000 0.000000 0.000000 

0.000000 0.000000 0.000000 
0.000000 -0.000000 0.000000 
0.000000 0.000000 0.000000 

0.000000 -0.000000 0.000000 
0.000000 0.000000 0.000000 
0.000000 0.000000 0.000000 

-0.000000 0.000000 0.000000 
0.000000 0.000000 0.000000 
0.000000 0.000000 0.000000 

-0.000000 0.000000 0.000000 
0.000000 0.000000 0.000000 
0.000000 0.000000 0.000000 

-0.000000 0.000000 0.000000 
0.000000 0.000000 0.000000 
0.000000 0.000000 0.000000 

-0.000000 -0.000000 0.000000 
0.000000 -0.000000 0.000000 
0.000000 0.000000 0.000000 

-0.000000 0.000000 0.000000 
0.000000 -0.000000 0.000000 
0.000000 0.000000 0.000000 

-0.000000 0.000000 0.000000 
0.000000 0.000000 0.000000 
0.000000 0.000000 0.000000 

-0.000000 -0.000000 0.000000 
0.000000 -0.000000 0.000000 
0.000000 0.000000 0.000000 

-0.000000 -0.000000 0.000000 
0.000000 -0.000000 0.000000 
0.000000 0.000000 0.000000 

-0.000000 0.000000 0.000000 
0.000000 -0.000000 0.000000 
0.000000 0.000000 0.000000 

-0.000000 -0.000000 0.000000 
0.000000 -0.000000 0.000000 
0.000000 0.000000 0.000000 

-0.000000 0.000000 0.000000 
0.000000 0.000000 0.000000 
0.000000 0.000000 0.000000 

-0.000000 0.000000 0.000000 
0.000000 -0.000000 0.000000 
0.000000 0.000000 0.000000 

-0.000000 0.000000 0.000000 
0.000000 -0.000000 0.000000 
0.000000 0.000000 0.000000 

-0.000000 -0.000000 0.000000 
0.000000 -0.000000 0.000000 
0.000000 0.000000 0.000000 

-0.000000 -0.000000 0.000000 
0.000000 -0.000000 0.000000 
0.000000 0.000000 0.000000 

-0.000000 -0.000000 0.000000 
0.000000 -0.000000 0.000000 
0.000000 0.000000 0.000000 

-0.000000 0.000000 0.000000 
0.000000 -0.000000 0.000000 
0.000000 0.000000 0.000000 

-0.000000 -0.000000 0.000000 
0.000000 -0.000000 0.000000 
0.000000 0.000000 0.000000 

-0.000000 -0.000000 0.000000 
0.000000 0.000000 0.000000 
0.000000 0.000000 0.000000 

0.000000 0.000000 0.000000 
0.000000 0.000000 0.000000 
0.000000 0.000000 0.000000 

0.000000 -0.000000 0.000000 
0.000000 -0.000000 0.000000 
0.000000 0.000000 0.000000 

0.000000 0.000000 0.000000 
0.000000 0.000000 0.000000 
0.000000 0.000000 0.000000 

0.000000 -0.000000 0.000000 
0.000000 0.000000 0.000000 
0.000000 0.000000 0.000000 

0.000000 -0.000000 0.000000 
0.000000 0.000000 0.000000 
0.000000 0.000000 0.000000 

0.000000 -0.000000 0.000000 
0.000000 0.000000 0.000000 
0.000000 0.000000 0.000000 

0.000000 0.000000 0.000000 
0.000000 0.000000 0.000000 
0.000000 0.000000 0.000000 

-0.000000 -0.000000 0.000000 
0.000000 -0.000000 0.000000 
0.000000 0.000000 0.000000 

-0.000000 0.000000 0.000000 
0.000000 -0.000000 0.000000 
0.000000 0.000000 0.000000 

-0.000000 0.000000 0.000000 
0.000000 0.000000 0.000000 
0.000000 0.000000 0.000000 

0.000000 0.000000 0.000000 
0.000000 -0.000000 0.000000 
0.000000 0.000000 0.000000 

-0.000000 0.000000 0.000000 
0.000000 0.000000 0.000000 
0.000000 0.000000 0.000000 

-0.000000 -0.000000 0.000000 
0.000000 -0.000000 0.000000 
0.000000 0.000000 0.000000 

-0.000000 0.000000 0.000000 
0.000000 -0.000000 0.000000 
0.000000 0.000000 0.000000 

-0.000000 0.000000 0.000000 
0.000000 0.000000 0.000000 
0.000000 0.000000 0.000000 

0.000000 0.000000 0.000000 
0.000000 -0.000000 0.000000 
0.000000 0.000000 0.000000 

-0.000000 0.000000 0.000000 
0.000000 0.000000 0.000000 
0.000000 0.000000 0.000000 

0.000000 0.000000 0.000000 
0.000000 0.000000 0.000000 
0.000000 0.000000 0.000000 

0.000000 -0.000000 0.000000 
0.000000 0.000000 0.000000 
0.000000 0.000000 0.000000 

0.000000 0.000000 0.000000 
0.000000 0.000000 0.000000 
0.000000 0.000000 0.000000 

-0.000000 0.000000 0.000000 
0.000000 -0.000000 0.000000 
0.000000 0.000000 0.000000 

-0.000000 0.000000 0.000000 
0.000000 0.000000 0.000000 
0.000000 0.000000 0.000000 

-0.000000 0.000000 0.000000 
0.000000 -0.000000 0.000000 
0.000000 0.000000 0.000000 

-0.000000 -0.000000 0.000000 
0.000000 -0.000000 0.000000 
0.000000 0.000000 0.000000 

-0.000000 -0.000000 0.000000 
0.000000 0.000000 0.000000 
0.000000 0.000000 0.000000 

-0.000000 -0.000000 0.000000 
0.000000 0.000000 0.000000 
0.000000 0.000000 0.000000 

0.000000 0.000000 0.000000 
0.000000 0.000000 0.000000 
0.000000 0.000000 0.000000 

-0.000000 -0.000000 0.000000 
0.000000 0.000000 0.000000 
0.000000 0.000000 0.000000 

-0.000000 0.000000 0.000000 
0.000000 -0.000000 0.000000 
0.000000 0.000000 0.000000 

-0.000000 -0.000000 0.000000 
0.000000 0.000000 0.000000 
0.000000 0.000000 0.000000 

0.000000 0.000000 0.000000 
0.000000 0.000000 0.000000 
0.000000 0.000000 0.000000 

0.000000 0.000000 0.000000 
0.000000 0.000000 0.000000 
0.000000 0.000000 0.000000 

-0.000000 -0.000000 0.000000 
0.000000 0.000000 0.000000 
0.000000 0.000000 0.000000 

0.000000 -0.000000 0.000000 
0.000000 -0.000000 0.000000 
0.000000 0.000000 0.000000 

-0.000000 0.000000 0.000000 
0.000000 0.000000 0.000000 
0.000000 0.000000 0.000000 

0.000000 -0.000000 0.000000 
0.000000 -0.000000 0.000000 
0.000000 0.000000 0.000000 

0.000000 0.000000 0.000000 
0.000000 -0.000000 0.000000 
0.000000 0.000000 0.000000 

0.000000 0.000000 0.000000 
0.000000 0.000000 0.000000 
0.000000 0.000000 0.000000 

0.000000 -0.000000 0.000000 
0.000000 0.000000 0.000000 
0.000000 0.000000 0.000000 

0.000000 0.000000 0.000000 
0.000000 0.000000 0.000000 
0.000000 0.000000 0.000000 

-0.000000 -0.000000 0.000000 
0.000000 -0.000000 0.000000 
0.000000 0.000000 0.000000 

0.000000 -0.000000 0.000000 
0.000000 0.000000 0.000000 
0.000000 0.000000 0.000000 

0.000000 -0.000000 0.000000 
0.000000 -0.000000 0.000000 
0.000000 0.000000 0.000000 

0.000000 0.000000 0.000000 
0.000000 0.000000 0.000000 
0.000000 0.000000 0.000000 

0.000000 -0.000000 0.000000 
0.000000 0.000000 0.000000 
0.000000 0.000000 0.000000 

0.000000 0.000000 0.000000 
0.000000 -0.000000 0.000000 
0.000000 0.000000 0.000000 

0.000000 0.000000 0.000000 
0.000000 0.000000 0.000000 
0.000000 0.000000 0.000000 

0.000000 0.000000 0.000000 
0.000000 0.000000 0.000000 
0.000000 0.000000 0.000000 

0.000000 0.000000 0.000000 
0.000000 0.000000 0.000000 
0.000000 0.000000 0.000000 

0.000000 0.000000 0.000000 
0.000000 0.000000 0.000000 
0.000000 0.000000 0.000000 

-0.000000 -0.000000 0.000000 
0.000000 -0.000000 0.000000 
0.000000 0.000000 0.000000 

0.000000 -0.000000 0.000000 
0.000000 -0.000000 0.000000 
0.000000 0.000000 0.000000 

-0.000000 -0.000000 0.000000 
0.000000 0.000000 0.000000 
0.000000 0.000000 0.000000 

0.000000 0.000000 0.000000 
0.000000 -0.000000 0.000000 
0.000000 0.000000 0.000000 

0.000000 -0.000000 0.000000 
0.000000 -0.000000 0.000000 
0.000000 0.000000 0.000000 

0.000000 0.000000 0.000000 
0.000000 0.000000 0.000000 
0.000000 0.000000 0.000000 

0.000000 0.000000 0.000000 
0.000000 -0.000000 0.000000 
0.000000 0.000000 0.000000 

0.000000 0.000000 0.000000 
0.000000 -0.000000 0.000000 
0.000000 0.000000 0.000000 

0.000000 -0.000000 0.000000 
0.000000 0.000000 0.000000 
0.000000 0.000000 0.000000 

0.000000 -0.000000 0.000000 
0.000000 0.000000 0.000000 
0.000000 0.000000 0.000000 

0.000000 0.000000 0.000000 
0.000000 -0.000000 0.000000 
0.000000 0.000000 0.000000 

0.000000 -0.000000 0.000000 
0.000000 0.000000 0.000000 
0.000000 0.000000 0.000000 

0.000000 -0.000000 0.000000 
0.000000 -0.000000 0.000000 
0.000000 0.000000 0.000000 

0.000000 -0.000000 0.000000 
0.000000 -0.000000 0.000000 
0.000000 0.000000 0.000000 

0.000000 -0.000000 0.000000 
0.000000 -0.000000 0.000000 
0.000000 0.000000 0.000000 

-0.000000 0.000000 0.000000 
0.000000 0.000000 0.000000 
0.000000 0.000000 0.000000 

0.000000 0.000000 0.000000 
0.000000 -0.000000 0.000000 
0.000000 0.000000 0.000000 

0.000000 -0.000000 0.000000 
0.000000 0.000000 0.000000 
0.000000 0.000000 0.000000 

0.000000 -0.000000 0.000000 
0.000000 -0.000000 0.000000 
0.000000 0.000000 0.000000 

0.000000 0.000000 0.000000 
0.000000 -0.000000 0.000000 
0.000000 0.000000 0.000000 

0.000000 0.000000 0.000000 
0.000000 -0.000000 0.000000 
0.000000 0.000000 0.000000 

0.000000 -0.000000 0.000000 
0.000000 0.000000 0.000000 
0.000000 0.000000 0.000000 

