# vtk DataFile Version 3.0 
vtk output 
ASCII 
DATASET UNSTRUCTURED_GRID 
POINTS 175 float 
-0.026061 -0.290337 0.000000 
-0.106992 -0.222282 0.000000 
-0.054870 -0.230515 0.000000 
-0.028809 -0.184631 0.000000 
-0.186430 -0.158206 0.000000 
-0.137056 -0.160733 0.000000 
-0.114311 -0.107085 0.000000 
-0.058186 -0.122751 0.000000 
-0.029377 -0.082574 0.000000 
-0.265318 -0.095051 0.000000 
-0.217198 -0.095850 0.000000 
-0.196633 -0.038554 0.000000 
-0.143120 -0.047262 0.000000 
-0.116563 0.000006 0.000000 
-0.058945 -0.019640 0.000000 
-0.029568 0.018481 0.000000 
-0.344206 -0.031895 0.000000 
-0.296791 -0.031888 0.000000 
-0.278030 0.028055 0.000000 
-0.225992 0.022189 0.000000 
-0.201664 0.074306 0.000000 
-0.145749 0.060832 0.000000 
-0.117890 0.105175 0.000000 
-0.059328 0.082469 0.000000 
-0.029759 0.119535 0.000000 
-0.058559 -0.331088 0.000000 
-0.162226 -0.351931 0.000000 
-0.123292 -0.316313 0.000000 
-0.142917 -0.267330 0.000000 
-0.261851 -0.374087 0.000000 
-0.229092 -0.337060 0.000000 
-0.256854 -0.285828 0.000000 
-0.209613 -0.251716 0.000000 
-0.223062 -0.204142 0.000000 
-0.360414 -0.396387 0.000000 
-0.329787 -0.359264 0.000000 
-0.361761 -0.307462 0.000000 
-0.321587 -0.271053 0.000000 
-0.341985 -0.220819 0.000000 
-0.290702 -0.188020 0.000000 
-0.302189 -0.141285 0.000000 
-0.458977 -0.418687 0.000000 
-0.429420 -0.381613 0.000000 
-0.464588 -0.329571 0.000000 
-0.427556 -0.292543 0.000000 
-0.453135 -0.241029 0.000000 
-0.407738 -0.205713 0.000000 
-0.425037 -0.156285 0.000000 
-0.370772 -0.124656 0.000000 
-0.381315 -0.078429 0.000000 
-0.046960 -0.381903 0.000000 
-0.095301 -0.475949 0.000000 
-0.098873 -0.423302 0.000000 
-0.149405 -0.408104 0.000000 
-0.140093 -0.567653 0.000000 
-0.148617 -0.518955 0.000000 
-0.205981 -0.508718 0.000000 
-0.203197 -0.450514 0.000000 
-0.248777 -0.431368 0.000000 
-0.184111 -0.658617 0.000000 
-0.194039 -0.611526 0.000000 
-0.254475 -0.604226 0.000000 
-0.257893 -0.550116 0.000000 
-0.309886 -0.534744 0.000000 
-0.303554 -0.474199 0.000000 
-0.347255 -0.454041 0.000000 
-0.228129 -0.749580 0.000000 
-0.238687 -0.703356 0.000000 
-0.301302 -0.698404 0.000000 
-0.307162 -0.646365 0.000000 
-0.363386 -0.634244 0.000000 
-0.362692 -0.576733 0.000000 
-0.412122 -0.559440 0.000000 
-0.403017 -0.497293 0.000000 
-0.445733 -0.476714 0.000000 
-0.000000 -0.404518 0.000000 
0.043388 -0.500949 0.000000 
-0.000000 -0.470916 0.000000 
-0.043388 -0.500949 0.000000 
0.087158 -0.593145 0.000000 
0.043769 -0.569447 0.000000 
-0.000000 -0.607913 0.000000 
-0.043769 -0.569447 0.000000 
-0.087158 -0.593145 0.000000 
0.130831 -0.684275 0.000000 
0.087824 -0.662676 0.000000 
0.044436 -0.705376 0.000000 
-0.000000 -0.674311 0.000000 
-0.044436 -0.705376 0.000000 
-0.087824 -0.662676 0.000000 
-0.130831 -0.684275 0.000000 
0.174505 -0.775405 0.000000 
0.131782 -0.754839 0.000000 
0.088871 -0.800705 0.000000 
0.044532 -0.772841 0.000000 
-0.000000 -0.809242 0.000000 
-0.044532 -0.772841 0.000000 
-0.088871 -0.800705 0.000000 
-0.131782 -0.754839 0.000000 
-0.174505 -0.775405 0.000000 
0.046960 -0.381903 0.000000 
0.149405 -0.408104 0.000000 
0.098873 -0.423302 0.000000 
0.095301 -0.475949 0.000000 
0.248777 -0.431368 0.000000 
0.203197 -0.450514 0.000000 
0.205981 -0.508718 0.000000 
0.148617 -0.518955 0.000000 
0.140093 -0.567653 0.000000 
0.347255 -0.454041 0.000000 
0.303554 -0.474199 0.000000 
0.309886 -0.534744 0.000000 
0.257893 -0.550116 0.000000 
0.254475 -0.604226 0.000000 
0.194039 -0.611526 0.000000 
0.184111 -0.658617 0.000000 
0.445733 -0.476714 0.000000 
0.403017 -0.497293 0.000000 
0.412122 -0.559440 0.000000 
0.362692 -0.576733 0.000000 
0.363386 -0.634244 0.000000 
0.307162 -0.646365 0.000000 
0.301302 -0.698404 0.000000 
0.238687 -0.703356 0.000000 
0.228129 -0.749580 0.000000 
0.058559 -0.331088 0.000000 
0.142917 -0.267330 0.000000 
0.123292 -0.316313 0.000000 
0.162226 -0.351931 0.000000 
0.223062 -0.204142 0.000000 
0.209613 -0.251716 0.000000 
0.256854 -0.285828 0.000000 
0.229092 -0.337060 0.000000 
0.261851 -0.374087 0.000000 
0.302189 -0.141285 0.000000 
0.290702 -0.188020 0.000000 
0.341985 -0.220819 0.000000 
0.321587 -0.271053 0.000000 
0.361761 -0.307462 0.000000 
0.329787 -0.359264 0.000000 
0.360414 -0.396387 0.000000 
0.381315 -0.078429 0.000000 
0.370772 -0.124656 0.000000 
0.425037 -0.156285 0.000000 
0.407738 -0.205713 0.000000 
0.453135 -0.241029 0.000000 
0.427556 -0.292543 0.000000 
0.464588 -0.329571 0.000000 
0.429420 -0.381613 0.000000 
0.458977 -0.418687 0.000000 
0.026061 -0.290337 0.000000 
0.028809 -0.184631 0.000000 
0.054870 -0.230515 0.000000 
0.106992 -0.222282 0.000000 
0.029377 -0.082574 0.000000 
0.058186 -0.122751 0.000000 
0.114311 -0.107085 0.000000 
0.137056 -0.160733 0.000000 
0.186430 -0.158206 0.000000 
0.029568 0.018481 0.000000 
0.058945 -0.019640 0.000000 
0.116563 0.000006 0.000000 
0.143120 -0.047262 0.000000 
0.196633 -0.038554 0.000000 
0.217198 -0.095850 0.000000 
0.265318 -0.095051 0.000000 
0.029759 0.119535 0.000000 
0.059328 0.082469 0.000000 
0.117890 0.105175 0.000000 
0.145749 0.060832 0.000000 
0.201664 0.074306 0.000000 
0.225992 0.022189 0.000000 
0.278030 0.028055 0.000000 
0.296791 -0.031888 0.000000 
0.344206 -0.031895 0.000000 
CELLS 175 350 
1 0 
1 1 
1 2 
1 3 
1 4 
1 5 
1 6 
1 7 
1 8 
1 9 
1 10 
1 11 
1 12 
1 13 
1 14 
1 15 
1 16 
1 17 
1 18 
1 19 
1 20 
1 21 
1 22 
1 23 
1 24 
1 25 
1 26 
1 27 
1 28 
1 29 
1 30 
1 31 
1 32 
1 33 
1 34 
1 35 
1 36 
1 37 
1 38 
1 39 
1 40 
1 41 
1 42 
1 43 
1 44 
1 45 
1 46 
1 47 
1 48 
1 49 
1 50 
1 51 
1 52 
1 53 
1 54 
1 55 
1 56 
1 57 
1 58 
1 59 
1 60 
1 61 
1 62 
1 63 
1 64 
1 65 
1 66 
1 67 
1 68 
1 69 
1 70 
1 71 
1 72 
1 73 
1 74 
1 75 
1 76 
1 77 
1 78 
1 79 
1 80 
1 81 
1 82 
1 83 
1 84 
1 85 
1 86 
1 87 
1 88 
1 89 
1 90 
1 91 
1 92 
1 93 
1 94 
1 95 
1 96 
1 97 
1 98 
1 99 
1 100 
1 101 
1 102 
1 103 
1 104 
1 105 
1 106 
1 107 
1 108 
1 109 
1 110 
1 111 
1 112 
1 113 
1 114 
1 115 
1 116 
1 117 
1 118 
1 119 
1 120 
1 121 
1 122 
1 123 
1 124 
1 125 
1 126 
1 127 
1 128 
1 129 
1 130 
1 131 
1 132 
1 133 
1 134 
1 135 
1 136 
1 137 
1 138 
1 139 
1 140 
1 141 
1 142 
1 143 
1 144 
1 145 
1 146 
1 147 
1 148 
1 149 
1 150 
1 151 
1 152 
1 153 
1 154 
1 155 
1 156 
1 157 
1 158 
1 159 
1 160 
1 161 
1 162 
1 163 
1 164 
1 165 
1 166 
1 167 
1 168 
1 169 
1 170 
1 171 
1 172 
1 173 
1 174 
CELL_TYPES 175 
1 
1 
1 
1 
1 
1 
1 
1 
1 
1 
1 
1 
1 
1 
1 
1 
1 
1 
1 
1 
1 
1 
1 
1 
1 
1 
1 
1 
1 
1 
1 
1 
1 
1 
1 
1 
1 
1 
1 
1 
1 
1 
1 
1 
1 
1 
1 
1 
1 
1 
1 
1 
1 
1 
1 
1 
1 
1 
1 
1 
1 
1 
1 
1 
1 
1 
1 
1 
1 
1 
1 
1 
1 
1 
1 
1 
1 
1 
1 
1 
1 
1 
1 
1 
1 
1 
1 
1 
1 
1 
1 
1 
1 
1 
1 
1 
1 
1 
1 
1 
1 
1 
1 
1 
1 
1 
1 
1 
1 
1 
1 
1 
1 
1 
1 
1 
1 
1 
1 
1 
1 
1 
1 
1 
1 
1 
1 
1 
1 
1 
1 
1 
1 
1 
1 
1 
1 
1 
1 
1 
1 
1 
1 
1 
1 
1 
1 
1 
1 
1 
1 
1 
1 
1 
1 
1 
1 
1 
1 
1 
1 
1 
1 
1 
1 
1 
1 
1 
1 
1 
1 
1 
1 
1 
1 
POINT_DATA 175 
VECTORS X_GC float 
-0.026061 -0.290337 0.000000 
-0.106992 -0.222282 0.000000 
-0.054870 -0.230515 0.000000 
-0.028809 -0.184631 0.000000 
-0.186430 -0.158206 0.000000 
-0.137056 -0.160733 0.000000 
-0.114311 -0.107085 0.000000 
-0.058186 -0.122751 0.000000 
-0.029377 -0.082574 0.000000 
-0.265318 -0.095051 0.000000 
-0.217198 -0.095850 0.000000 
-0.196633 -0.038554 0.000000 
-0.143120 -0.047262 0.000000 
-0.116563 0.000006 0.000000 
-0.058945 -0.019640 0.000000 
-0.029568 0.018481 0.000000 
-0.344206 -0.031895 0.000000 
-0.296791 -0.031888 0.000000 
-0.278030 0.028055 0.000000 
-0.225992 0.022189 0.000000 
-0.201664 0.074306 0.000000 
-0.145749 0.060832 0.000000 
-0.117890 0.105175 0.000000 
-0.059328 0.082469 0.000000 
-0.029759 0.119535 0.000000 
-0.058559 -0.331088 0.000000 
-0.162226 -0.351931 0.000000 
-0.123292 -0.316313 0.000000 
-0.142917 -0.267330 0.000000 
-0.261851 -0.374087 0.000000 
-0.229092 -0.337060 0.000000 
-0.256854 -0.285828 0.000000 
-0.209613 -0.251716 0.000000 
-0.223062 -0.204142 0.000000 
-0.360414 -0.396387 0.000000 
-0.329787 -0.359264 0.000000 
-0.361761 -0.307462 0.000000 
-0.321587 -0.271053 0.000000 
-0.341985 -0.220819 0.000000 
-0.290702 -0.188020 0.000000 
-0.302189 -0.141285 0.000000 
-0.458977 -0.418687 0.000000 
-0.429420 -0.381613 0.000000 
-0.464588 -0.329571 0.000000 
-0.427556 -0.292543 0.000000 
-0.453135 -0.241029 0.000000 
-0.407738 -0.205713 0.000000 
-0.425037 -0.156285 0.000000 
-0.370772 -0.124656 0.000000 
-0.381315 -0.078429 0.000000 
-0.046960 -0.381903 0.000000 
-0.095301 -0.475949 0.000000 
-0.098873 -0.423302 0.000000 
-0.149405 -0.408104 0.000000 
-0.140093 -0.567653 0.000000 
-0.148617 -0.518955 0.000000 
-0.205981 -0.508718 0.000000 
-0.203197 -0.450514 0.000000 
-0.248777 -0.431368 0.000000 
-0.184111 -0.658617 0.000000 
-0.194039 -0.611526 0.000000 
-0.254475 -0.604226 0.000000 
-0.257893 -0.550116 0.000000 
-0.309886 -0.534744 0.000000 
-0.303554 -0.474199 0.000000 
-0.347255 -0.454041 0.000000 
-0.228129 -0.749580 0.000000 
-0.238687 -0.703356 0.000000 
-0.301302 -0.698404 0.000000 
-0.307162 -0.646365 0.000000 
-0.363386 -0.634244 0.000000 
-0.362692 -0.576733 0.000000 
-0.412122 -0.559440 0.000000 
-0.403017 -0.497293 0.000000 
-0.445733 -0.476714 0.000000 
-0.000000 -0.404518 0.000000 
0.043388 -0.500949 0.000000 
-0.000000 -0.470916 0.000000 
-0.043388 -0.500949 0.000000 
0.087158 -0.593145 0.000000 
0.043769 -0.569447 0.000000 
-0.000000 -0.607913 0.000000 
-0.043769 -0.569447 0.000000 
-0.087158 -0.593145 0.000000 
0.130831 -0.684275 0.000000 
0.087824 -0.662676 0.000000 
0.044436 -0.705376 0.000000 
-0.000000 -0.674311 0.000000 
-0.044436 -0.705376 0.000000 
-0.087824 -0.662676 0.000000 
-0.130831 -0.684275 0.000000 
0.174505 -0.775405 0.000000 
0.131782 -0.754839 0.000000 
0.088871 -0.800705 0.000000 
0.044532 -0.772841 0.000000 
-0.000000 -0.809242 0.000000 
-0.044532 -0.772841 0.000000 
-0.088871 -0.800705 0.000000 
-0.131782 -0.754839 0.000000 
-0.174505 -0.775405 0.000000 
0.046960 -0.381903 0.000000 
0.149405 -0.408104 0.000000 
0.098873 -0.423302 0.000000 
0.095301 -0.475949 0.000000 
0.248777 -0.431368 0.000000 
0.203197 -0.450514 0.000000 
0.205981 -0.508718 0.000000 
0.148617 -0.518955 0.000000 
0.140093 -0.567653 0.000000 
0.347255 -0.454041 0.000000 
0.303554 -0.474199 0.000000 
0.309886 -0.534744 0.000000 
0.257893 -0.550116 0.000000 
0.254475 -0.604226 0.000000 
0.194039 -0.611526 0.000000 
0.184111 -0.658617 0.000000 
0.445733 -0.476714 0.000000 
0.403017 -0.497293 0.000000 
0.412122 -0.559440 0.000000 
0.362692 -0.576733 0.000000 
0.363386 -0.634244 0.000000 
0.307162 -0.646365 0.000000 
0.301302 -0.698404 0.000000 
0.238687 -0.703356 0.000000 
0.228129 -0.749580 0.000000 
0.058559 -0.331088 0.000000 
0.142917 -0.267330 0.000000 
0.123292 -0.316313 0.000000 
0.162226 -0.351931 0.000000 
0.223062 -0.204142 0.000000 
0.209613 -0.251716 0.000000 
0.256854 -0.285828 0.000000 
0.229092 -0.337060 0.000000 
0.261851 -0.374087 0.000000 
0.302189 -0.141285 0.000000 
0.290702 -0.188020 0.000000 
0.341985 -0.220819 0.000000 
0.321587 -0.271053 0.000000 
0.361761 -0.307462 0.000000 
0.329787 -0.359264 0.000000 
0.360414 -0.396387 0.000000 
0.381315 -0.078429 0.000000 
0.370772 -0.124656 0.000000 
0.425037 -0.156285 0.000000 
0.407738 -0.205713 0.000000 
0.453135 -0.241029 0.000000 
0.427556 -0.292543 0.000000 
0.464588 -0.329571 0.000000 
0.429420 -0.381613 0.000000 
0.458977 -0.418687 0.000000 
0.026061 -0.290337 0.000000 
0.028809 -0.184631 0.000000 
0.054870 -0.230515 0.000000 
0.106992 -0.222282 0.000000 
0.029377 -0.082574 0.000000 
0.058186 -0.122751 0.000000 
0.114311 -0.107085 0.000000 
0.137056 -0.160733 0.000000 
0.186430 -0.158206 0.000000 
0.029568 0.018481 0.000000 
0.058945 -0.019640 0.000000 
0.116563 0.000006 0.000000 
0.143120 -0.047262 0.000000 
0.196633 -0.038554 0.000000 
0.217198 -0.095850 0.000000 
0.265318 -0.095051 0.000000 
0.029759 0.119535 0.000000 
0.059328 0.082469 0.000000 
0.117890 0.105175 0.000000 
0.145749 0.060832 0.000000 
0.201664 0.074306 0.000000 
0.225992 0.022189 0.000000 
0.278030 0.028055 0.000000 
0.296791 -0.031888 0.000000 
0.344206 -0.031895 0.000000 
VECTORS X_EC float 
0.338794 0.419553 0.000000 
-0.609100 -0.499195 0.000000 
0.713312 -0.388054 0.000000 
0.374519 0.992516 0.000000 
0.423588 0.635786 0.000000 
-0.218274 0.669889 0.000000 
-0.513962 -0.054350 0.000000 
0.756418 0.157136 0.000000 
0.381900 -0.385256 0.000000 
-0.550868 -0.216817 0.000000 
0.823577 -0.206022 0.000000 
0.556234 -0.979526 0.000000 
-0.139443 -0.861957 0.000000 
-0.484677 0.499918 0.000000 
0.766286 0.765133 0.000000 
0.384386 0.250513 0.000000 
0.474677 0.930579 0.000000 
-0.141715 0.930483 0.000000 
-0.385608 0.121255 0.000000 
0.937896 0.200450 0.000000 
0.621631 -0.503130 0.000000 
-0.105264 -0.321231 0.000000 
-0.467428 -0.919857 0.000000 
0.771260 -0.613328 0.000000 
0.386873 0.886282 0.000000 
0.761262 0.969688 0.000000 
0.108942 -0.748936 0.000000 
-0.397202 0.770225 0.000000 
-0.142083 0.108950 0.000000 
-0.595936 -0.449825 0.000000 
0.978194 -0.949691 0.000000 
-0.660903 0.358684 0.000000 
0.724964 -0.101836 0.000000 
0.899809 -0.744084 0.000000 
0.685384 -0.148773 0.000000 
0.287229 -0.649931 0.000000 
0.702895 0.650740 0.000000 
0.180633 0.159222 0.000000 
0.445811 -0.518938 0.000000 
-0.220880 -0.961724 0.000000 
-0.071546 0.407351 0.000000 
-0.033296 0.152279 0.000000 
-0.417537 -0.348230 0.000000 
0.039645 0.949207 0.000000 
-0.441768 0.449336 0.000000 
-0.109248 -0.246114 0.000000 
-0.699407 -0.722870 0.000000 
-0.474522 0.609851 0.000000 
0.820030 0.182857 0.000000 
0.957100 -0.441214 0.000000 
0.610485 -0.344306 0.000000 
-0.761092 0.925314 0.000000 
-0.714655 0.214576 0.000000 
-0.057734 0.009409 0.000000 
-0.178789 0.163318 0.000000 
-0.067979 -0.494108 0.000000 
0.677748 -0.632312 0.000000 
0.641556 0.581943 0.000000 
-0.765897 0.323464 0.000000 
0.393446 -0.608673 0.000000 
0.522510 0.755597 0.000000 
-0.691820 0.657053 0.000000 
-0.647393 -0.073430 0.000000 
0.028512 -0.280957 0.000000 
-0.053800 0.901683 0.000000 
0.514316 0.629552 0.000000 
0.965681 0.619336 0.000000 
-0.897068 -0.004693 0.000000 
-0.083078 -0.071546 0.000000 
-0.006893 -0.774070 0.000000 
0.724017 -0.937703 0.000000 
0.714996 0.285893 0.000000 
-0.642413 0.052436 0.000000 
-0.760780 -0.786545 0.000000 
-0.205471 0.935640 0.000000 
0.000000 -0.039004 0.000000 
-0.564049 -0.737191 0.000000 
0.000000 0.857373 0.000000 
0.564049 -0.737191 0.000000 
0.866949 0.507464 0.000000 
-0.569003 0.187533 0.000000 
0.000000 0.706821 0.000000 
0.569003 0.187533 0.000000 
-0.866949 0.507464 0.000000 
0.299194 -0.262286 0.000000 
0.858290 -0.553870 0.000000 
-0.577662 0.022576 0.000000 
0.000000 -0.396802 0.000000 
0.577662 0.022576 0.000000 
-0.858290 -0.553870 0.000000 
-0.299194 -0.262286 0.000000 
-0.268560 0.967964 0.000000 
0.286830 0.690323 0.000000 
0.844677 -0.690479 0.000000 
-0.578910 0.933358 0.000000 
0.000000 -0.575238 0.000000 
0.578910 0.933358 0.000000 
-0.844677 -0.690479 0.000000 
-0.286830 0.690323 0.000000 
0.268560 0.967964 0.000000 
-0.610485 -0.344306 0.000000 
0.057734 0.009409 0.000000 
0.714655 0.214576 0.000000 
0.761092 0.925314 0.000000 
0.765897 0.323464 0.000000 
-0.641556 0.581943 0.000000 
-0.677748 -0.632312 0.000000 
0.067979 -0.494108 0.000000 
0.178789 0.163318 0.000000 
-0.514316 0.629552 0.000000 
0.053800 0.901683 0.000000 
-0.028512 -0.280957 0.000000 
0.647393 -0.073430 0.000000 
0.691820 0.657053 0.000000 
-0.522510 0.755597 0.000000 
-0.393446 -0.608673 0.000000 
0.205471 0.935640 0.000000 
0.760780 -0.786545 0.000000 
0.642413 0.052436 0.000000 
-0.714996 0.285893 0.000000 
-0.724017 -0.937703 0.000000 
0.006894 -0.774070 0.000000 
0.083078 -0.071546 0.000000 
0.897068 -0.004693 0.000000 
-0.965681 0.619336 0.000000 
-0.761262 0.969688 0.000000 
0.142083 0.108950 0.000000 
0.397202 0.770225 0.000000 
-0.108942 -0.748936 0.000000 
-0.899809 -0.744084 0.000000 
-0.724964 -0.101836 0.000000 
0.660903 0.358684 0.000000 
-0.978194 -0.949691 0.000000 
0.595936 -0.449825 0.000000 
0.071546 0.407351 0.000000 
0.220880 -0.961724 0.000000 
-0.445811 -0.518938 0.000000 
-0.180633 0.159222 0.000000 
-0.702895 0.650740 0.000000 
-0.287229 -0.649931 0.000000 
-0.685384 -0.148773 0.000000 
-0.957100 -0.441214 0.000000 
-0.820030 0.182857 0.000000 
0.474522 0.609851 0.000000 
0.699407 -0.722870 0.000000 
0.109248 -0.246114 0.000000 
0.441768 0.449336 0.000000 
-0.039645 0.949207 0.000000 
0.417537 -0.348230 0.000000 
0.033296 0.152279 0.000000 
-0.338794 0.419553 0.000000 
-0.374519 0.992516 0.000000 
-0.713312 -0.388054 0.000000 
0.609100 -0.499195 0.000000 
-0.381900 -0.385256 0.000000 
-0.756418 0.157136 0.000000 
0.513962 -0.054350 0.000000 
0.218274 0.669889 0.000000 
-0.423588 0.635786 0.000000 
-0.384386 0.250513 0.000000 
-0.766286 0.765133 0.000000 
0.484677 0.499918 0.000000 
0.139443 -0.861957 0.000000 
-0.556234 -0.979526 0.000000 
-0.823577 -0.206022 0.000000 
0.550868 -0.216817 0.000000 
-0.386873 0.886282 0.000000 
-0.771260 -0.613328 0.000000 
0.467428 -0.919857 0.000000 
0.105264 -0.321231 0.000000 
-0.621631 -0.503130 0.000000 
-0.937896 0.200450 0.000000 
0.385608 0.121255 0.000000 
0.141715 0.930483 0.000000 
-0.474677 0.930579 0.000000 
CELL_DATA 175 
SCALARS MASS float 
LOOKUP_TABLE default 
0.078183 
0.086427 
0.094672 
0.086427 
0.088131 
0.092111 
0.085854 
0.092111 
0.088131 
0.088705 
0.091000 
0.086983 
0.091556 
0.086983 
0.091000 
0.088705 
0.089278 
0.091574 
0.089278 
0.092722 
0.089278 
0.092722 
0.089278 
0.091574 
0.089278 
0.078183 
0.086427 
0.094672 
0.086427 
0.088131 
0.092111 
0.085854 
0.092111 
0.088131 
0.088705 
0.091000 
0.086983 
0.091556 
0.086983 
0.091000 
0.088705 
0.089278 
0.091574 
0.089278 
0.092722 
0.089278 
0.092722 
0.089278 
0.091574 
0.089278 
0.078183 
0.086427 
0.094672 
0.086427 
0.088131 
0.092111 
0.085854 
0.092111 
0.088131 
0.088705 
0.091000 
0.086983 
0.091556 
0.086983 
0.091000 
0.088705 
0.089278 
0.091574 
0.089278 
0.092722 
0.089278 
0.092722 
0.089278 
0.091574 
0.089278 
0.078183 
0.086427 
0.094672 
0.086427 
0.088131 
0.092111 
0.085854 
0.092111 
0.088131 
0.088705 
0.091000 
0.086983 
0.091556 
0.086983 
0.091000 
0.088705 
0.089278 
0.091574 
0.089278 
0.092722 
0.089278 
0.092722 
0.089278 
0.091574 
0.089278 
0.078183 
0.086427 
0.094672 
0.086427 
0.088131 
0.092111 
0.085854 
0.092111 
0.088131 
0.088705 
0.091000 
0.086983 
0.091556 
0.086983 
0.091000 
0.088705 
0.089278 
0.091574 
0.089278 
0.092722 
0.089278 
0.092722 
0.089278 
0.091574 
0.089278 
0.078183 
0.086427 
0.094672 
0.086427 
0.088131 
0.092111 
0.085854 
0.092111 
0.088131 
0.088705 
0.091000 
0.086983 
0.091556 
0.086983 
0.091000 
0.088705 
0.089278 
0.091574 
0.089278 
0.092722 
0.089278 
0.092722 
0.089278 
0.091574 
0.089278 
0.078183 
0.086427 
0.094672 
0.086427 
0.088131 
0.092111 
0.085854 
0.092111 
0.088131 
0.088705 
0.091000 
0.086983 
0.091556 
0.086983 
0.091000 
0.088705 
0.089278 
0.091574 
0.089278 
0.092722 
0.089278 
0.092722 
0.089278 
0.091574 
0.089278 
SCALARS MASS float 
LOOKUP_TABLE default 
0.078183 
0.086427 
0.094672 
0.086427 
0.088131 
0.092111 
0.085854 
0.092111 
0.088131 
0.088705 
0.091000 
0.086983 
0.091556 
0.086983 
0.091000 
0.088705 
0.089278 
0.091574 
0.089278 
0.092722 
0.089278 
0.092722 
0.089278 
0.091574 
0.089278 
0.078183 
0.086427 
0.094672 
0.086427 
0.088131 
0.092111 
0.085854 
0.092111 
0.088131 
0.088705 
0.091000 
0.086983 
0.091556 
0.086983 
0.091000 
0.088705 
0.089278 
0.091574 
0.089278 
0.092722 
0.089278 
0.092722 
0.089278 
0.091574 
0.089278 
0.078183 
0.086427 
0.094672 
0.086427 
0.088131 
0.092111 
0.085854 
0.092111 
0.088131 
0.088705 
0.091000 
0.086983 
0.091556 
0.086983 
0.091000 
0.088705 
0.089278 
0.091574 
0.089278 
0.092722 
0.089278 
0.092722 
0.089278 
0.091574 
0.089278 
0.078183 
0.086427 
0.094672 
0.086427 
0.088131 
0.092111 
0.085854 
0.092111 
0.088131 
0.088705 
0.091000 
0.086983 
0.091556 
0.086983 
0.091000 
0.088705 
0.089278 
0.091574 
0.089278 
0.092722 
0.089278 
0.092722 
0.089278 
0.091574 
0.089278 
0.078183 
0.086427 
0.094672 
0.086427 
0.088131 
0.092111 
0.085854 
0.092111 
0.088131 
0.088705 
0.091000 
0.086983 
0.091556 
0.086983 
0.091000 
0.088705 
0.089278 
0.091574 
0.089278 
0.092722 
0.089278 
0.092722 
0.089278 
0.091574 
0.089278 
0.078183 
0.086427 
0.094672 
0.086427 
0.088131 
0.092111 
0.085854 
0.092111 
0.088131 
0.088705 
0.091000 
0.086983 
0.091556 
0.086983 
0.091000 
0.088705 
0.089278 
0.091574 
0.089278 
0.092722 
0.089278 
0.092722 
0.089278 
0.091574 
0.089278 
0.078183 
0.086427 
0.094672 
0.086427 
0.088131 
0.092111 
0.085854 
0.092111 
0.088131 
0.088705 
0.091000 
0.086983 
0.091556 
0.086983 
0.091000 
0.088705 
0.089278 
0.091574 
0.089278 
0.092722 
0.089278 
0.092722 
0.089278 
0.091574 
0.089278 
SCALARS DENSITY float 
LOOKUP_TABLE default 
20.000000 
20.000000 
20.000000 
20.000000 
20.000000 
20.000000 
20.000000 
20.000000 
20.000000 
20.000000 
20.000000 
20.000000 
20.000000 
20.000000 
20.000000 
20.000000 
20.000000 
20.000000 
20.000000 
20.000000 
20.000000 
20.000000 
20.000000 
20.000000 
20.000000 
20.000000 
20.000000 
20.000000 
20.000000 
20.000000 
20.000000 
20.000000 
20.000000 
20.000000 
20.000000 
20.000000 
20.000000 
20.000000 
20.000000 
20.000000 
20.000000 
20.000000 
20.000000 
20.000000 
20.000000 
20.000000 
20.000000 
20.000000 
20.000000 
20.000000 
20.000000 
20.000000 
20.000000 
20.000000 
20.000000 
20.000000 
20.000000 
20.000000 
20.000000 
20.000000 
20.000000 
20.000000 
20.000000 
20.000000 
20.000000 
20.000000 
20.000000 
20.000000 
20.000000 
20.000000 
20.000000 
20.000000 
20.000000 
20.000000 
20.000000 
20.000000 
20.000000 
20.000000 
20.000000 
20.000000 
20.000000 
20.000000 
20.000000 
20.000000 
20.000000 
20.000000 
20.000000 
20.000000 
20.000000 
20.000000 
20.000000 
20.000000 
20.000000 
20.000000 
20.000000 
20.000000 
20.000000 
20.000000 
20.000000 
20.000000 
20.000000 
20.000000 
20.000000 
20.000000 
20.000000 
20.000000 
20.000000 
20.000000 
20.000000 
20.000000 
20.000000 
20.000000 
20.000000 
20.000000 
20.000000 
20.000000 
20.000000 
20.000000 
20.000000 
20.000000 
20.000000 
20.000000 
20.000000 
20.000000 
20.000000 
20.000000 
20.000000 
20.000000 
20.000000 
20.000000 
20.000000 
20.000000 
20.000000 
20.000000 
20.000000 
20.000000 
20.000000 
20.000000 
20.000000 
20.000000 
20.000000 
20.000000 
20.000000 
20.000000 
20.000000 
20.000000 
20.000000 
20.000000 
20.000000 
20.000000 
20.000000 
20.000000 
20.000000 
20.000000 
20.000000 
20.000000 
20.000000 
20.000000 
20.000000 
20.000000 
20.000000 
20.000000 
20.000000 
20.000000 
20.000000 
20.000000 
20.000000 
20.000000 
20.000000 
20.000000 
20.000000 
20.000000 
20.000000 
20.000000 
20.000000 
SCALARS ELEM_i float 
LOOKUP_TABLE default 
180 
207 
180 
181 
208 
208 
208 
181 
181 
235 
208 
208 
208 
209 
182 
182 
236 
236 
236 
209 
209 
209 
209 
182 
183 
180 
206 
207 
207 
233 
206 
234 
207 
207 
233 
233 
234 
234 
234 
234 
235 
260 
260 
261 
261 
261 
261 
262 
235 
235 
179 
206 
206 
206 
205 
205 
205 
206 
233 
204 
205 
232 
232 
232 
233 
233 
204 
231 
231 
231 
231 
232 
259 
259 
260 
179 
178 
179 
178 
151 
178 
178 
178 
205 
150 
150 
177 
177 
177 
204 
204 
150 
150 
149 
177 
176 
177 
203 
204 
204 
179 
152 
152 
152 
125 
152 
151 
151 
151 
125 
125 
124 
124 
124 
151 
150 
98 
97 
97 
124 
123 
123 
123 
123 
150 
180 
153 
153 
152 
153 
153 
126 
152 
125 
127 
126 
126 
126 
126 
125 
125 
127 
127 
100 
99 
99 
99 
99 
98 
98 
180 
181 
180 
153 
181 
181 
154 
154 
154 
182 
182 
155 
154 
154 
154 
127 
183 
182 
155 
155 
155 
155 
128 
128 
128 
VECTORS VELOCITY float 
0.000000 -2.599258 0.000000 
0.000000 -2.599258 0.000000 
0.000000 -2.599258 0.000000 
0.000000 -2.599258 0.000000 
0.000000 -2.599258 0.000000 
0.000000 -2.599258 0.000000 
0.000000 -2.599258 0.000000 
-0.000000 -2.599258 0.000000 
0.000000 -2.599258 0.000000 
0.000000 -2.599258 0.000000 
0.000000 -2.599258 0.000000 
0.000000 -2.599258 0.000000 
0.000000 -2.599258 0.000000 
0.000000 -2.599258 0.000000 
0.000000 -2.599258 0.000000 
0.000000 -2.599258 0.000000 
0.000000 -2.599258 0.000000 
0.000000 -2.599258 0.000000 
-0.000000 -2.599258 0.000000 
0.000000 -2.599258 0.000000 
-0.000000 -2.599258 0.000000 
-0.000000 -2.599258 0.000000 
-0.000000 -2.599258 0.000000 
0.000000 -2.599258 0.000000 
0.000000 -2.599258 0.000000 
0.000000 -2.599258 0.000000 
0.000000 -2.599258 0.000000 
0.000000 -2.599258 0.000000 
0.000000 -2.599258 0.000000 
-0.000000 -2.599258 0.000000 
-0.000000 -2.599258 0.000000 
-0.000000 -2.599258 0.000000 
0.000000 -2.599258 0.000000 
0.000000 -2.599258 0.000000 
-0.000000 -2.599258 0.000000 
-0.000000 -2.599258 0.000000 
-0.000000 -2.599258 0.000000 
-0.000000 -2.599258 0.000000 
-0.000000 -2.599258 0.000000 
0.000000 -2.599258 0.000000 
0.000000 -2.599258 0.000000 
0.000000 -2.599258 0.000000 
-0.000000 -2.599258 0.000000 
-0.000000 -2.599258 0.000000 
-0.000000 -2.599258 0.000000 
-0.000000 -2.599258 0.000000 
-0.000000 -2.599258 0.000000 
-0.000000 -2.599258 0.000000 
0.000000 -2.599258 0.000000 
0.000000 -2.599258 0.000000 
0.000000 -2.599258 0.000000 
-0.000000 -2.599258 0.000000 
0.000000 -2.599258 0.000000 
0.000000 -2.599258 0.000000 
-0.000000 -2.599258 0.000000 
-0.000000 -2.599258 0.000000 
-0.000000 -2.599258 0.000000 
-0.000000 -2.599258 0.000000 
-0.000000 -2.599258 0.000000 
0.000000 -2.599258 0.000000 
0.000000 -2.599258 0.000000 
0.000000 -2.599258 0.000000 
-0.000000 -2.599258 0.000000 
-0.000000 -2.599258 0.000000 
-0.000000 -2.599258 0.000000 
-0.000000 -2.599258 0.000000 
-0.000000 -2.599258 0.000000 
0.000000 -2.599258 0.000000 
-0.000000 -2.599258 0.000000 
-0.000000 -2.599258 0.000000 
-0.000000 -2.599258 0.000000 
-0.000000 -2.599258 0.000000 
-0.000000 -2.599258 0.000000 
-0.000000 -2.599258 0.000000 
0.000000 -2.599258 0.000000 
-0.000000 -2.599258 0.000000 
-0.000000 -2.599258 0.000000 
-0.000000 -2.599258 0.000000 
-0.000000 -2.599258 0.000000 
0.000000 -2.599258 0.000000 
0.000000 -2.599258 0.000000 
0.000000 -2.599258 0.000000 
-0.000000 -2.599258 0.000000 
-0.000000 -2.599258 0.000000 
0.000000 -2.599258 0.000000 
0.000000 -2.599258 0.000000 
-0.000000 -2.599258 0.000000 
-0.000000 -2.599258 0.000000 
0.000000 -2.599258 0.000000 
-0.000000 -2.599258 0.000000 
0.000000 -2.599258 0.000000 
-0.000000 -2.599258 0.000000 
-0.000000 -2.599258 0.000000 
-0.000000 -2.599258 0.000000 
-0.000000 -2.599258 0.000000 
-0.000000 -2.599258 0.000000 
0.000000 -2.599258 0.000000 
-0.000000 -2.599258 0.000000 
0.000000 -2.599258 0.000000 
0.000000 -2.599258 0.000000 
-0.000000 -2.599258 0.000000 
-0.000000 -2.599258 0.000000 
-0.000000 -2.599258 0.000000 
-0.000000 -2.599258 0.000000 
-0.000000 -2.599258 0.000000 
-0.000000 -2.599258 0.000000 
-0.000000 -2.599258 0.000000 
-0.000000 -2.599258 0.000000 
-0.000000 -2.599258 0.000000 
-0.000000 -2.599258 0.000000 
-0.000000 -2.599258 0.000000 
0.000000 -2.599258 0.000000 
-0.000000 -2.599258 0.000000 
0.000000 -2.599258 0.000000 
0.000000 -2.599258 0.000000 
0.000000 -2.599258 0.000000 
0.000000 -2.599258 0.000000 
0.000000 -2.599258 0.000000 
-0.000000 -2.599258 0.000000 
0.000000 -2.599258 0.000000 
0.000000 -2.599258 0.000000 
0.000000 -2.599258 0.000000 
-0.000000 -2.599258 0.000000 
0.000000 -2.599258 0.000000 
-0.000000 -2.599258 0.000000 
-0.000000 -2.599258 0.000000 
0.000000 -2.599258 0.000000 
-0.000000 -2.599258 0.000000 
-0.000000 -2.599258 0.000000 
0.000000 -2.599258 0.000000 
0.000000 -2.599258 0.000000 
-0.000000 -2.599258 0.000000 
-0.000000 -2.599258 0.000000 
-0.000000 -2.599258 0.000000 
0.000000 -2.599258 0.000000 
0.000000 -2.599258 0.000000 
-0.000000 -2.599258 0.000000 
-0.000000 -2.599258 0.000000 
-0.000000 -2.599258 0.000000 
-0.000000 -2.599258 0.000000 
-0.000000 -2.599258 0.000000 
0.000000 -2.599258 0.000000 
0.000000 -2.599258 0.000000 
0.000000 -2.599258 0.000000 
-0.000000 -2.599258 0.000000 
0.000000 -2.599258 0.000000 
0.000000 -2.599258 0.000000 
0.000000 -2.599258 0.000000 
0.000000 -2.599258 0.000000 
0.000000 -2.599258 0.000000 
0.000000 -2.599258 0.000000 
0.000000 -2.599258 0.000000 
0.000000 -2.599258 0.000000 
0.000000 -2.599258 0.000000 
-0.000000 -2.599258 0.000000 
0.000000 -2.599258 0.000000 
0.000000 -2.599258 0.000000 
0.000000 -2.599258 0.000000 
0.000000 -2.599258 0.000000 
0.000000 -2.599258 0.000000 
-0.000000 -2.599258 0.000000 
-0.000000 -2.599258 0.000000 
-0.000000 -2.599258 0.000000 
-0.000000 -2.599258 0.000000 
0.000000 -2.599258 0.000000 
0.000000 -2.599258 0.000000 
-0.000000 -2.599258 0.000000 
0.000000 -2.599258 0.000000 
-0.000000 -2.599258 0.000000 
0.000000 -2.599258 0.000000 
0.000000 -2.599258 0.000000 
0.000000 -2.599258 0.000000 
0.000000 -2.599258 0.000000 
-0.000000 -2.599258 0.000000 
-0.000000 -2.599258 0.000000 
TENSORS STRESS float 
-0.000000 -0.000000 0.000000 
0.000000 -0.000000 0.000000 
0.000000 0.000000 0.000000 

0.000000 -0.000000 0.000000 
0.000000 0.000000 0.000000 
0.000000 0.000000 0.000000 

0.000000 -0.000000 0.000000 
0.000000 0.000000 0.000000 
0.000000 0.000000 0.000000 

-0.000000 0.000000 0.000000 
0.000000 -0.000000 0.000000 
0.000000 0.000000 0.000000 

-0.000000 0.000000 0.000000 
0.000000 -0.000000 0.000000 
0.000000 0.000000 0.000000 

-0.000000 0.000000 0.000000 
0.000000 -0.000000 0.000000 
0.000000 0.000000 0.000000 

-0.000000 0.000000 0.000000 
0.000000 -0.000000 0.000000 
0.000000 0.000000 0.000000 

-0.000000 0.000000 0.000000 
0.000000 -0.000000 0.000000 
0.000000 0.000000 0.000000 

-0.000000 -0.000000 0.000000 
0.000000 -0.000000 0.000000 
0.000000 0.000000 0.000000 

-0.000000 0.000000 0.000000 
0.000000 -0.000000 0.000000 
0.000000 0.000000 0.000000 

-0.000000 -0.000000 0.000000 
0.000000 -0.000000 0.000000 
0.000000 0.000000 0.000000 

0.000000 0.000000 0.000000 
0.000000 -0.000000 0.000000 
0.000000 0.000000 0.000000 

0.000000 0.000000 0.000000 
0.000000 -0.000000 0.000000 
0.000000 0.000000 0.000000 

0.000000 0.000000 0.000000 
0.000000 0.000000 0.000000 
0.000000 0.000000 0.000000 

0.000000 0.000000 0.000000 
0.000000 0.000000 0.000000 
0.000000 0.000000 0.000000 

0.000000 -0.000000 0.000000 
0.000000 -0.000000 0.000000 
0.000000 0.000000 0.000000 

-0.000000 0.000000 0.000000 
0.000000 0.000000 0.000000 
0.000000 0.000000 0.000000 

-0.000000 0.000000 0.000000 
0.000000 -0.000000 0.000000 
0.000000 0.000000 0.000000 

-0.000000 0.000000 0.000000 
0.000000 -0.000000 0.000000 
0.000000 0.000000 0.000000 

0.000000 0.000000 0.000000 
0.000000 0.000000 0.000000 
0.000000 0.000000 0.000000 

-0.000000 0.000000 0.000000 
0.000000 -0.000000 0.000000 
0.000000 0.000000 0.000000 

0.000000 -0.000000 0.000000 
0.000000 -0.000000 0.000000 
0.000000 0.000000 0.000000 

-0.000000 0.000000 0.000000 
0.000000 0.000000 0.000000 
0.000000 0.000000 0.000000 

-0.000000 0.000000 0.000000 
0.000000 -0.000000 0.000000 
0.000000 0.000000 0.000000 

0.000000 -0.000000 0.000000 
0.000000 0.000000 0.000000 
0.000000 0.000000 0.000000 

0.000000 0.000000 0.000000 
0.000000 0.000000 0.000000 
0.000000 0.000000 0.000000 

-0.000000 0.000000 0.000000 
0.000000 0.000000 0.000000 
0.000000 0.000000 0.000000 

0.000000 -0.000000 0.000000 
0.000000 0.000000 0.000000 
0.000000 0.000000 0.000000 

0.000000 -0.000000 0.000000 
0.000000 0.000000 0.000000 
0.000000 0.000000 0.000000 

0.000000 0.000000 0.000000 
0.000000 -0.000000 0.000000 
0.000000 0.000000 0.000000 

-0.000000 -0.000000 0.000000 
0.000000 -0.000000 0.000000 
0.000000 0.000000 0.000000 

0.000000 -0.000000 0.000000 
0.000000 -0.000000 0.000000 
0.000000 0.000000 0.000000 

-0.000000 -0.000000 0.000000 
0.000000 -0.000000 0.000000 
0.000000 0.000000 0.000000 

0.000000 0.000000 0.000000 
0.000000 0.000000 0.000000 
0.000000 0.000000 0.000000 

0.000000 -0.000000 0.000000 
0.000000 0.000000 0.000000 
0.000000 0.000000 0.000000 

0.000000 0.000000 0.000000 
0.000000 0.000000 0.000000 
0.000000 0.000000 0.000000 

0.000000 0.000000 0.000000 
0.000000 -0.000000 0.000000 
0.000000 0.000000 0.000000 

-0.000000 0.000000 0.000000 
0.000000 -0.000000 0.000000 
0.000000 0.000000 0.000000 

-0.000000 -0.000000 0.000000 
0.000000 -0.000000 0.000000 
0.000000 0.000000 0.000000 

-0.000000 0.000000 0.000000 
0.000000 -0.000000 0.000000 
0.000000 0.000000 0.000000 

-0.000000 0.000000 0.000000 
0.000000 -0.000000 0.000000 
0.000000 0.000000 0.000000 

0.000000 -0.000000 0.000000 
0.000000 -0.000000 0.000000 
0.000000 0.000000 0.000000 

0.000000 -0.000000 0.000000 
0.000000 0.000000 0.000000 
0.000000 0.000000 0.000000 

-0.000000 -0.000000 0.000000 
0.000000 -0.000000 0.000000 
0.000000 0.000000 0.000000 

0.000000 0.000000 0.000000 
0.000000 0.000000 0.000000 
0.000000 0.000000 0.000000 

-0.000000 0.000000 0.000000 
0.000000 -0.000000 0.000000 
0.000000 0.000000 0.000000 

0.000000 0.000000 0.000000 
0.000000 0.000000 0.000000 
0.000000 0.000000 0.000000 

0.000000 0.000000 0.000000 
0.000000 0.000000 0.000000 
0.000000 0.000000 0.000000 

-0.000000 0.000000 0.000000 
0.000000 -0.000000 0.000000 
0.000000 0.000000 0.000000 

-0.000000 0.000000 0.000000 
0.000000 -0.000000 0.000000 
0.000000 0.000000 0.000000 

0.000000 0.000000 0.000000 
0.000000 0.000000 0.000000 
0.000000 0.000000 0.000000 

-0.000000 0.000000 0.000000 
0.000000 -0.000000 0.000000 
0.000000 0.000000 0.000000 

-0.000000 0.000000 0.000000 
0.000000 -0.000000 0.000000 
0.000000 0.000000 0.000000 

-0.000000 0.000000 0.000000 
0.000000 -0.000000 0.000000 
0.000000 0.000000 0.000000 

-0.000000 0.000000 0.000000 
0.000000 -0.000000 0.000000 
0.000000 0.000000 0.000000 

-0.000000 0.000000 0.000000 
0.000000 -0.000000 0.000000 
0.000000 0.000000 0.000000 

0.000000 0.000000 0.000000 
0.000000 0.000000 0.000000 
0.000000 0.000000 0.000000 

-0.000000 0.000000 0.000000 
0.000000 0.000000 0.000000 
0.000000 0.000000 0.000000 

0.000000 0.000000 0.000000 
0.000000 0.000000 0.000000 
0.000000 0.000000 0.000000 

0.000000 0.000000 0.000000 
0.000000 0.000000 0.000000 
0.000000 0.000000 0.000000 

0.000000 -0.000000 0.000000 
0.000000 0.000000 0.000000 
0.000000 0.000000 0.000000 

0.000000 0.000000 0.000000 
0.000000 0.000000 0.000000 
0.000000 0.000000 0.000000 

0.000000 0.000000 0.000000 
0.000000 0.000000 0.000000 
0.000000 0.000000 0.000000 

0.000000 0.000000 0.000000 
0.000000 0.000000 0.000000 
0.000000 0.000000 0.000000 

0.000000 -0.000000 0.000000 
0.000000 0.000000 0.000000 
0.000000 0.000000 0.000000 

0.000000 -0.000000 0.000000 
0.000000 0.000000 0.000000 
0.000000 0.000000 0.000000 

0.000000 0.000000 0.000000 
0.000000 0.000000 0.000000 
0.000000 0.000000 0.000000 

0.000000 0.000000 0.000000 
0.000000 -0.000000 0.000000 
0.000000 0.000000 0.000000 

0.000000 0.000000 0.000000 
0.000000 0.000000 0.000000 
0.000000 0.000000 0.000000 

0.000000 -0.000000 0.000000 
0.000000 -0.000000 0.000000 
0.000000 0.000000 0.000000 

0.000000 0.000000 0.000000 
0.000000 -0.000000 0.000000 
0.000000 0.000000 0.000000 

0.000000 0.000000 0.000000 
0.000000 0.000000 0.000000 
0.000000 0.000000 0.000000 

-0.000000 -0.000000 0.000000 
0.000000 0.000000 0.000000 
0.000000 0.000000 0.000000 

-0.000000 0.000000 0.000000 
0.000000 -0.000000 0.000000 
0.000000 0.000000 0.000000 

0.000000 -0.000000 0.000000 
0.000000 0.000000 0.000000 
0.000000 0.000000 0.000000 

-0.000000 0.000000 0.000000 
0.000000 -0.000000 0.000000 
0.000000 0.000000 0.000000 

0.000000 0.000000 0.000000 
0.000000 0.000000 0.000000 
0.000000 0.000000 0.000000 

0.000000 0.000000 0.000000 
0.000000 0.000000 0.000000 
0.000000 0.000000 0.000000 

0.000000 -0.000000 0.000000 
0.000000 0.000000 0.000000 
0.000000 0.000000 0.000000 

-0.000000 -0.000000 0.000000 
0.000000 -0.000000 0.000000 
0.000000 0.000000 0.000000 

0.000000 0.000000 0.000000 
0.000000 0.000000 0.000000 
0.000000 0.000000 0.000000 

-0.000000 0.000000 0.000000 
0.000000 -0.000000 0.000000 
0.000000 0.000000 0.000000 

-0.000000 0.000000 0.000000 
0.000000 -0.000000 0.000000 
0.000000 0.000000 0.000000 

0.000000 0.000000 0.000000 
0.000000 0.000000 0.000000 
0.000000 0.000000 0.000000 

0.000000 0.000000 0.000000 
0.000000 0.000000 0.000000 
0.000000 0.000000 0.000000 

0.000000 -0.000000 0.000000 
0.000000 0.000000 0.000000 
0.000000 0.000000 0.000000 

-0.000000 -0.000000 0.000000 
0.000000 0.000000 0.000000 
0.000000 0.000000 0.000000 

-0.000000 -0.000000 0.000000 
0.000000 -0.000000 0.000000 
0.000000 0.000000 0.000000 

-0.000000 -0.000000 0.000000 
0.000000 0.000000 0.000000 
0.000000 0.000000 0.000000 

0.000000 0.000000 0.000000 
0.000000 0.000000 0.000000 
0.000000 0.000000 0.000000 

-0.000000 0.000000 0.000000 
0.000000 -0.000000 0.000000 
0.000000 0.000000 0.000000 

-0.000000 0.000000 0.000000 
0.000000 -0.000000 0.000000 
0.000000 0.000000 0.000000 

-0.000000 0.000000 0.000000 
0.000000 -0.000000 0.000000 
0.000000 0.000000 0.000000 

0.000000 0.000000 0.000000 
0.000000 0.000000 0.000000 
0.000000 0.000000 0.000000 

-0.000000 -0.000000 0.000000 
0.000000 -0.000000 0.000000 
0.000000 0.000000 0.000000 

-0.000000 -0.000000 0.000000 
0.000000 -0.000000 0.000000 
0.000000 0.000000 0.000000 

-0.000000 -0.000000 0.000000 
0.000000 0.000000 0.000000 
0.000000 0.000000 0.000000 

0.000000 -0.000000 0.000000 
0.000000 -0.000000 0.000000 
0.000000 0.000000 0.000000 

0.000000 -0.000000 0.000000 
0.000000 0.000000 0.000000 
0.000000 0.000000 0.000000 

0.000000 0.000000 0.000000 
0.000000 -0.000000 0.000000 
0.000000 0.000000 0.000000 

-0.000000 0.000000 0.000000 
0.000000 -0.000000 0.000000 
0.000000 0.000000 0.000000 

-0.000000 -0.000000 0.000000 
0.000000 -0.000000 0.000000 
0.000000 0.000000 0.000000 

-0.000000 -0.000000 0.000000 
0.000000 -0.000000 0.000000 
0.000000 0.000000 0.000000 

0.000000 0.000000 0.000000 
0.000000 0.000000 0.000000 
0.000000 0.000000 0.000000 

-0.000000 -0.000000 0.000000 
0.000000 -0.000000 0.000000 
0.000000 0.000000 0.000000 

0.000000 -0.000000 0.000000 
0.000000 -0.000000 0.000000 
0.000000 0.000000 0.000000 

0.000000 0.000000 0.000000 
0.000000 0.000000 0.000000 
0.000000 0.000000 0.000000 

0.000000 -0.000000 0.000000 
0.000000 0.000000 0.000000 
0.000000 0.000000 0.000000 

0.000000 -0.000000 0.000000 
0.000000 0.000000 0.000000 
0.000000 0.000000 0.000000 

-0.000000 -0.000000 0.000000 
0.000000 -0.000000 0.000000 
0.000000 0.000000 0.000000 

-0.000000 -0.000000 0.000000 
0.000000 0.000000 0.000000 
0.000000 0.000000 0.000000 

0.000000 0.000000 0.000000 
0.000000 0.000000 0.000000 
0.000000 0.000000 0.000000 

0.000000 0.000000 0.000000 
0.000000 0.000000 0.000000 
0.000000 0.000000 0.000000 

-0.000000 0.000000 0.000000 
0.000000 -0.000000 0.000000 
0.000000 0.000000 0.000000 

0.000000 0.000000 0.000000 
0.000000 0.000000 0.000000 
0.000000 0.000000 0.000000 

0.000000 -0.000000 0.000000 
0.000000 -0.000000 0.000000 
0.000000 0.000000 0.000000 

0.000000 -0.000000 0.000000 
0.000000 0.000000 0.000000 
0.000000 0.000000 0.000000 

-0.000000 0.000000 0.000000 
0.000000 0.000000 0.000000 
0.000000 0.000000 0.000000 

0.000000 0.000000 0.000000 
0.000000 -0.000000 0.000000 
0.000000 0.000000 0.000000 

-0.000000 0.000000 0.000000 
0.000000 -0.000000 0.000000 
0.000000 0.000000 0.000000 

0.000000 0.000000 0.000000 
0.000000 0.000000 0.000000 
0.000000 0.000000 0.000000 

0.000000 -0.000000 0.000000 
0.000000 0.000000 0.000000 
0.000000 0.000000 0.000000 

0.000000 -0.000000 0.000000 
0.000000 0.000000 0.000000 
0.000000 0.000000 0.000000 

0.000000 -0.000000 0.000000 
0.000000 -0.000000 0.000000 
0.000000 0.000000 0.000000 

-0.000000 0.000000 0.000000 
0.000000 0.000000 0.000000 
0.000000 0.000000 0.000000 

-0.000000 -0.000000 0.000000 
0.000000 -0.000000 0.000000 
0.000000 0.000000 0.000000 

-0.000000 0.000000 0.000000 
0.000000 -0.000000 0.000000 
0.000000 0.000000 0.000000 

-0.000000 -0.000000 0.000000 
0.000000 -0.000000 0.000000 
0.000000 0.000000 0.000000 

-0.000000 -0.000000 0.000000 
0.000000 0.000000 0.000000 
0.000000 0.000000 0.000000 

0.000000 0.000000 0.000000 
0.000000 -0.000000 0.000000 
0.000000 0.000000 0.000000 

0.000000 0.000000 0.000000 
0.000000 0.000000 0.000000 
0.000000 0.000000 0.000000 

0.000000 0.000000 0.000000 
0.000000 -0.000000 0.000000 
0.000000 0.000000 0.000000 

-0.000000 -0.000000 0.000000 
0.000000 0.000000 0.000000 
0.000000 0.000000 0.000000 

0.000000 0.000000 0.000000 
0.000000 0.000000 0.000000 
0.000000 0.000000 0.000000 

0.000000 -0.000000 0.000000 
0.000000 0.000000 0.000000 
0.000000 0.000000 0.000000 

0.000000 0.000000 0.000000 
0.000000 0.000000 0.000000 
0.000000 0.000000 0.000000 

0.000000 0.000000 0.000000 
0.000000 -0.000000 0.000000 
0.000000 0.000000 0.000000 

0.000000 0.000000 0.000000 
0.000000 0.000000 0.000000 
0.000000 0.000000 0.000000 

0.000000 0.000000 0.000000 
0.000000 0.000000 0.000000 
0.000000 0.000000 0.000000 

-0.000000 -0.000000 0.000000 
0.000000 -0.000000 0.000000 
0.000000 0.000000 0.000000 

-0.000000 -0.000000 0.000000 
0.000000 0.000000 0.000000 
0.000000 0.000000 0.000000 

0.000000 0.000000 0.000000 
0.000000 0.000000 0.000000 
0.000000 0.000000 0.000000 

0.000000 0.000000 0.000000 
0.000000 0.000000 0.000000 
0.000000 0.000000 0.000000 

0.000000 0.000000 0.000000 
0.000000 -0.000000 0.000000 
0.000000 0.000000 0.000000 

-0.000000 0.000000 0.000000 
0.000000 0.000000 0.000000 
0.000000 0.000000 0.000000 

-0.000000 -0.000000 0.000000 
0.000000 -0.000000 0.000000 
0.000000 0.000000 0.000000 

-0.000000 0.000000 0.000000 
0.000000 -0.000000 0.000000 
0.000000 0.000000 0.000000 

-0.000000 0.000000 0.000000 
0.000000 -0.000000 0.000000 
0.000000 0.000000 0.000000 

0.000000 0.000000 0.000000 
0.000000 0.000000 0.000000 
0.000000 0.000000 0.000000 

0.000000 -0.000000 0.000000 
0.000000 0.000000 0.000000 
0.000000 0.000000 0.000000 

-0.000000 -0.000000 0.000000 
0.000000 -0.000000 0.000000 
0.000000 0.000000 0.000000 

-0.000000 -0.000000 0.000000 
0.000000 -0.000000 0.000000 
0.000000 0.000000 0.000000 

-0.000000 -0.000000 0.000000 
0.000000 -0.000000 0.000000 
0.000000 0.000000 0.000000 

-0.000000 0.000000 0.000000 
0.000000 -0.000000 0.000000 
0.000000 0.000000 0.000000 

0.000000 -0.000000 0.000000 
0.000000 0.000000 0.000000 
0.000000 0.000000 0.000000 

0.000000 0.000000 0.000000 
0.000000 0.000000 0.000000 
0.000000 0.000000 0.000000 

0.000000 0.000000 0.000000 
0.000000 0.000000 0.000000 
0.000000 0.000000 0.000000 

0.000000 0.000000 0.000000 
0.000000 0.000000 0.000000 
0.000000 0.000000 0.000000 

0.000000 0.000000 0.000000 
0.000000 0.000000 0.000000 
0.000000 0.000000 0.000000 

-0.000000 -0.000000 0.000000 
0.000000 -0.000000 0.000000 
0.000000 0.000000 0.000000 

0.000000 -0.000000 0.000000 
0.000000 0.000000 0.000000 
0.000000 0.000000 0.000000 

-0.000000 0.000000 0.000000 
0.000000 -0.000000 0.000000 
0.000000 0.000000 0.000000 

0.000000 0.000000 0.000000 
0.000000 0.000000 0.000000 
0.000000 0.000000 0.000000 

-0.000000 0.000000 0.000000 
0.000000 -0.000000 0.000000 
0.000000 0.000000 0.000000 

0.000000 0.000000 0.000000 
0.000000 0.000000 0.000000 
0.000000 0.000000 0.000000 

0.000000 -0.000000 0.000000 
0.000000 -0.000000 0.000000 
0.000000 0.000000 0.000000 

-0.000000 -0.000000 0.000000 
0.000000 -0.000000 0.000000 
0.000000 0.000000 0.000000 

0.000000 -0.000000 0.000000 
0.000000 0.000000 0.000000 
0.000000 0.000000 0.000000 

0.000000 0.000000 0.000000 
0.000000 0.000000 0.000000 
0.000000 0.000000 0.000000 

-0.000000 -0.000000 0.000000 
0.000000 -0.000000 0.000000 
0.000000 0.000000 0.000000 

-0.000000 -0.000000 0.000000 
0.000000 -0.000000 0.000000 
0.000000 0.000000 0.000000 

-0.000000 -0.000000 0.000000 
0.000000 -0.000000 0.000000 
0.000000 0.000000 0.000000 

0.000000 0.000000 0.000000 
0.000000 -0.000000 0.000000 
0.000000 0.000000 0.000000 

0.000000 -0.000000 0.000000 
0.000000 0.000000 0.000000 
0.000000 0.000000 0.000000 

0.000000 0.000000 0.000000 
0.000000 0.000000 0.000000 
0.000000 0.000000 0.000000 

TENSORS STRAIN float 
0.000000 -0.000000 0.000000 
0.000000 -0.000000 0.000000 
0.000000 0.000000 0.000000 

0.000000 -0.000000 0.000000 
0.000000 0.000000 0.000000 
0.000000 0.000000 0.000000 

-0.000000 -0.000000 0.000000 
0.000000 0.000000 0.000000 
0.000000 0.000000 0.000000 

-0.000000 0.000000 0.000000 
0.000000 -0.000000 0.000000 
0.000000 0.000000 0.000000 

-0.000000 0.000000 0.000000 
0.000000 -0.000000 0.000000 
0.000000 0.000000 0.000000 

-0.000000 0.000000 0.000000 
0.000000 -0.000000 0.000000 
0.000000 0.000000 0.000000 

0.000000 0.000000 0.000000 
0.000000 -0.000000 0.000000 
0.000000 0.000000 0.000000 

-0.000000 0.000000 0.000000 
0.000000 -0.000000 0.000000 
0.000000 0.000000 0.000000 

0.000000 -0.000000 0.000000 
0.000000 -0.000000 0.000000 
0.000000 0.000000 0.000000 

-0.000000 0.000000 0.000000 
0.000000 -0.000000 0.000000 
0.000000 0.000000 0.000000 

0.000000 -0.000000 0.000000 
0.000000 -0.000000 0.000000 
0.000000 0.000000 0.000000 

0.000000 0.000000 0.000000 
0.000000 -0.000000 0.000000 
0.000000 0.000000 0.000000 

0.000000 0.000000 0.000000 
0.000000 -0.000000 0.000000 
0.000000 0.000000 0.000000 

0.000000 0.000000 0.000000 
0.000000 0.000000 0.000000 
0.000000 0.000000 0.000000 

0.000000 0.000000 0.000000 
0.000000 0.000000 0.000000 
0.000000 0.000000 0.000000 

0.000000 -0.000000 0.000000 
0.000000 -0.000000 0.000000 
0.000000 0.000000 0.000000 

-0.000000 0.000000 0.000000 
0.000000 0.000000 0.000000 
0.000000 0.000000 0.000000 

-0.000000 0.000000 0.000000 
0.000000 0.000000 0.000000 
0.000000 0.000000 0.000000 

-0.000000 0.000000 0.000000 
0.000000 0.000000 0.000000 
0.000000 0.000000 0.000000 

0.000000 0.000000 0.000000 
0.000000 0.000000 0.000000 
0.000000 0.000000 0.000000 

0.000000 0.000000 0.000000 
0.000000 -0.000000 0.000000 
0.000000 0.000000 0.000000 

0.000000 -0.000000 0.000000 
0.000000 -0.000000 0.000000 
0.000000 0.000000 0.000000 

-0.000000 0.000000 0.000000 
0.000000 0.000000 0.000000 
0.000000 0.000000 0.000000 

-0.000000 0.000000 0.000000 
0.000000 -0.000000 0.000000 
0.000000 0.000000 0.000000 

-0.000000 -0.000000 0.000000 
0.000000 0.000000 0.000000 
0.000000 0.000000 0.000000 

0.000000 0.000000 0.000000 
0.000000 0.000000 0.000000 
0.000000 0.000000 0.000000 

-0.000000 0.000000 0.000000 
0.000000 0.000000 0.000000 
0.000000 0.000000 0.000000 

0.000000 -0.000000 0.000000 
0.000000 0.000000 0.000000 
0.000000 0.000000 0.000000 

0.000000 -0.000000 0.000000 
0.000000 0.000000 0.000000 
0.000000 0.000000 0.000000 

0.000000 0.000000 0.000000 
0.000000 -0.000000 0.000000 
0.000000 0.000000 0.000000 

-0.000000 -0.000000 0.000000 
0.000000 -0.000000 0.000000 
0.000000 0.000000 0.000000 

0.000000 -0.000000 0.000000 
0.000000 -0.000000 0.000000 
0.000000 0.000000 0.000000 

0.000000 -0.000000 0.000000 
0.000000 -0.000000 0.000000 
0.000000 0.000000 0.000000 

0.000000 0.000000 0.000000 
0.000000 0.000000 0.000000 
0.000000 0.000000 0.000000 

0.000000 -0.000000 0.000000 
0.000000 -0.000000 0.000000 
0.000000 0.000000 0.000000 

0.000000 0.000000 0.000000 
0.000000 -0.000000 0.000000 
0.000000 0.000000 0.000000 

0.000000 0.000000 0.000000 
0.000000 -0.000000 0.000000 
0.000000 0.000000 0.000000 

-0.000000 0.000000 0.000000 
0.000000 -0.000000 0.000000 
0.000000 0.000000 0.000000 

-0.000000 -0.000000 0.000000 
0.000000 -0.000000 0.000000 
0.000000 0.000000 0.000000 

-0.000000 0.000000 0.000000 
0.000000 -0.000000 0.000000 
0.000000 0.000000 0.000000 

-0.000000 0.000000 0.000000 
0.000000 -0.000000 0.000000 
0.000000 0.000000 0.000000 

0.000000 -0.000000 0.000000 
0.000000 -0.000000 0.000000 
0.000000 0.000000 0.000000 

0.000000 -0.000000 0.000000 
0.000000 0.000000 0.000000 
0.000000 0.000000 0.000000 

0.000000 -0.000000 0.000000 
0.000000 -0.000000 0.000000 
0.000000 0.000000 0.000000 

0.000000 0.000000 0.000000 
0.000000 0.000000 0.000000 
0.000000 0.000000 0.000000 

0.000000 0.000000 0.000000 
0.000000 -0.000000 0.000000 
0.000000 0.000000 0.000000 

0.000000 0.000000 0.000000 
0.000000 -0.000000 0.000000 
0.000000 0.000000 0.000000 

0.000000 0.000000 0.000000 
0.000000 0.000000 0.000000 
0.000000 0.000000 0.000000 

-0.000000 0.000000 0.000000 
0.000000 -0.000000 0.000000 
0.000000 0.000000 0.000000 

-0.000000 0.000000 0.000000 
0.000000 -0.000000 0.000000 
0.000000 0.000000 0.000000 

0.000000 0.000000 0.000000 
0.000000 0.000000 0.000000 
0.000000 0.000000 0.000000 

-0.000000 0.000000 0.000000 
0.000000 -0.000000 0.000000 
0.000000 0.000000 0.000000 

-0.000000 0.000000 0.000000 
0.000000 -0.000000 0.000000 
0.000000 0.000000 0.000000 

-0.000000 0.000000 0.000000 
0.000000 -0.000000 0.000000 
0.000000 0.000000 0.000000 

-0.000000 0.000000 0.000000 
0.000000 -0.000000 0.000000 
0.000000 0.000000 0.000000 

-0.000000 0.000000 0.000000 
0.000000 -0.000000 0.000000 
0.000000 0.000000 0.000000 

-0.000000 0.000000 0.000000 
0.000000 0.000000 0.000000 
0.000000 0.000000 0.000000 

-0.000000 0.000000 0.000000 
0.000000 0.000000 0.000000 
0.000000 0.000000 0.000000 

0.000000 0.000000 0.000000 
0.000000 0.000000 0.000000 
0.000000 0.000000 0.000000 

-0.000000 0.000000 0.000000 
0.000000 0.000000 0.000000 
0.000000 0.000000 0.000000 

-0.000000 -0.000000 0.000000 
0.000000 0.000000 0.000000 
0.000000 0.000000 0.000000 

0.000000 0.000000 0.000000 
0.000000 0.000000 0.000000 
0.000000 0.000000 0.000000 

0.000000 0.000000 0.000000 
0.000000 0.000000 0.000000 
0.000000 0.000000 0.000000 

0.000000 0.000000 0.000000 
0.000000 0.000000 0.000000 
0.000000 0.000000 0.000000 

0.000000 -0.000000 0.000000 
0.000000 0.000000 0.000000 
0.000000 0.000000 0.000000 

0.000000 -0.000000 0.000000 
0.000000 0.000000 0.000000 
0.000000 0.000000 0.000000 

0.000000 0.000000 0.000000 
0.000000 0.000000 0.000000 
0.000000 0.000000 0.000000 

0.000000 0.000000 0.000000 
0.000000 -0.000000 0.000000 
0.000000 0.000000 0.000000 

0.000000 0.000000 0.000000 
0.000000 0.000000 0.000000 
0.000000 0.000000 0.000000 

0.000000 -0.000000 0.000000 
0.000000 -0.000000 0.000000 
0.000000 0.000000 0.000000 

0.000000 0.000000 0.000000 
0.000000 -0.000000 0.000000 
0.000000 0.000000 0.000000 

0.000000 0.000000 0.000000 
0.000000 -0.000000 0.000000 
0.000000 0.000000 0.000000 

-0.000000 -0.000000 0.000000 
0.000000 0.000000 0.000000 
0.000000 0.000000 0.000000 

-0.000000 0.000000 0.000000 
0.000000 -0.000000 0.000000 
0.000000 0.000000 0.000000 

-0.000000 -0.000000 0.000000 
0.000000 0.000000 0.000000 
0.000000 0.000000 0.000000 

0.000000 0.000000 0.000000 
0.000000 -0.000000 0.000000 
0.000000 0.000000 0.000000 

0.000000 0.000000 0.000000 
0.000000 0.000000 0.000000 
0.000000 0.000000 0.000000 

0.000000 0.000000 0.000000 
0.000000 0.000000 0.000000 
0.000000 0.000000 0.000000 

0.000000 -0.000000 0.000000 
0.000000 0.000000 0.000000 
0.000000 0.000000 0.000000 

-0.000000 -0.000000 0.000000 
0.000000 -0.000000 0.000000 
0.000000 0.000000 0.000000 

-0.000000 0.000000 0.000000 
0.000000 0.000000 0.000000 
0.000000 0.000000 0.000000 

-0.000000 0.000000 0.000000 
0.000000 -0.000000 0.000000 
0.000000 0.000000 0.000000 

-0.000000 0.000000 0.000000 
0.000000 -0.000000 0.000000 
0.000000 0.000000 0.000000 

-0.000000 0.000000 0.000000 
0.000000 0.000000 0.000000 
0.000000 0.000000 0.000000 

-0.000000 0.000000 0.000000 
0.000000 0.000000 0.000000 
0.000000 0.000000 0.000000 

0.000000 -0.000000 0.000000 
0.000000 0.000000 0.000000 
0.000000 0.000000 0.000000 

-0.000000 -0.000000 0.000000 
0.000000 0.000000 0.000000 
0.000000 0.000000 0.000000 

-0.000000 -0.000000 0.000000 
0.000000 -0.000000 0.000000 
0.000000 0.000000 0.000000 

-0.000000 -0.000000 0.000000 
0.000000 0.000000 0.000000 
0.000000 0.000000 0.000000 

-0.000000 0.000000 0.000000 
0.000000 0.000000 0.000000 
0.000000 0.000000 0.000000 

-0.000000 0.000000 0.000000 
0.000000 -0.000000 0.000000 
0.000000 0.000000 0.000000 

-0.000000 0.000000 0.000000 
0.000000 -0.000000 0.000000 
0.000000 0.000000 0.000000 

-0.000000 0.000000 0.000000 
0.000000 -0.000000 0.000000 
0.000000 0.000000 0.000000 

-0.000000 0.000000 0.000000 
0.000000 0.000000 0.000000 
0.000000 0.000000 0.000000 

-0.000000 -0.000000 0.000000 
0.000000 0.000000 0.000000 
0.000000 0.000000 0.000000 

-0.000000 -0.000000 0.000000 
0.000000 0.000000 0.000000 
0.000000 0.000000 0.000000 

-0.000000 -0.000000 0.000000 
0.000000 0.000000 0.000000 
0.000000 0.000000 0.000000 

0.000000 -0.000000 0.000000 
0.000000 -0.000000 0.000000 
0.000000 0.000000 0.000000 

0.000000 -0.000000 0.000000 
0.000000 0.000000 0.000000 
0.000000 0.000000 0.000000 

0.000000 0.000000 0.000000 
0.000000 -0.000000 0.000000 
0.000000 0.000000 0.000000 

0.000000 0.000000 0.000000 
0.000000 -0.000000 0.000000 
0.000000 0.000000 0.000000 

-0.000000 -0.000000 0.000000 
0.000000 -0.000000 0.000000 
0.000000 0.000000 0.000000 

-0.000000 -0.000000 0.000000 
0.000000 -0.000000 0.000000 
0.000000 0.000000 0.000000 

0.000000 0.000000 0.000000 
0.000000 0.000000 0.000000 
0.000000 0.000000 0.000000 

-0.000000 -0.000000 0.000000 
0.000000 -0.000000 0.000000 
0.000000 0.000000 0.000000 

0.000000 -0.000000 0.000000 
0.000000 -0.000000 0.000000 
0.000000 0.000000 0.000000 

0.000000 0.000000 0.000000 
0.000000 0.000000 0.000000 
0.000000 0.000000 0.000000 

0.000000 -0.000000 0.000000 
0.000000 0.000000 0.000000 
0.000000 0.000000 0.000000 

0.000000 -0.000000 0.000000 
0.000000 0.000000 0.000000 
0.000000 0.000000 0.000000 

-0.000000 -0.000000 0.000000 
0.000000 -0.000000 0.000000 
0.000000 0.000000 0.000000 

-0.000000 -0.000000 0.000000 
0.000000 0.000000 0.000000 
0.000000 0.000000 0.000000 

0.000000 0.000000 0.000000 
0.000000 0.000000 0.000000 
0.000000 0.000000 0.000000 

0.000000 0.000000 0.000000 
0.000000 0.000000 0.000000 
0.000000 0.000000 0.000000 

-0.000000 0.000000 0.000000 
0.000000 -0.000000 0.000000 
0.000000 0.000000 0.000000 

-0.000000 0.000000 0.000000 
0.000000 0.000000 0.000000 
0.000000 0.000000 0.000000 

0.000000 -0.000000 0.000000 
0.000000 -0.000000 0.000000 
0.000000 0.000000 0.000000 

-0.000000 -0.000000 0.000000 
0.000000 0.000000 0.000000 
0.000000 0.000000 0.000000 

-0.000000 0.000000 0.000000 
0.000000 0.000000 0.000000 
0.000000 0.000000 0.000000 

0.000000 0.000000 0.000000 
0.000000 -0.000000 0.000000 
0.000000 0.000000 0.000000 

-0.000000 0.000000 0.000000 
0.000000 -0.000000 0.000000 
0.000000 0.000000 0.000000 

-0.000000 0.000000 0.000000 
0.000000 0.000000 0.000000 
0.000000 0.000000 0.000000 

-0.000000 -0.000000 0.000000 
0.000000 0.000000 0.000000 
0.000000 0.000000 0.000000 

0.000000 -0.000000 0.000000 
0.000000 0.000000 0.000000 
0.000000 0.000000 0.000000 

0.000000 -0.000000 0.000000 
0.000000 -0.000000 0.000000 
0.000000 0.000000 0.000000 

-0.000000 0.000000 0.000000 
0.000000 0.000000 0.000000 
0.000000 0.000000 0.000000 

0.000000 -0.000000 0.000000 
0.000000 -0.000000 0.000000 
0.000000 0.000000 0.000000 

-0.000000 0.000000 0.000000 
0.000000 -0.000000 0.000000 
0.000000 0.000000 0.000000 

-0.000000 -0.000000 0.000000 
0.000000 -0.000000 0.000000 
0.000000 0.000000 0.000000 

-0.000000 -0.000000 0.000000 
0.000000 0.000000 0.000000 
0.000000 0.000000 0.000000 

0.000000 0.000000 0.000000 
0.000000 -0.000000 0.000000 
0.000000 0.000000 0.000000 

0.000000 0.000000 0.000000 
0.000000 0.000000 0.000000 
0.000000 0.000000 0.000000 

0.000000 0.000000 0.000000 
0.000000 -0.000000 0.000000 
0.000000 0.000000 0.000000 

-0.000000 -0.000000 0.000000 
0.000000 0.000000 0.000000 
0.000000 0.000000 0.000000 

-0.000000 0.000000 0.000000 
0.000000 0.000000 0.000000 
0.000000 0.000000 0.000000 

0.000000 -0.000000 0.000000 
0.000000 0.000000 0.000000 
0.000000 0.000000 0.000000 

0.000000 0.000000 0.000000 
0.000000 0.000000 0.000000 
0.000000 0.000000 0.000000 

0.000000 0.000000 0.000000 
0.000000 -0.000000 0.000000 
0.000000 0.000000 0.000000 

0.000000 0.000000 0.000000 
0.000000 -0.000000 0.000000 
0.000000 0.000000 0.000000 

0.000000 0.000000 0.000000 
0.000000 0.000000 0.000000 
0.000000 0.000000 0.000000 

0.000000 -0.000000 0.000000 
0.000000 -0.000000 0.000000 
0.000000 0.000000 0.000000 

-0.000000 -0.000000 0.000000 
0.000000 0.000000 0.000000 
0.000000 0.000000 0.000000 

0.000000 0.000000 0.000000 
0.000000 0.000000 0.000000 
0.000000 0.000000 0.000000 

0.000000 0.000000 0.000000 
0.000000 0.000000 0.000000 
0.000000 0.000000 0.000000 

0.000000 0.000000 0.000000 
0.000000 -0.000000 0.000000 
0.000000 0.000000 0.000000 

-0.000000 0.000000 0.000000 
0.000000 0.000000 0.000000 
0.000000 0.000000 0.000000 

-0.000000 -0.000000 0.000000 
0.000000 0.000000 0.000000 
0.000000 0.000000 0.000000 

-0.000000 0.000000 0.000000 
0.000000 0.000000 0.000000 
0.000000 0.000000 0.000000 

0.000000 0.000000 0.000000 
0.000000 -0.000000 0.000000 
0.000000 0.000000 0.000000 

0.000000 0.000000 0.000000 
0.000000 -0.000000 0.000000 
0.000000 0.000000 0.000000 

0.000000 -0.000000 0.000000 
0.000000 -0.000000 0.000000 
0.000000 0.000000 0.000000 

0.000000 -0.000000 0.000000 
0.000000 -0.000000 0.000000 
0.000000 0.000000 0.000000 

-0.000000 -0.000000 0.000000 
0.000000 -0.000000 0.000000 
0.000000 0.000000 0.000000 

-0.000000 -0.000000 0.000000 
0.000000 -0.000000 0.000000 
0.000000 0.000000 0.000000 

0.000000 0.000000 0.000000 
0.000000 -0.000000 0.000000 
0.000000 0.000000 0.000000 

0.000000 -0.000000 0.000000 
0.000000 0.000000 0.000000 
0.000000 0.000000 0.000000 

-0.000000 0.000000 0.000000 
0.000000 0.000000 0.000000 
0.000000 0.000000 0.000000 

0.000000 0.000000 0.000000 
0.000000 0.000000 0.000000 
0.000000 0.000000 0.000000 

0.000000 0.000000 0.000000 
0.000000 -0.000000 0.000000 
0.000000 0.000000 0.000000 

0.000000 0.000000 0.000000 
0.000000 0.000000 0.000000 
0.000000 0.000000 0.000000 

0.000000 -0.000000 0.000000 
0.000000 -0.000000 0.000000 
0.000000 0.000000 0.000000 

0.000000 -0.000000 0.000000 
0.000000 -0.000000 0.000000 
0.000000 0.000000 0.000000 

0.000000 0.000000 0.000000 
0.000000 -0.000000 0.000000 
0.000000 0.000000 0.000000 

0.000000 0.000000 0.000000 
0.000000 0.000000 0.000000 
0.000000 0.000000 0.000000 

0.000000 0.000000 0.000000 
0.000000 -0.000000 0.000000 
0.000000 0.000000 0.000000 

0.000000 0.000000 0.000000 
0.000000 0.000000 0.000000 
0.000000 0.000000 0.000000 

0.000000 -0.000000 0.000000 
0.000000 -0.000000 0.000000 
0.000000 0.000000 0.000000 

-0.000000 -0.000000 0.000000 
0.000000 -0.000000 0.000000 
0.000000 0.000000 0.000000 

-0.000000 -0.000000 0.000000 
0.000000 0.000000 0.000000 
0.000000 0.000000 0.000000 

0.000000 0.000000 0.000000 
0.000000 0.000000 0.000000 
0.000000 0.000000 0.000000 

0.000000 -0.000000 0.000000 
0.000000 -0.000000 0.000000 
0.000000 0.000000 0.000000 

0.000000 -0.000000 0.000000 
0.000000 -0.000000 0.000000 
0.000000 0.000000 0.000000 

0.000000 -0.000000 0.000000 
0.000000 -0.000000 0.000000 
0.000000 0.000000 0.000000 

0.000000 0.000000 0.000000 
0.000000 -0.000000 0.000000 
0.000000 0.000000 0.000000 

0.000000 -0.000000 0.000000 
0.000000 -0.000000 0.000000 
0.000000 0.000000 0.000000 

0.000000 0.000000 0.000000 
0.000000 0.000000 0.000000 
0.000000 0.000000 0.000000 

