# vtk DataFile Version 3.0 
vtk output 
ASCII 
DATASET UNSTRUCTURED_GRID 
POINTS 175 float 
-0.026061 0.018209 0.000000 
-0.106992 0.086265 0.000000 
-0.054870 0.078032 0.000000 
-0.028809 0.123916 0.000000 
-0.186430 0.150340 0.000000 
-0.137056 0.147814 0.000000 
-0.114311 0.201461 0.000000 
-0.058186 0.185796 0.000000 
-0.029377 0.225973 0.000000 
-0.265318 0.213496 0.000000 
-0.217198 0.212696 0.000000 
-0.196633 0.269993 0.000000 
-0.143120 0.261284 0.000000 
-0.116563 0.308553 0.000000 
-0.058945 0.288907 0.000000 
-0.029568 0.327027 0.000000 
-0.344206 0.276652 0.000000 
-0.296791 0.276659 0.000000 
-0.278030 0.336602 0.000000 
-0.225992 0.330735 0.000000 
-0.201664 0.382852 0.000000 
-0.145749 0.369378 0.000000 
-0.117890 0.413721 0.000000 
-0.059328 0.391015 0.000000 
-0.029759 0.428081 0.000000 
-0.058559 -0.022541 0.000000 
-0.162226 -0.043384 0.000000 
-0.123292 -0.007766 0.000000 
-0.142917 0.041217 0.000000 
-0.261851 -0.065541 0.000000 
-0.229092 -0.028513 0.000000 
-0.256854 0.022718 0.000000 
-0.209613 0.056831 0.000000 
-0.223062 0.104405 0.000000 
-0.360414 -0.087841 0.000000 
-0.329787 -0.050718 0.000000 
-0.361761 0.001084 0.000000 
-0.321587 0.037493 0.000000 
-0.341985 0.087727 0.000000 
-0.290702 0.120526 0.000000 
-0.302189 0.167261 0.000000 
-0.458977 -0.110141 0.000000 
-0.429420 -0.073066 0.000000 
-0.464588 -0.021024 0.000000 
-0.427556 0.016003 0.000000 
-0.453135 0.067518 0.000000 
-0.407738 0.102833 0.000000 
-0.425037 0.152261 0.000000 
-0.370772 0.183890 0.000000 
-0.381315 0.230118 0.000000 
-0.046960 -0.073357 0.000000 
-0.095301 -0.167403 0.000000 
-0.098873 -0.114755 0.000000 
-0.149405 -0.099558 0.000000 
-0.140093 -0.259107 0.000000 
-0.148617 -0.210408 0.000000 
-0.205981 -0.200171 0.000000 
-0.203197 -0.141968 0.000000 
-0.248777 -0.122821 0.000000 
-0.184111 -0.350070 0.000000 
-0.194039 -0.302979 0.000000 
-0.254475 -0.295680 0.000000 
-0.257893 -0.241570 0.000000 
-0.309886 -0.226197 0.000000 
-0.303554 -0.165652 0.000000 
-0.347255 -0.145494 0.000000 
-0.228129 -0.441034 0.000000 
-0.238687 -0.394810 0.000000 
-0.301302 -0.389858 0.000000 
-0.307162 -0.337819 0.000000 
-0.363386 -0.325698 0.000000 
-0.362692 -0.268186 0.000000 
-0.412122 -0.250893 0.000000 
-0.403017 -0.188746 0.000000 
-0.445733 -0.168168 0.000000 
-0.000000 -0.095972 0.000000 
0.043388 -0.192402 0.000000 
-0.000000 -0.162370 0.000000 
-0.043388 -0.192402 0.000000 
0.087158 -0.284599 0.000000 
0.043769 -0.260900 0.000000 
-0.000000 -0.299366 0.000000 
-0.043769 -0.260900 0.000000 
-0.087158 -0.284599 0.000000 
0.130831 -0.375729 0.000000 
0.087824 -0.354130 0.000000 
0.044436 -0.396829 0.000000 
-0.000000 -0.365764 0.000000 
-0.044436 -0.396829 0.000000 
-0.087824 -0.354130 0.000000 
-0.130831 -0.375729 0.000000 
0.174505 -0.466858 0.000000 
0.131782 -0.446292 0.000000 
0.088871 -0.492159 0.000000 
0.044532 -0.464295 0.000000 
-0.000000 -0.500695 0.000000 
-0.044532 -0.464295 0.000000 
-0.088871 -0.492159 0.000000 
-0.131782 -0.446292 0.000000 
-0.174505 -0.466858 0.000000 
0.046960 -0.073357 0.000000 
0.149405 -0.099558 0.000000 
0.098873 -0.114755 0.000000 
0.095301 -0.167403 0.000000 
0.248777 -0.122821 0.000000 
0.203197 -0.141968 0.000000 
0.205981 -0.200171 0.000000 
0.148617 -0.210408 0.000000 
0.140093 -0.259107 0.000000 
0.347255 -0.145494 0.000000 
0.303554 -0.165652 0.000000 
0.309886 -0.226197 0.000000 
0.257893 -0.241570 0.000000 
0.254475 -0.295680 0.000000 
0.194039 -0.302979 0.000000 
0.184111 -0.350070 0.000000 
0.445733 -0.168168 0.000000 
0.403017 -0.188746 0.000000 
0.412122 -0.250893 0.000000 
0.362692 -0.268186 0.000000 
0.363386 -0.325698 0.000000 
0.307162 -0.337819 0.000000 
0.301302 -0.389858 0.000000 
0.238687 -0.394810 0.000000 
0.228129 -0.441034 0.000000 
0.058559 -0.022541 0.000000 
0.142917 0.041217 0.000000 
0.123292 -0.007766 0.000000 
0.162226 -0.043384 0.000000 
0.223062 0.104405 0.000000 
0.209613 0.056831 0.000000 
0.256854 0.022718 0.000000 
0.229092 -0.028513 0.000000 
0.261851 -0.065541 0.000000 
0.302189 0.167261 0.000000 
0.290702 0.120526 0.000000 
0.341985 0.087727 0.000000 
0.321587 0.037493 0.000000 
0.361761 0.001084 0.000000 
0.329787 -0.050718 0.000000 
0.360414 -0.087841 0.000000 
0.381315 0.230118 0.000000 
0.370772 0.183890 0.000000 
0.425037 0.152261 0.000000 
0.407738 0.102833 0.000000 
0.453135 0.067518 0.000000 
0.427556 0.016003 0.000000 
0.464588 -0.021024 0.000000 
0.429420 -0.073066 0.000000 
0.458977 -0.110141 0.000000 
0.026061 0.018209 0.000000 
0.028809 0.123916 0.000000 
0.054870 0.078032 0.000000 
0.106992 0.086265 0.000000 
0.029377 0.225973 0.000000 
0.058186 0.185796 0.000000 
0.114311 0.201461 0.000000 
0.137056 0.147814 0.000000 
0.186430 0.150340 0.000000 
0.029568 0.327027 0.000000 
0.058945 0.288907 0.000000 
0.116563 0.308553 0.000000 
0.143120 0.261284 0.000000 
0.196633 0.269993 0.000000 
0.217198 0.212696 0.000000 
0.265318 0.213496 0.000000 
0.029759 0.428081 0.000000 
0.059328 0.391015 0.000000 
0.117890 0.413721 0.000000 
0.145749 0.369378 0.000000 
0.201664 0.382852 0.000000 
0.225992 0.330735 0.000000 
0.278030 0.336602 0.000000 
0.296791 0.276659 0.000000 
0.344206 0.276652 0.000000 
CELLS 175 350 
1 0 
1 1 
1 2 
1 3 
1 4 
1 5 
1 6 
1 7 
1 8 
1 9 
1 10 
1 11 
1 12 
1 13 
1 14 
1 15 
1 16 
1 17 
1 18 
1 19 
1 20 
1 21 
1 22 
1 23 
1 24 
1 25 
1 26 
1 27 
1 28 
1 29 
1 30 
1 31 
1 32 
1 33 
1 34 
1 35 
1 36 
1 37 
1 38 
1 39 
1 40 
1 41 
1 42 
1 43 
1 44 
1 45 
1 46 
1 47 
1 48 
1 49 
1 50 
1 51 
1 52 
1 53 
1 54 
1 55 
1 56 
1 57 
1 58 
1 59 
1 60 
1 61 
1 62 
1 63 
1 64 
1 65 
1 66 
1 67 
1 68 
1 69 
1 70 
1 71 
1 72 
1 73 
1 74 
1 75 
1 76 
1 77 
1 78 
1 79 
1 80 
1 81 
1 82 
1 83 
1 84 
1 85 
1 86 
1 87 
1 88 
1 89 
1 90 
1 91 
1 92 
1 93 
1 94 
1 95 
1 96 
1 97 
1 98 
1 99 
1 100 
1 101 
1 102 
1 103 
1 104 
1 105 
1 106 
1 107 
1 108 
1 109 
1 110 
1 111 
1 112 
1 113 
1 114 
1 115 
1 116 
1 117 
1 118 
1 119 
1 120 
1 121 
1 122 
1 123 
1 124 
1 125 
1 126 
1 127 
1 128 
1 129 
1 130 
1 131 
1 132 
1 133 
1 134 
1 135 
1 136 
1 137 
1 138 
1 139 
1 140 
1 141 
1 142 
1 143 
1 144 
1 145 
1 146 
1 147 
1 148 
1 149 
1 150 
1 151 
1 152 
1 153 
1 154 
1 155 
1 156 
1 157 
1 158 
1 159 
1 160 
1 161 
1 162 
1 163 
1 164 
1 165 
1 166 
1 167 
1 168 
1 169 
1 170 
1 171 
1 172 
1 173 
1 174 
CELL_TYPES 175 
1 
1 
1 
1 
1 
1 
1 
1 
1 
1 
1 
1 
1 
1 
1 
1 
1 
1 
1 
1 
1 
1 
1 
1 
1 
1 
1 
1 
1 
1 
1 
1 
1 
1 
1 
1 
1 
1 
1 
1 
1 
1 
1 
1 
1 
1 
1 
1 
1 
1 
1 
1 
1 
1 
1 
1 
1 
1 
1 
1 
1 
1 
1 
1 
1 
1 
1 
1 
1 
1 
1 
1 
1 
1 
1 
1 
1 
1 
1 
1 
1 
1 
1 
1 
1 
1 
1 
1 
1 
1 
1 
1 
1 
1 
1 
1 
1 
1 
1 
1 
1 
1 
1 
1 
1 
1 
1 
1 
1 
1 
1 
1 
1 
1 
1 
1 
1 
1 
1 
1 
1 
1 
1 
1 
1 
1 
1 
1 
1 
1 
1 
1 
1 
1 
1 
1 
1 
1 
1 
1 
1 
1 
1 
1 
1 
1 
1 
1 
1 
1 
1 
1 
1 
1 
1 
1 
1 
1 
1 
1 
1 
1 
1 
1 
1 
1 
1 
1 
1 
1 
1 
1 
1 
1 
1 
POINT_DATA 175 
VECTORS X_GC float 
-0.026061 0.018209 0.000000 
-0.106992 0.086265 0.000000 
-0.054870 0.078032 0.000000 
-0.028809 0.123916 0.000000 
-0.186430 0.150340 0.000000 
-0.137056 0.147814 0.000000 
-0.114311 0.201461 0.000000 
-0.058186 0.185796 0.000000 
-0.029377 0.225973 0.000000 
-0.265318 0.213496 0.000000 
-0.217198 0.212696 0.000000 
-0.196633 0.269993 0.000000 
-0.143120 0.261284 0.000000 
-0.116563 0.308553 0.000000 
-0.058945 0.288907 0.000000 
-0.029568 0.327027 0.000000 
-0.344206 0.276652 0.000000 
-0.296791 0.276659 0.000000 
-0.278030 0.336602 0.000000 
-0.225992 0.330735 0.000000 
-0.201664 0.382852 0.000000 
-0.145749 0.369378 0.000000 
-0.117890 0.413721 0.000000 
-0.059328 0.391015 0.000000 
-0.029759 0.428081 0.000000 
-0.058559 -0.022541 0.000000 
-0.162226 -0.043384 0.000000 
-0.123292 -0.007766 0.000000 
-0.142917 0.041217 0.000000 
-0.261851 -0.065541 0.000000 
-0.229092 -0.028513 0.000000 
-0.256854 0.022718 0.000000 
-0.209613 0.056831 0.000000 
-0.223062 0.104405 0.000000 
-0.360414 -0.087841 0.000000 
-0.329787 -0.050718 0.000000 
-0.361761 0.001084 0.000000 
-0.321587 0.037493 0.000000 
-0.341985 0.087727 0.000000 
-0.290702 0.120526 0.000000 
-0.302189 0.167261 0.000000 
-0.458977 -0.110141 0.000000 
-0.429420 -0.073066 0.000000 
-0.464588 -0.021024 0.000000 
-0.427556 0.016003 0.000000 
-0.453135 0.067518 0.000000 
-0.407738 0.102833 0.000000 
-0.425037 0.152261 0.000000 
-0.370772 0.183890 0.000000 
-0.381315 0.230118 0.000000 
-0.046960 -0.073357 0.000000 
-0.095301 -0.167403 0.000000 
-0.098873 -0.114755 0.000000 
-0.149405 -0.099558 0.000000 
-0.140093 -0.259107 0.000000 
-0.148617 -0.210408 0.000000 
-0.205981 -0.200171 0.000000 
-0.203197 -0.141968 0.000000 
-0.248777 -0.122821 0.000000 
-0.184111 -0.350070 0.000000 
-0.194039 -0.302979 0.000000 
-0.254475 -0.295680 0.000000 
-0.257893 -0.241570 0.000000 
-0.309886 -0.226197 0.000000 
-0.303554 -0.165652 0.000000 
-0.347255 -0.145494 0.000000 
-0.228129 -0.441034 0.000000 
-0.238687 -0.394810 0.000000 
-0.301302 -0.389858 0.000000 
-0.307162 -0.337819 0.000000 
-0.363386 -0.325698 0.000000 
-0.362692 -0.268186 0.000000 
-0.412122 -0.250893 0.000000 
-0.403017 -0.188746 0.000000 
-0.445733 -0.168168 0.000000 
-0.000000 -0.095972 0.000000 
0.043388 -0.192402 0.000000 
-0.000000 -0.162370 0.000000 
-0.043388 -0.192402 0.000000 
0.087158 -0.284599 0.000000 
0.043769 -0.260900 0.000000 
-0.000000 -0.299366 0.000000 
-0.043769 -0.260900 0.000000 
-0.087158 -0.284599 0.000000 
0.130831 -0.375729 0.000000 
0.087824 -0.354130 0.000000 
0.044436 -0.396829 0.000000 
-0.000000 -0.365764 0.000000 
-0.044436 -0.396829 0.000000 
-0.087824 -0.354130 0.000000 
-0.130831 -0.375729 0.000000 
0.174505 -0.466858 0.000000 
0.131782 -0.446292 0.000000 
0.088871 -0.492159 0.000000 
0.044532 -0.464295 0.000000 
-0.000000 -0.500695 0.000000 
-0.044532 -0.464295 0.000000 
-0.088871 -0.492159 0.000000 
-0.131782 -0.446292 0.000000 
-0.174505 -0.466858 0.000000 
0.046960 -0.073357 0.000000 
0.149405 -0.099558 0.000000 
0.098873 -0.114755 0.000000 
0.095301 -0.167403 0.000000 
0.248777 -0.122821 0.000000 
0.203197 -0.141968 0.000000 
0.205981 -0.200171 0.000000 
0.148617 -0.210408 0.000000 
0.140093 -0.259107 0.000000 
0.347255 -0.145494 0.000000 
0.303554 -0.165652 0.000000 
0.309886 -0.226197 0.000000 
0.257893 -0.241570 0.000000 
0.254475 -0.295680 0.000000 
0.194039 -0.302979 0.000000 
0.184111 -0.350070 0.000000 
0.445733 -0.168168 0.000000 
0.403017 -0.188746 0.000000 
0.412122 -0.250893 0.000000 
0.362692 -0.268186 0.000000 
0.363386 -0.325698 0.000000 
0.307162 -0.337819 0.000000 
0.301302 -0.389858 0.000000 
0.238687 -0.394810 0.000000 
0.228129 -0.441034 0.000000 
0.058559 -0.022541 0.000000 
0.142917 0.041217 0.000000 
0.123292 -0.007766 0.000000 
0.162226 -0.043384 0.000000 
0.223062 0.104405 0.000000 
0.209613 0.056831 0.000000 
0.256854 0.022718 0.000000 
0.229092 -0.028513 0.000000 
0.261851 -0.065541 0.000000 
0.302189 0.167261 0.000000 
0.290702 0.120526 0.000000 
0.341985 0.087727 0.000000 
0.321587 0.037493 0.000000 
0.361761 0.001084 0.000000 
0.329787 -0.050718 0.000000 
0.360414 -0.087841 0.000000 
0.381315 0.230118 0.000000 
0.370772 0.183890 0.000000 
0.425037 0.152261 0.000000 
0.407738 0.102833 0.000000 
0.453135 0.067518 0.000000 
0.427556 0.016003 0.000000 
0.464588 -0.021024 0.000000 
0.429420 -0.073066 0.000000 
0.458977 -0.110141 0.000000 
0.026061 0.018209 0.000000 
0.028809 0.123916 0.000000 
0.054870 0.078032 0.000000 
0.106992 0.086265 0.000000 
0.029377 0.225973 0.000000 
0.058186 0.185796 0.000000 
0.114311 0.201461 0.000000 
0.137056 0.147814 0.000000 
0.186430 0.150340 0.000000 
0.029568 0.327027 0.000000 
0.058945 0.288907 0.000000 
0.116563 0.308553 0.000000 
0.143120 0.261284 0.000000 
0.196633 0.269993 0.000000 
0.217198 0.212696 0.000000 
0.265318 0.213496 0.000000 
0.029759 0.428081 0.000000 
0.059328 0.391015 0.000000 
0.117890 0.413721 0.000000 
0.145749 0.369378 0.000000 
0.201664 0.382852 0.000000 
0.225992 0.330735 0.000000 
0.278030 0.336602 0.000000 
0.296791 0.276659 0.000000 
0.344206 0.276652 0.000000 
VECTORS X_EC float 
0.338794 0.254176 0.000000 
-0.609100 -0.664573 0.000000 
0.713312 -0.553432 0.000000 
0.374519 0.827138 0.000000 
0.423588 0.470408 0.000000 
-0.218274 0.504511 0.000000 
-0.513962 -0.219727 0.000000 
0.756418 -0.008241 0.000000 
0.381900 -0.550634 0.000000 
-0.550868 -0.382195 0.000000 
0.823577 -0.371400 0.000000 
0.556234 0.855096 0.000000 
-0.139443 0.972665 0.000000 
-0.484677 0.334540 0.000000 
0.766286 0.599756 0.000000 
0.384386 0.085135 0.000000 
0.474677 0.765202 0.000000 
-0.141715 0.765105 0.000000 
-0.385608 -0.044123 0.000000 
0.937896 0.035072 0.000000 
0.621631 -0.668508 0.000000 
-0.105264 -0.486608 0.000000 
-0.467428 0.914765 0.000000 
0.771260 -0.778706 0.000000 
0.386873 0.720904 0.000000 
0.761262 0.804310 0.000000 
0.108942 -0.914313 0.000000 
-0.397202 0.604847 0.000000 
-0.142083 -0.056428 0.000000 
-0.595936 -0.615203 0.000000 
0.978194 0.884931 0.000000 
-0.660903 0.193306 0.000000 
0.724964 -0.267214 0.000000 
0.899809 -0.909462 0.000000 
0.685384 -0.314151 0.000000 
0.287229 -0.815309 0.000000 
0.702895 0.485363 0.000000 
0.180633 -0.006156 0.000000 
0.445811 -0.684316 0.000000 
-0.220880 0.872898 0.000000 
-0.071546 0.241973 0.000000 
-0.033296 -0.013098 0.000000 
-0.417537 -0.513608 0.000000 
0.039645 0.783830 0.000000 
-0.441768 0.283958 0.000000 
-0.109248 -0.411492 0.000000 
-0.699407 -0.888248 0.000000 
-0.474522 0.444473 0.000000 
0.820030 0.017480 0.000000 
0.957100 -0.606592 0.000000 
0.610485 -0.509684 0.000000 
-0.761092 0.759936 0.000000 
-0.714655 0.049198 0.000000 
-0.057734 -0.155969 0.000000 
-0.178789 -0.002060 0.000000 
-0.067979 -0.659486 0.000000 
0.677748 -0.797690 0.000000 
0.641556 0.416565 0.000000 
-0.765897 0.158087 0.000000 
0.393446 -0.774051 0.000000 
0.522510 0.590219 0.000000 
-0.691820 0.491675 0.000000 
-0.647393 -0.238808 0.000000 
0.028512 -0.446334 0.000000 
-0.053800 0.736305 0.000000 
0.514316 0.464174 0.000000 
0.965681 0.453958 0.000000 
-0.897068 -0.170071 0.000000 
-0.083078 -0.236924 0.000000 
-0.006893 -0.939448 0.000000 
0.724017 0.896919 0.000000 
0.714996 0.120515 0.000000 
-0.642413 -0.112942 0.000000 
-0.760780 -0.951923 0.000000 
-0.205471 0.770262 0.000000 
0.000000 -0.204382 0.000000 
-0.564049 -0.902569 0.000000 
0.000000 0.691995 0.000000 
0.564049 -0.902569 0.000000 
0.866949 0.342086 0.000000 
-0.569003 0.022155 0.000000 
0.000000 0.541443 0.000000 
0.569003 0.022155 0.000000 
-0.866949 0.342086 0.000000 
0.299194 -0.427664 0.000000 
0.858290 -0.719248 0.000000 
-0.577662 -0.142802 0.000000 
0.000000 -0.562180 0.000000 
0.577662 -0.142802 0.000000 
-0.858290 -0.719248 0.000000 
-0.299194 -0.427664 0.000000 
-0.268560 0.802586 0.000000 
0.286830 0.524945 0.000000 
0.844677 -0.855857 0.000000 
-0.578910 0.767980 0.000000 
0.000000 -0.740616 0.000000 
0.578910 0.767980 0.000000 
-0.844677 -0.855857 0.000000 
-0.286830 0.524945 0.000000 
0.268560 0.802586 0.000000 
-0.610485 -0.509684 0.000000 
0.057734 -0.155969 0.000000 
0.714655 0.049198 0.000000 
0.761092 0.759936 0.000000 
0.765897 0.158087 0.000000 
-0.641556 0.416565 0.000000 
-0.677748 -0.797690 0.000000 
0.067979 -0.659486 0.000000 
0.178789 -0.002060 0.000000 
-0.514316 0.464174 0.000000 
0.053800 0.736305 0.000000 
-0.028512 -0.446334 0.000000 
0.647393 -0.238808 0.000000 
0.691820 0.491675 0.000000 
-0.522510 0.590219 0.000000 
-0.393446 -0.774051 0.000000 
0.205471 0.770262 0.000000 
0.760780 -0.951923 0.000000 
0.642413 -0.112942 0.000000 
-0.714996 0.120515 0.000000 
-0.724017 0.896919 0.000000 
0.006894 -0.939448 0.000000 
0.083078 -0.236924 0.000000 
0.897068 -0.170071 0.000000 
-0.965681 0.453958 0.000000 
-0.761262 0.804310 0.000000 
0.142083 -0.056428 0.000000 
0.397202 0.604847 0.000000 
-0.108942 -0.914313 0.000000 
-0.899809 -0.909462 0.000000 
-0.724964 -0.267214 0.000000 
0.660903 0.193306 0.000000 
-0.978194 0.884931 0.000000 
0.595936 -0.615203 0.000000 
0.071546 0.241973 0.000000 
0.220880 0.872898 0.000000 
-0.445811 -0.684316 0.000000 
-0.180633 -0.006156 0.000000 
-0.702895 0.485363 0.000000 
-0.287229 -0.815309 0.000000 
-0.685384 -0.314151 0.000000 
-0.957100 -0.606592 0.000000 
-0.820030 0.017480 0.000000 
0.474522 0.444473 0.000000 
0.699407 -0.888248 0.000000 
0.109248 -0.411492 0.000000 
0.441768 0.283958 0.000000 
-0.039645 0.783830 0.000000 
0.417537 -0.513608 0.000000 
0.033296 -0.013098 0.000000 
-0.338794 0.254176 0.000000 
-0.374519 0.827138 0.000000 
-0.713312 -0.553432 0.000000 
0.609100 -0.664573 0.000000 
-0.381900 -0.550634 0.000000 
-0.756418 -0.008241 0.000000 
0.513962 -0.219727 0.000000 
0.218274 0.504511 0.000000 
-0.423588 0.470408 0.000000 
-0.384386 0.085135 0.000000 
-0.766286 0.599756 0.000000 
0.484677 0.334540 0.000000 
0.139443 0.972665 0.000000 
-0.556234 0.855096 0.000000 
-0.823577 -0.371400 0.000000 
0.550868 -0.382195 0.000000 
-0.386873 0.720904 0.000000 
-0.771260 -0.778706 0.000000 
0.467428 0.914765 0.000000 
0.105264 -0.486608 0.000000 
-0.621631 -0.668508 0.000000 
-0.937896 0.035072 0.000000 
0.385608 -0.044123 0.000000 
0.141715 0.765105 0.000000 
-0.474677 0.765202 0.000000 
CELL_DATA 175 
SCALARS MASS float 
LOOKUP_TABLE default 
0.078183 
0.086427 
0.094672 
0.086427 
0.088131 
0.092111 
0.085854 
0.092111 
0.088131 
0.088705 
0.091000 
0.086983 
0.091556 
0.086983 
0.091000 
0.088705 
0.089278 
0.091574 
0.089278 
0.092722 
0.089278 
0.092722 
0.089278 
0.091574 
0.089278 
0.078183 
0.086427 
0.094672 
0.086427 
0.088131 
0.092111 
0.085854 
0.092111 
0.088131 
0.088705 
0.091000 
0.086983 
0.091556 
0.086983 
0.091000 
0.088705 
0.089278 
0.091574 
0.089278 
0.092722 
0.089278 
0.092722 
0.089278 
0.091574 
0.089278 
0.078183 
0.086427 
0.094672 
0.086427 
0.088131 
0.092111 
0.085854 
0.092111 
0.088131 
0.088705 
0.091000 
0.086983 
0.091556 
0.086983 
0.091000 
0.088705 
0.089278 
0.091574 
0.089278 
0.092722 
0.089278 
0.092722 
0.089278 
0.091574 
0.089278 
0.078183 
0.086427 
0.094672 
0.086427 
0.088131 
0.092111 
0.085854 
0.092111 
0.088131 
0.088705 
0.091000 
0.086983 
0.091556 
0.086983 
0.091000 
0.088705 
0.089278 
0.091574 
0.089278 
0.092722 
0.089278 
0.092722 
0.089278 
0.091574 
0.089278 
0.078183 
0.086427 
0.094672 
0.086427 
0.088131 
0.092111 
0.085854 
0.092111 
0.088131 
0.088705 
0.091000 
0.086983 
0.091556 
0.086983 
0.091000 
0.088705 
0.089278 
0.091574 
0.089278 
0.092722 
0.089278 
0.092722 
0.089278 
0.091574 
0.089278 
0.078183 
0.086427 
0.094672 
0.086427 
0.088131 
0.092111 
0.085854 
0.092111 
0.088131 
0.088705 
0.091000 
0.086983 
0.091556 
0.086983 
0.091000 
0.088705 
0.089278 
0.091574 
0.089278 
0.092722 
0.089278 
0.092722 
0.089278 
0.091574 
0.089278 
0.078183 
0.086427 
0.094672 
0.086427 
0.088131 
0.092111 
0.085854 
0.092111 
0.088131 
0.088705 
0.091000 
0.086983 
0.091556 
0.086983 
0.091000 
0.088705 
0.089278 
0.091574 
0.089278 
0.092722 
0.089278 
0.092722 
0.089278 
0.091574 
0.089278 
SCALARS MASS float 
LOOKUP_TABLE default 
0.078183 
0.086427 
0.094672 
0.086427 
0.088131 
0.092111 
0.085854 
0.092111 
0.088131 
0.088705 
0.091000 
0.086983 
0.091556 
0.086983 
0.091000 
0.088705 
0.089278 
0.091574 
0.089278 
0.092722 
0.089278 
0.092722 
0.089278 
0.091574 
0.089278 
0.078183 
0.086427 
0.094672 
0.086427 
0.088131 
0.092111 
0.085854 
0.092111 
0.088131 
0.088705 
0.091000 
0.086983 
0.091556 
0.086983 
0.091000 
0.088705 
0.089278 
0.091574 
0.089278 
0.092722 
0.089278 
0.092722 
0.089278 
0.091574 
0.089278 
0.078183 
0.086427 
0.094672 
0.086427 
0.088131 
0.092111 
0.085854 
0.092111 
0.088131 
0.088705 
0.091000 
0.086983 
0.091556 
0.086983 
0.091000 
0.088705 
0.089278 
0.091574 
0.089278 
0.092722 
0.089278 
0.092722 
0.089278 
0.091574 
0.089278 
0.078183 
0.086427 
0.094672 
0.086427 
0.088131 
0.092111 
0.085854 
0.092111 
0.088131 
0.088705 
0.091000 
0.086983 
0.091556 
0.086983 
0.091000 
0.088705 
0.089278 
0.091574 
0.089278 
0.092722 
0.089278 
0.092722 
0.089278 
0.091574 
0.089278 
0.078183 
0.086427 
0.094672 
0.086427 
0.088131 
0.092111 
0.085854 
0.092111 
0.088131 
0.088705 
0.091000 
0.086983 
0.091556 
0.086983 
0.091000 
0.088705 
0.089278 
0.091574 
0.089278 
0.092722 
0.089278 
0.092722 
0.089278 
0.091574 
0.089278 
0.078183 
0.086427 
0.094672 
0.086427 
0.088131 
0.092111 
0.085854 
0.092111 
0.088131 
0.088705 
0.091000 
0.086983 
0.091556 
0.086983 
0.091000 
0.088705 
0.089278 
0.091574 
0.089278 
0.092722 
0.089278 
0.092722 
0.089278 
0.091574 
0.089278 
0.078183 
0.086427 
0.094672 
0.086427 
0.088131 
0.092111 
0.085854 
0.092111 
0.088131 
0.088705 
0.091000 
0.086983 
0.091556 
0.086983 
0.091000 
0.088705 
0.089278 
0.091574 
0.089278 
0.092722 
0.089278 
0.092722 
0.089278 
0.091574 
0.089278 
SCALARS DENSITY float 
LOOKUP_TABLE default 
20.000000 
20.000000 
20.000000 
20.000000 
20.000000 
20.000000 
20.000000 
20.000000 
20.000000 
20.000000 
20.000000 
20.000000 
20.000000 
20.000000 
20.000000 
20.000000 
20.000000 
20.000000 
20.000000 
20.000000 
20.000000 
20.000000 
20.000000 
20.000000 
20.000000 
20.000000 
20.000000 
20.000000 
20.000000 
20.000000 
20.000000 
20.000000 
20.000000 
20.000000 
20.000000 
20.000000 
20.000000 
20.000000 
20.000000 
20.000000 
20.000000 
20.000000 
20.000000 
20.000000 
20.000000 
20.000000 
20.000000 
20.000000 
20.000000 
20.000000 
20.000000 
20.000000 
20.000000 
20.000000 
20.000000 
20.000000 
20.000000 
20.000000 
20.000000 
20.000000 
20.000000 
20.000000 
20.000000 
20.000000 
20.000000 
20.000000 
20.000000 
20.000000 
20.000000 
20.000000 
20.000000 
20.000000 
20.000000 
20.000000 
20.000000 
20.000000 
20.000000 
20.000000 
20.000000 
20.000000 
20.000000 
20.000000 
20.000000 
20.000000 
20.000000 
20.000000 
20.000000 
20.000000 
20.000000 
20.000000 
20.000000 
20.000000 
20.000000 
20.000000 
20.000000 
20.000000 
20.000000 
20.000000 
20.000000 
20.000000 
20.000000 
20.000000 
20.000000 
20.000000 
20.000000 
20.000000 
20.000000 
20.000000 
20.000000 
20.000000 
20.000000 
20.000000 
20.000000 
20.000000 
20.000000 
20.000000 
20.000000 
20.000000 
20.000000 
20.000000 
20.000000 
20.000000 
20.000000 
20.000000 
20.000000 
20.000000 
20.000000 
20.000000 
20.000000 
20.000000 
20.000000 
20.000000 
20.000000 
20.000000 
20.000000 
20.000000 
20.000000 
20.000000 
20.000000 
20.000000 
20.000000 
20.000000 
20.000000 
20.000000 
20.000000 
20.000000 
20.000000 
20.000000 
20.000000 
20.000000 
20.000000 
20.000000 
20.000000 
20.000000 
20.000000 
20.000000 
20.000000 
20.000000 
20.000000 
20.000000 
20.000000 
20.000000 
20.000000 
20.000000 
20.000000 
20.000000 
20.000000 
20.000000 
20.000000 
20.000000 
20.000000 
20.000000 
20.000000 
20.000000 
20.000000 
SCALARS ELEM_i float 
LOOKUP_TABLE default 
182 
209 
182 
183 
210 
210 
210 
183 
183 
237 
210 
211 
211 
211 
184 
184 
238 
238 
238 
211 
211 
211 
212 
184 
185 
182 
208 
209 
209 
235 
209 
236 
209 
209 
235 
235 
236 
236 
236 
237 
237 
262 
262 
263 
263 
263 
263 
264 
237 
237 
181 
208 
208 
208 
207 
207 
207 
208 
235 
206 
207 
234 
234 
234 
235 
235 
206 
233 
233 
233 
234 
234 
261 
261 
262 
181 
180 
181 
180 
153 
180 
180 
180 
207 
152 
152 
179 
179 
179 
206 
206 
152 
152 
151 
179 
178 
179 
205 
206 
206 
181 
154 
154 
154 
127 
154 
153 
153 
153 
127 
127 
126 
126 
126 
153 
152 
100 
99 
99 
126 
126 
125 
125 
125 
152 
182 
155 
155 
154 
155 
155 
128 
155 
127 
129 
129 
128 
128 
128 
127 
127 
129 
129 
102 
101 
101 
101 
101 
100 
100 
182 
183 
182 
155 
183 
183 
156 
156 
156 
184 
184 
157 
157 
157 
156 
129 
185 
184 
158 
157 
157 
157 
130 
130 
130 
VECTORS VELOCITY float 
0.000000 -0.838951 0.000000 
0.000000 -0.838951 0.000000 
0.000000 -0.838951 0.000000 
0.000000 -0.838951 0.000000 
0.000000 -0.838951 0.000000 
0.000000 -0.838951 0.000000 
-0.000000 -0.838951 0.000000 
0.000000 -0.838951 0.000000 
0.000000 -0.838951 0.000000 
-0.000000 -0.838951 0.000000 
-0.000000 -0.838951 0.000000 
-0.000000 -0.838951 0.000000 
-0.000000 -0.838951 0.000000 
-0.000000 -0.838951 0.000000 
-0.000000 -0.838951 0.000000 
0.000000 -0.838951 0.000000 
-0.000000 -0.838951 0.000000 
-0.000000 -0.838951 0.000000 
0.000000 -0.838951 0.000000 
-0.000000 -0.838951 0.000000 
-0.000000 -0.838951 0.000000 
0.000000 -0.838951 0.000000 
-0.000000 -0.838951 0.000000 
0.000000 -0.838951 0.000000 
-0.000000 -0.838951 0.000000 
0.000000 -0.838951 0.000000 
-0.000000 -0.838951 0.000000 
0.000000 -0.838951 0.000000 
0.000000 -0.838951 0.000000 
-0.000000 -0.838951 0.000000 
-0.000000 -0.838951 0.000000 
-0.000000 -0.838951 0.000000 
0.000000 -0.838951 0.000000 
0.000000 -0.838951 0.000000 
0.000000 -0.838951 0.000000 
0.000000 -0.838951 0.000000 
0.000000 -0.838951 0.000000 
0.000000 -0.838951 0.000000 
0.000000 -0.838951 0.000000 
0.000000 -0.838951 0.000000 
0.000000 -0.838951 0.000000 
0.000000 -0.838951 0.000000 
0.000000 -0.838951 0.000000 
0.000000 -0.838951 0.000000 
0.000000 -0.838951 0.000000 
-0.000000 -0.838951 0.000000 
0.000000 -0.838951 0.000000 
-0.000000 -0.838951 0.000000 
-0.000000 -0.838951 0.000000 
-0.000000 -0.838951 0.000000 
0.000000 -0.838951 0.000000 
-0.000000 -0.838951 0.000000 
0.000000 -0.838951 0.000000 
0.000000 -0.838951 0.000000 
-0.000000 -0.838951 0.000000 
-0.000000 -0.838951 0.000000 
0.000000 -0.838951 0.000000 
0.000000 -0.838951 0.000000 
0.000000 -0.838951 0.000000 
-0.000000 -0.838951 0.000000 
-0.000000 -0.838951 0.000000 
-0.000000 -0.838951 0.000000 
-0.000000 -0.838951 0.000000 
0.000000 -0.838951 0.000000 
0.000000 -0.838951 0.000000 
0.000000 -0.838951 0.000000 
-0.000000 -0.838951 0.000000 
-0.000000 -0.838951 0.000000 
-0.000000 -0.838951 0.000000 
-0.000000 -0.838951 0.000000 
0.000000 -0.838951 0.000000 
0.000000 -0.838951 0.000000 
-0.000000 -0.838951 0.000000 
0.000000 -0.838951 0.000000 
0.000000 -0.838951 0.000000 
0.000000 -0.838951 0.000000 
0.000000 -0.838951 0.000000 
0.000000 -0.838951 0.000000 
0.000000 -0.838951 0.000000 
-0.000000 -0.838951 0.000000 
0.000000 -0.838951 0.000000 
-0.000000 -0.838951 0.000000 
0.000000 -0.838951 0.000000 
0.000000 -0.838951 0.000000 
-0.000000 -0.838951 0.000000 
-0.000000 -0.838951 0.000000 
-0.000000 -0.838951 0.000000 
-0.000000 -0.838951 0.000000 
-0.000000 -0.838951 0.000000 
0.000000 -0.838951 0.000000 
-0.000000 -0.838951 0.000000 
0.000000 -0.838951 0.000000 
0.000000 -0.838951 0.000000 
-0.000000 -0.838951 0.000000 
0.000000 -0.838951 0.000000 
-0.000000 -0.838951 0.000000 
-0.000000 -0.838951 0.000000 
-0.000000 -0.838951 0.000000 
-0.000000 -0.838951 0.000000 
-0.000000 -0.838951 0.000000 
0.000000 -0.838951 0.000000 
0.000000 -0.838951 0.000000 
0.000000 -0.838951 0.000000 
0.000000 -0.838951 0.000000 
-0.000000 -0.838951 0.000000 
0.000000 -0.838951 0.000000 
0.000000 -0.838951 0.000000 
0.000000 -0.838951 0.000000 
0.000000 -0.838951 0.000000 
0.000000 -0.838951 0.000000 
0.000000 -0.838951 0.000000 
0.000000 -0.838951 0.000000 
-0.000000 -0.838951 0.000000 
-0.000000 -0.838951 0.000000 
-0.000000 -0.838951 0.000000 
-0.000000 -0.838951 0.000000 
-0.000000 -0.838951 0.000000 
-0.000000 -0.838951 0.000000 
-0.000000 -0.838951 0.000000 
0.000000 -0.838951 0.000000 
0.000000 -0.838951 0.000000 
-0.000000 -0.838951 0.000000 
-0.000000 -0.838951 0.000000 
-0.000000 -0.838951 0.000000 
0.000000 -0.838951 0.000000 
0.000000 -0.838951 0.000000 
-0.000000 -0.838951 0.000000 
0.000000 -0.838951 0.000000 
-0.000000 -0.838951 0.000000 
-0.000000 -0.838951 0.000000 
-0.000000 -0.838951 0.000000 
-0.000000 -0.838951 0.000000 
-0.000000 -0.838951 0.000000 
-0.000000 -0.838951 0.000000 
-0.000000 -0.838951 0.000000 
-0.000000 -0.838951 0.000000 
-0.000000 -0.838951 0.000000 
-0.000000 -0.838951 0.000000 
0.000000 -0.838951 0.000000 
0.000000 -0.838951 0.000000 
0.000000 -0.838951 0.000000 
0.000000 -0.838951 0.000000 
-0.000000 -0.838951 0.000000 
0.000000 -0.838951 0.000000 
-0.000000 -0.838951 0.000000 
0.000000 -0.838951 0.000000 
0.000000 -0.838951 0.000000 
0.000000 -0.838951 0.000000 
0.000000 -0.838951 0.000000 
0.000000 -0.838951 0.000000 
0.000000 -0.838951 0.000000 
0.000000 -0.838951 0.000000 
0.000000 -0.838951 0.000000 
-0.000000 -0.838951 0.000000 
0.000000 -0.838951 0.000000 
0.000000 -0.838951 0.000000 
0.000000 -0.838951 0.000000 
-0.000000 -0.838951 0.000000 
-0.000000 -0.838951 0.000000 
-0.000000 -0.838951 0.000000 
0.000000 -0.838951 0.000000 
0.000000 -0.838951 0.000000 
0.000000 -0.838951 0.000000 
-0.000000 -0.838951 0.000000 
-0.000000 -0.838951 0.000000 
-0.000000 -0.838951 0.000000 
-0.000000 -0.838951 0.000000 
-0.000000 -0.838951 0.000000 
0.000000 -0.838951 0.000000 
0.000000 -0.838951 0.000000 
0.000000 -0.838951 0.000000 
0.000000 -0.838951 0.000000 
0.000000 -0.838951 0.000000 
-0.000000 -0.838951 0.000000 
0.000000 -0.838951 0.000000 
TENSORS STRESS float 
-0.000000 0.000000 0.000000 
0.000000 0.000000 0.000000 
0.000000 0.000000 0.000000 

0.000000 0.000000 0.000000 
0.000000 0.000000 0.000000 
0.000000 0.000000 0.000000 

-0.000000 0.000000 0.000000 
0.000000 -0.000000 0.000000 
0.000000 0.000000 0.000000 

-0.000000 0.000000 0.000000 
0.000000 0.000000 0.000000 
0.000000 0.000000 0.000000 

0.000000 -0.000000 0.000000 
0.000000 0.000000 0.000000 
0.000000 0.000000 0.000000 

0.000000 -0.000000 0.000000 
0.000000 0.000000 0.000000 
0.000000 0.000000 0.000000 

0.000000 -0.000000 0.000000 
0.000000 0.000000 0.000000 
0.000000 0.000000 0.000000 

-0.000000 0.000000 0.000000 
0.000000 -0.000000 0.000000 
0.000000 0.000000 0.000000 

-0.000000 0.000000 0.000000 
0.000000 0.000000 0.000000 
0.000000 0.000000 0.000000 

0.000000 -0.000000 0.000000 
0.000000 0.000000 0.000000 
0.000000 0.000000 0.000000 

0.000000 -0.000000 0.000000 
0.000000 0.000000 0.000000 
0.000000 0.000000 0.000000 

0.000000 -0.000000 0.000000 
0.000000 -0.000000 0.000000 
0.000000 0.000000 0.000000 

0.000000 -0.000000 0.000000 
0.000000 -0.000000 0.000000 
0.000000 0.000000 0.000000 

0.000000 -0.000000 0.000000 
0.000000 0.000000 0.000000 
0.000000 0.000000 0.000000 

0.000000 -0.000000 0.000000 
0.000000 0.000000 0.000000 
0.000000 0.000000 0.000000 

0.000000 -0.000000 0.000000 
0.000000 -0.000000 0.000000 
0.000000 0.000000 0.000000 

-0.000000 0.000000 0.000000 
0.000000 -0.000000 0.000000 
0.000000 0.000000 0.000000 

-0.000000 0.000000 0.000000 
0.000000 -0.000000 0.000000 
0.000000 0.000000 0.000000 

-0.000000 -0.000000 0.000000 
0.000000 -0.000000 0.000000 
0.000000 0.000000 0.000000 

-0.000000 -0.000000 0.000000 
0.000000 -0.000000 0.000000 
0.000000 0.000000 0.000000 

0.000000 -0.000000 0.000000 
0.000000 0.000000 0.000000 
0.000000 0.000000 0.000000 

-0.000000 -0.000000 0.000000 
0.000000 -0.000000 0.000000 
0.000000 0.000000 0.000000 

-0.000000 -0.000000 0.000000 
0.000000 -0.000000 0.000000 
0.000000 0.000000 0.000000 

0.000000 0.000000 0.000000 
0.000000 0.000000 0.000000 
0.000000 0.000000 0.000000 

0.000000 -0.000000 0.000000 
0.000000 0.000000 0.000000 
0.000000 0.000000 0.000000 

0.000000 0.000000 0.000000 
0.000000 0.000000 0.000000 
0.000000 0.000000 0.000000 

-0.000000 -0.000000 0.000000 
0.000000 0.000000 0.000000 
0.000000 0.000000 0.000000 

0.000000 0.000000 0.000000 
0.000000 0.000000 0.000000 
0.000000 0.000000 0.000000 

0.000000 0.000000 0.000000 
0.000000 0.000000 0.000000 
0.000000 0.000000 0.000000 

-0.000000 0.000000 0.000000 
0.000000 -0.000000 0.000000 
0.000000 0.000000 0.000000 

-0.000000 -0.000000 0.000000 
0.000000 -0.000000 0.000000 
0.000000 0.000000 0.000000 

-0.000000 -0.000000 0.000000 
0.000000 -0.000000 0.000000 
0.000000 0.000000 0.000000 

0.000000 0.000000 0.000000 
0.000000 0.000000 0.000000 
0.000000 0.000000 0.000000 

0.000000 -0.000000 0.000000 
0.000000 -0.000000 0.000000 
0.000000 0.000000 0.000000 

-0.000000 0.000000 0.000000 
0.000000 -0.000000 0.000000 
0.000000 0.000000 0.000000 

-0.000000 0.000000 0.000000 
0.000000 -0.000000 0.000000 
0.000000 0.000000 0.000000 

-0.000000 -0.000000 0.000000 
0.000000 0.000000 0.000000 
0.000000 0.000000 0.000000 

-0.000000 -0.000000 0.000000 
0.000000 -0.000000 0.000000 
0.000000 0.000000 0.000000 

-0.000000 -0.000000 0.000000 
0.000000 -0.000000 0.000000 
0.000000 0.000000 0.000000 

0.000000 -0.000000 0.000000 
0.000000 0.000000 0.000000 
0.000000 0.000000 0.000000 

0.000000 -0.000000 0.000000 
0.000000 0.000000 0.000000 
0.000000 0.000000 0.000000 

-0.000000 0.000000 0.000000 
0.000000 -0.000000 0.000000 
0.000000 0.000000 0.000000 

-0.000000 0.000000 0.000000 
0.000000 -0.000000 0.000000 
0.000000 0.000000 0.000000 

0.000000 -0.000000 0.000000 
0.000000 0.000000 0.000000 
0.000000 0.000000 0.000000 

0.000000 -0.000000 0.000000 
0.000000 0.000000 0.000000 
0.000000 0.000000 0.000000 

0.000000 -0.000000 0.000000 
0.000000 0.000000 0.000000 
0.000000 0.000000 0.000000 

0.000000 -0.000000 0.000000 
0.000000 0.000000 0.000000 
0.000000 0.000000 0.000000 

-0.000000 0.000000 0.000000 
0.000000 -0.000000 0.000000 
0.000000 0.000000 0.000000 

0.000000 -0.000000 0.000000 
0.000000 0.000000 0.000000 
0.000000 0.000000 0.000000 

0.000000 -0.000000 0.000000 
0.000000 0.000000 0.000000 
0.000000 0.000000 0.000000 

0.000000 -0.000000 0.000000 
0.000000 0.000000 0.000000 
0.000000 0.000000 0.000000 

0.000000 -0.000000 0.000000 
0.000000 0.000000 0.000000 
0.000000 0.000000 0.000000 

0.000000 -0.000000 0.000000 
0.000000 0.000000 0.000000 
0.000000 0.000000 0.000000 

-0.000000 -0.000000 0.000000 
0.000000 0.000000 0.000000 
0.000000 0.000000 0.000000 

0.000000 -0.000000 0.000000 
0.000000 0.000000 0.000000 
0.000000 0.000000 0.000000 

0.000000 -0.000000 0.000000 
0.000000 -0.000000 0.000000 
0.000000 0.000000 0.000000 

0.000000 -0.000000 0.000000 
0.000000 0.000000 0.000000 
0.000000 0.000000 0.000000 

-0.000000 -0.000000 0.000000 
0.000000 -0.000000 0.000000 
0.000000 0.000000 0.000000 

-0.000000 0.000000 0.000000 
0.000000 -0.000000 0.000000 
0.000000 0.000000 0.000000 

0.000000 0.000000 0.000000 
0.000000 0.000000 0.000000 
0.000000 0.000000 0.000000 

0.000000 0.000000 0.000000 
0.000000 0.000000 0.000000 
0.000000 0.000000 0.000000 

0.000000 -0.000000 0.000000 
0.000000 0.000000 0.000000 
0.000000 0.000000 0.000000 

0.000000 -0.000000 0.000000 
0.000000 0.000000 0.000000 
0.000000 0.000000 0.000000 

0.000000 -0.000000 0.000000 
0.000000 0.000000 0.000000 
0.000000 0.000000 0.000000 

0.000000 0.000000 0.000000 
0.000000 -0.000000 0.000000 
0.000000 0.000000 0.000000 

-0.000000 0.000000 0.000000 
0.000000 -0.000000 0.000000 
0.000000 0.000000 0.000000 

0.000000 0.000000 0.000000 
0.000000 0.000000 0.000000 
0.000000 0.000000 0.000000 

0.000000 -0.000000 0.000000 
0.000000 0.000000 0.000000 
0.000000 0.000000 0.000000 

0.000000 -0.000000 0.000000 
0.000000 -0.000000 0.000000 
0.000000 0.000000 0.000000 

-0.000000 -0.000000 0.000000 
0.000000 -0.000000 0.000000 
0.000000 0.000000 0.000000 

0.000000 -0.000000 0.000000 
0.000000 0.000000 0.000000 
0.000000 0.000000 0.000000 

0.000000 -0.000000 0.000000 
0.000000 -0.000000 0.000000 
0.000000 0.000000 0.000000 

0.000000 -0.000000 0.000000 
0.000000 -0.000000 0.000000 
0.000000 0.000000 0.000000 

-0.000000 -0.000000 0.000000 
0.000000 0.000000 0.000000 
0.000000 0.000000 0.000000 

-0.000000 0.000000 0.000000 
0.000000 -0.000000 0.000000 
0.000000 0.000000 0.000000 

-0.000000 0.000000 0.000000 
0.000000 -0.000000 0.000000 
0.000000 0.000000 0.000000 

-0.000000 -0.000000 0.000000 
0.000000 0.000000 0.000000 
0.000000 0.000000 0.000000 

-0.000000 0.000000 0.000000 
0.000000 -0.000000 0.000000 
0.000000 0.000000 0.000000 

-0.000000 0.000000 0.000000 
0.000000 -0.000000 0.000000 
0.000000 0.000000 0.000000 

0.000000 -0.000000 0.000000 
0.000000 -0.000000 0.000000 
0.000000 0.000000 0.000000 

-0.000000 0.000000 0.000000 
0.000000 -0.000000 0.000000 
0.000000 0.000000 0.000000 

0.000000 0.000000 0.000000 
0.000000 0.000000 0.000000 
0.000000 0.000000 0.000000 

-0.000000 0.000000 0.000000 
0.000000 -0.000000 0.000000 
0.000000 0.000000 0.000000 

0.000000 -0.000000 0.000000 
0.000000 0.000000 0.000000 
0.000000 0.000000 0.000000 

-0.000000 0.000000 0.000000 
0.000000 -0.000000 0.000000 
0.000000 0.000000 0.000000 

0.000000 -0.000000 0.000000 
0.000000 0.000000 0.000000 
0.000000 0.000000 0.000000 

0.000000 0.000000 0.000000 
0.000000 0.000000 0.000000 
0.000000 0.000000 0.000000 

0.000000 0.000000 0.000000 
0.000000 0.000000 0.000000 
0.000000 0.000000 0.000000 

0.000000 0.000000 0.000000 
0.000000 0.000000 0.000000 
0.000000 0.000000 0.000000 

0.000000 0.000000 0.000000 
0.000000 0.000000 0.000000 
0.000000 0.000000 0.000000 

-0.000000 0.000000 0.000000 
0.000000 -0.000000 0.000000 
0.000000 0.000000 0.000000 

-0.000000 0.000000 0.000000 
0.000000 -0.000000 0.000000 
0.000000 0.000000 0.000000 

0.000000 0.000000 0.000000 
0.000000 0.000000 0.000000 
0.000000 0.000000 0.000000 

-0.000000 0.000000 0.000000 
0.000000 -0.000000 0.000000 
0.000000 0.000000 0.000000 

-0.000000 0.000000 0.000000 
0.000000 -0.000000 0.000000 
0.000000 0.000000 0.000000 

-0.000000 0.000000 0.000000 
0.000000 -0.000000 0.000000 
0.000000 0.000000 0.000000 

-0.000000 0.000000 0.000000 
0.000000 -0.000000 0.000000 
0.000000 0.000000 0.000000 

-0.000000 -0.000000 0.000000 
0.000000 -0.000000 0.000000 
0.000000 0.000000 0.000000 

-0.000000 0.000000 0.000000 
0.000000 0.000000 0.000000 
0.000000 0.000000 0.000000 

0.000000 0.000000 0.000000 
0.000000 0.000000 0.000000 
0.000000 0.000000 0.000000 

-0.000000 0.000000 0.000000 
0.000000 -0.000000 0.000000 
0.000000 0.000000 0.000000 

0.000000 0.000000 0.000000 
0.000000 0.000000 0.000000 
0.000000 0.000000 0.000000 

-0.000000 -0.000000 0.000000 
0.000000 -0.000000 0.000000 
0.000000 0.000000 0.000000 

0.000000 -0.000000 0.000000 
0.000000 -0.000000 0.000000 
0.000000 0.000000 0.000000 

0.000000 0.000000 0.000000 
0.000000 0.000000 0.000000 
0.000000 0.000000 0.000000 

0.000000 -0.000000 0.000000 
0.000000 0.000000 0.000000 
0.000000 0.000000 0.000000 

0.000000 -0.000000 0.000000 
0.000000 0.000000 0.000000 
0.000000 0.000000 0.000000 

0.000000 -0.000000 0.000000 
0.000000 0.000000 0.000000 
0.000000 0.000000 0.000000 

0.000000 -0.000000 0.000000 
0.000000 0.000000 0.000000 
0.000000 0.000000 0.000000 

-0.000000 0.000000 0.000000 
0.000000 -0.000000 0.000000 
0.000000 0.000000 0.000000 

-0.000000 0.000000 0.000000 
0.000000 0.000000 0.000000 
0.000000 0.000000 0.000000 

-0.000000 0.000000 0.000000 
0.000000 0.000000 0.000000 
0.000000 0.000000 0.000000 

-0.000000 0.000000 0.000000 
0.000000 -0.000000 0.000000 
0.000000 0.000000 0.000000 

-0.000000 0.000000 0.000000 
0.000000 -0.000000 0.000000 
0.000000 0.000000 0.000000 

0.000000 -0.000000 0.000000 
0.000000 -0.000000 0.000000 
0.000000 0.000000 0.000000 

-0.000000 0.000000 0.000000 
0.000000 -0.000000 0.000000 
0.000000 0.000000 0.000000 

-0.000000 0.000000 0.000000 
0.000000 -0.000000 0.000000 
0.000000 0.000000 0.000000 

0.000000 0.000000 0.000000 
0.000000 0.000000 0.000000 
0.000000 0.000000 0.000000 

0.000000 -0.000000 0.000000 
0.000000 0.000000 0.000000 
0.000000 0.000000 0.000000 

0.000000 0.000000 0.000000 
0.000000 0.000000 0.000000 
0.000000 0.000000 0.000000 

0.000000 -0.000000 0.000000 
0.000000 0.000000 0.000000 
0.000000 0.000000 0.000000 

-0.000000 -0.000000 0.000000 
0.000000 -0.000000 0.000000 
0.000000 0.000000 0.000000 

-0.000000 -0.000000 0.000000 
0.000000 -0.000000 0.000000 
0.000000 0.000000 0.000000 

-0.000000 -0.000000 0.000000 
0.000000 -0.000000 0.000000 
0.000000 0.000000 0.000000 

-0.000000 0.000000 0.000000 
0.000000 -0.000000 0.000000 
0.000000 0.000000 0.000000 

0.000000 0.000000 0.000000 
0.000000 0.000000 0.000000 
0.000000 0.000000 0.000000 

-0.000000 0.000000 0.000000 
0.000000 0.000000 0.000000 
0.000000 0.000000 0.000000 

0.000000 0.000000 0.000000 
0.000000 0.000000 0.000000 
0.000000 0.000000 0.000000 

0.000000 0.000000 0.000000 
0.000000 0.000000 0.000000 
0.000000 0.000000 0.000000 

-0.000000 -0.000000 0.000000 
0.000000 -0.000000 0.000000 
0.000000 0.000000 0.000000 

-0.000000 0.000000 0.000000 
0.000000 -0.000000 0.000000 
0.000000 0.000000 0.000000 

-0.000000 -0.000000 0.000000 
0.000000 -0.000000 0.000000 
0.000000 0.000000 0.000000 

-0.000000 -0.000000 0.000000 
0.000000 -0.000000 0.000000 
0.000000 0.000000 0.000000 

0.000000 -0.000000 0.000000 
0.000000 0.000000 0.000000 
0.000000 0.000000 0.000000 

0.000000 0.000000 0.000000 
0.000000 0.000000 0.000000 
0.000000 0.000000 0.000000 

0.000000 0.000000 0.000000 
0.000000 0.000000 0.000000 
0.000000 0.000000 0.000000 

-0.000000 -0.000000 0.000000 
0.000000 -0.000000 0.000000 
0.000000 0.000000 0.000000 

0.000000 -0.000000 0.000000 
0.000000 0.000000 0.000000 
0.000000 0.000000 0.000000 

-0.000000 -0.000000 0.000000 
0.000000 -0.000000 0.000000 
0.000000 0.000000 0.000000 

-0.000000 -0.000000 0.000000 
0.000000 -0.000000 0.000000 
0.000000 0.000000 0.000000 

-0.000000 0.000000 0.000000 
0.000000 -0.000000 0.000000 
0.000000 0.000000 0.000000 

-0.000000 0.000000 0.000000 
0.000000 0.000000 0.000000 
0.000000 0.000000 0.000000 

-0.000000 -0.000000 0.000000 
0.000000 0.000000 0.000000 
0.000000 0.000000 0.000000 

0.000000 0.000000 0.000000 
0.000000 -0.000000 0.000000 
0.000000 0.000000 0.000000 

-0.000000 0.000000 0.000000 
0.000000 -0.000000 0.000000 
0.000000 0.000000 0.000000 

-0.000000 0.000000 0.000000 
0.000000 0.000000 0.000000 
0.000000 0.000000 0.000000 

-0.000000 -0.000000 0.000000 
0.000000 -0.000000 0.000000 
0.000000 0.000000 0.000000 

-0.000000 -0.000000 0.000000 
0.000000 0.000000 0.000000 
0.000000 0.000000 0.000000 

-0.000000 0.000000 0.000000 
0.000000 -0.000000 0.000000 
0.000000 0.000000 0.000000 

-0.000000 0.000000 0.000000 
0.000000 -0.000000 0.000000 
0.000000 0.000000 0.000000 

-0.000000 0.000000 0.000000 
0.000000 0.000000 0.000000 
0.000000 0.000000 0.000000 

-0.000000 0.000000 0.000000 
0.000000 0.000000 0.000000 
0.000000 0.000000 0.000000 

-0.000000 0.000000 0.000000 
0.000000 -0.000000 0.000000 
0.000000 0.000000 0.000000 

-0.000000 0.000000 0.000000 
0.000000 -0.000000 0.000000 
0.000000 0.000000 0.000000 

0.000000 0.000000 0.000000 
0.000000 0.000000 0.000000 
0.000000 0.000000 0.000000 

0.000000 0.000000 0.000000 
0.000000 0.000000 0.000000 
0.000000 0.000000 0.000000 

-0.000000 0.000000 0.000000 
0.000000 0.000000 0.000000 
0.000000 0.000000 0.000000 

0.000000 0.000000 0.000000 
0.000000 0.000000 0.000000 
0.000000 0.000000 0.000000 

-0.000000 0.000000 0.000000 
0.000000 0.000000 0.000000 
0.000000 0.000000 0.000000 

-0.000000 -0.000000 0.000000 
0.000000 -0.000000 0.000000 
0.000000 0.000000 0.000000 

-0.000000 0.000000 0.000000 
0.000000 -0.000000 0.000000 
0.000000 0.000000 0.000000 

-0.000000 -0.000000 0.000000 
0.000000 -0.000000 0.000000 
0.000000 0.000000 0.000000 

-0.000000 -0.000000 0.000000 
0.000000 -0.000000 0.000000 
0.000000 0.000000 0.000000 

-0.000000 -0.000000 0.000000 
0.000000 0.000000 0.000000 
0.000000 0.000000 0.000000 

-0.000000 0.000000 0.000000 
0.000000 0.000000 0.000000 
0.000000 0.000000 0.000000 

-0.000000 0.000000 0.000000 
0.000000 0.000000 0.000000 
0.000000 0.000000 0.000000 

0.000000 0.000000 0.000000 
0.000000 0.000000 0.000000 
0.000000 0.000000 0.000000 

0.000000 0.000000 0.000000 
0.000000 0.000000 0.000000 
0.000000 0.000000 0.000000 

0.000000 -0.000000 0.000000 
0.000000 0.000000 0.000000 
0.000000 0.000000 0.000000 

-0.000000 -0.000000 0.000000 
0.000000 -0.000000 0.000000 
0.000000 0.000000 0.000000 

-0.000000 0.000000 0.000000 
0.000000 -0.000000 0.000000 
0.000000 0.000000 0.000000 

-0.000000 0.000000 0.000000 
0.000000 0.000000 0.000000 
0.000000 0.000000 0.000000 

0.000000 -0.000000 0.000000 
0.000000 -0.000000 0.000000 
0.000000 0.000000 0.000000 

-0.000000 -0.000000 0.000000 
0.000000 -0.000000 0.000000 
0.000000 0.000000 0.000000 

-0.000000 0.000000 0.000000 
0.000000 -0.000000 0.000000 
0.000000 0.000000 0.000000 

TENSORS STRAIN float 
-0.000000 0.000000 0.000000 
0.000000 0.000000 0.000000 
0.000000 0.000000 0.000000 

0.000000 0.000000 0.000000 
0.000000 0.000000 0.000000 
0.000000 0.000000 0.000000 

-0.000000 0.000000 0.000000 
0.000000 0.000000 0.000000 
0.000000 0.000000 0.000000 

-0.000000 0.000000 0.000000 
0.000000 0.000000 0.000000 
0.000000 0.000000 0.000000 

0.000000 -0.000000 0.000000 
0.000000 0.000000 0.000000 
0.000000 0.000000 0.000000 

0.000000 -0.000000 0.000000 
0.000000 0.000000 0.000000 
0.000000 0.000000 0.000000 

0.000000 -0.000000 0.000000 
0.000000 0.000000 0.000000 
0.000000 0.000000 0.000000 

-0.000000 0.000000 0.000000 
0.000000 0.000000 0.000000 
0.000000 0.000000 0.000000 

-0.000000 0.000000 0.000000 
0.000000 0.000000 0.000000 
0.000000 0.000000 0.000000 

-0.000000 -0.000000 0.000000 
0.000000 0.000000 0.000000 
0.000000 0.000000 0.000000 

0.000000 -0.000000 0.000000 
0.000000 0.000000 0.000000 
0.000000 0.000000 0.000000 

0.000000 -0.000000 0.000000 
0.000000 -0.000000 0.000000 
0.000000 0.000000 0.000000 

0.000000 -0.000000 0.000000 
0.000000 -0.000000 0.000000 
0.000000 0.000000 0.000000 

0.000000 -0.000000 0.000000 
0.000000 0.000000 0.000000 
0.000000 0.000000 0.000000 

-0.000000 -0.000000 0.000000 
0.000000 0.000000 0.000000 
0.000000 0.000000 0.000000 

0.000000 -0.000000 0.000000 
0.000000 -0.000000 0.000000 
0.000000 0.000000 0.000000 

-0.000000 0.000000 0.000000 
0.000000 -0.000000 0.000000 
0.000000 0.000000 0.000000 

-0.000000 0.000000 0.000000 
0.000000 -0.000000 0.000000 
0.000000 0.000000 0.000000 

-0.000000 -0.000000 0.000000 
0.000000 -0.000000 0.000000 
0.000000 0.000000 0.000000 

0.000000 -0.000000 0.000000 
0.000000 -0.000000 0.000000 
0.000000 0.000000 0.000000 

0.000000 -0.000000 0.000000 
0.000000 0.000000 0.000000 
0.000000 0.000000 0.000000 

0.000000 -0.000000 0.000000 
0.000000 -0.000000 0.000000 
0.000000 0.000000 0.000000 

-0.000000 -0.000000 0.000000 
0.000000 -0.000000 0.000000 
0.000000 0.000000 0.000000 

0.000000 0.000000 0.000000 
0.000000 0.000000 0.000000 
0.000000 0.000000 0.000000 

0.000000 -0.000000 0.000000 
0.000000 0.000000 0.000000 
0.000000 0.000000 0.000000 

0.000000 0.000000 0.000000 
0.000000 0.000000 0.000000 
0.000000 0.000000 0.000000 

-0.000000 -0.000000 0.000000 
0.000000 0.000000 0.000000 
0.000000 0.000000 0.000000 

-0.000000 0.000000 0.000000 
0.000000 0.000000 0.000000 
0.000000 0.000000 0.000000 

0.000000 0.000000 0.000000 
0.000000 0.000000 0.000000 
0.000000 0.000000 0.000000 

-0.000000 0.000000 0.000000 
0.000000 -0.000000 0.000000 
0.000000 0.000000 0.000000 

-0.000000 -0.000000 0.000000 
0.000000 -0.000000 0.000000 
0.000000 0.000000 0.000000 

-0.000000 -0.000000 0.000000 
0.000000 -0.000000 0.000000 
0.000000 0.000000 0.000000 

0.000000 0.000000 0.000000 
0.000000 -0.000000 0.000000 
0.000000 0.000000 0.000000 

0.000000 -0.000000 0.000000 
0.000000 -0.000000 0.000000 
0.000000 0.000000 0.000000 

-0.000000 0.000000 0.000000 
0.000000 -0.000000 0.000000 
0.000000 0.000000 0.000000 

-0.000000 0.000000 0.000000 
0.000000 -0.000000 0.000000 
0.000000 0.000000 0.000000 

-0.000000 -0.000000 0.000000 
0.000000 0.000000 0.000000 
0.000000 0.000000 0.000000 

-0.000000 -0.000000 0.000000 
0.000000 -0.000000 0.000000 
0.000000 0.000000 0.000000 

-0.000000 -0.000000 0.000000 
0.000000 -0.000000 0.000000 
0.000000 0.000000 0.000000 

-0.000000 -0.000000 0.000000 
0.000000 0.000000 0.000000 
0.000000 0.000000 0.000000 

-0.000000 -0.000000 0.000000 
0.000000 0.000000 0.000000 
0.000000 0.000000 0.000000 

-0.000000 0.000000 0.000000 
0.000000 -0.000000 0.000000 
0.000000 0.000000 0.000000 

-0.000000 0.000000 0.000000 
0.000000 -0.000000 0.000000 
0.000000 0.000000 0.000000 

0.000000 -0.000000 0.000000 
0.000000 0.000000 0.000000 
0.000000 0.000000 0.000000 

0.000000 -0.000000 0.000000 
0.000000 -0.000000 0.000000 
0.000000 0.000000 0.000000 

0.000000 -0.000000 0.000000 
0.000000 0.000000 0.000000 
0.000000 0.000000 0.000000 

0.000000 -0.000000 0.000000 
0.000000 0.000000 0.000000 
0.000000 0.000000 0.000000 

-0.000000 0.000000 0.000000 
0.000000 -0.000000 0.000000 
0.000000 0.000000 0.000000 

-0.000000 -0.000000 0.000000 
0.000000 0.000000 0.000000 
0.000000 0.000000 0.000000 

0.000000 -0.000000 0.000000 
0.000000 0.000000 0.000000 
0.000000 0.000000 0.000000 

0.000000 -0.000000 0.000000 
0.000000 0.000000 0.000000 
0.000000 0.000000 0.000000 

0.000000 -0.000000 0.000000 
0.000000 0.000000 0.000000 
0.000000 0.000000 0.000000 

-0.000000 -0.000000 0.000000 
0.000000 0.000000 0.000000 
0.000000 0.000000 0.000000 

-0.000000 -0.000000 0.000000 
0.000000 0.000000 0.000000 
0.000000 0.000000 0.000000 

0.000000 -0.000000 0.000000 
0.000000 0.000000 0.000000 
0.000000 0.000000 0.000000 

0.000000 -0.000000 0.000000 
0.000000 -0.000000 0.000000 
0.000000 0.000000 0.000000 

0.000000 -0.000000 0.000000 
0.000000 0.000000 0.000000 
0.000000 0.000000 0.000000 

0.000000 -0.000000 0.000000 
0.000000 -0.000000 0.000000 
0.000000 0.000000 0.000000 

-0.000000 0.000000 0.000000 
0.000000 -0.000000 0.000000 
0.000000 0.000000 0.000000 

0.000000 0.000000 0.000000 
0.000000 -0.000000 0.000000 
0.000000 0.000000 0.000000 

0.000000 0.000000 0.000000 
0.000000 0.000000 0.000000 
0.000000 0.000000 0.000000 

0.000000 -0.000000 0.000000 
0.000000 0.000000 0.000000 
0.000000 0.000000 0.000000 

0.000000 -0.000000 0.000000 
0.000000 0.000000 0.000000 
0.000000 0.000000 0.000000 

0.000000 -0.000000 0.000000 
0.000000 0.000000 0.000000 
0.000000 0.000000 0.000000 

0.000000 0.000000 0.000000 
0.000000 -0.000000 0.000000 
0.000000 0.000000 0.000000 

0.000000 0.000000 0.000000 
0.000000 -0.000000 0.000000 
0.000000 0.000000 0.000000 

-0.000000 0.000000 0.000000 
0.000000 0.000000 0.000000 
0.000000 0.000000 0.000000 

0.000000 -0.000000 0.000000 
0.000000 0.000000 0.000000 
0.000000 0.000000 0.000000 

0.000000 -0.000000 0.000000 
0.000000 -0.000000 0.000000 
0.000000 0.000000 0.000000 

-0.000000 -0.000000 0.000000 
0.000000 -0.000000 0.000000 
0.000000 0.000000 0.000000 

-0.000000 -0.000000 0.000000 
0.000000 0.000000 0.000000 
0.000000 0.000000 0.000000 

0.000000 -0.000000 0.000000 
0.000000 -0.000000 0.000000 
0.000000 0.000000 0.000000 

0.000000 -0.000000 0.000000 
0.000000 -0.000000 0.000000 
0.000000 0.000000 0.000000 

-0.000000 -0.000000 0.000000 
0.000000 0.000000 0.000000 
0.000000 0.000000 0.000000 

-0.000000 0.000000 0.000000 
0.000000 -0.000000 0.000000 
0.000000 0.000000 0.000000 

0.000000 0.000000 0.000000 
0.000000 -0.000000 0.000000 
0.000000 0.000000 0.000000 

-0.000000 -0.000000 0.000000 
0.000000 0.000000 0.000000 
0.000000 0.000000 0.000000 

-0.000000 0.000000 0.000000 
0.000000 -0.000000 0.000000 
0.000000 0.000000 0.000000 

-0.000000 0.000000 0.000000 
0.000000 -0.000000 0.000000 
0.000000 0.000000 0.000000 

0.000000 -0.000000 0.000000 
0.000000 -0.000000 0.000000 
0.000000 0.000000 0.000000 

-0.000000 0.000000 0.000000 
0.000000 -0.000000 0.000000 
0.000000 0.000000 0.000000 

-0.000000 0.000000 0.000000 
0.000000 0.000000 0.000000 
0.000000 0.000000 0.000000 

-0.000000 0.000000 0.000000 
0.000000 -0.000000 0.000000 
0.000000 0.000000 0.000000 

0.000000 -0.000000 0.000000 
0.000000 -0.000000 0.000000 
0.000000 0.000000 0.000000 

-0.000000 0.000000 0.000000 
0.000000 -0.000000 0.000000 
0.000000 0.000000 0.000000 

0.000000 -0.000000 0.000000 
0.000000 0.000000 0.000000 
0.000000 0.000000 0.000000 

0.000000 0.000000 0.000000 
0.000000 0.000000 0.000000 
0.000000 0.000000 0.000000 

-0.000000 0.000000 0.000000 
0.000000 0.000000 0.000000 
0.000000 0.000000 0.000000 

0.000000 0.000000 0.000000 
0.000000 0.000000 0.000000 
0.000000 0.000000 0.000000 

0.000000 0.000000 0.000000 
0.000000 0.000000 0.000000 
0.000000 0.000000 0.000000 

0.000000 0.000000 0.000000 
0.000000 -0.000000 0.000000 
0.000000 0.000000 0.000000 

-0.000000 0.000000 0.000000 
0.000000 -0.000000 0.000000 
0.000000 0.000000 0.000000 

-0.000000 0.000000 0.000000 
0.000000 0.000000 0.000000 
0.000000 0.000000 0.000000 

-0.000000 0.000000 0.000000 
0.000000 -0.000000 0.000000 
0.000000 0.000000 0.000000 

0.000000 0.000000 0.000000 
0.000000 -0.000000 0.000000 
0.000000 0.000000 0.000000 

-0.000000 0.000000 0.000000 
0.000000 -0.000000 0.000000 
0.000000 0.000000 0.000000 

0.000000 0.000000 0.000000 
0.000000 -0.000000 0.000000 
0.000000 0.000000 0.000000 

-0.000000 -0.000000 0.000000 
0.000000 -0.000000 0.000000 
0.000000 0.000000 0.000000 

-0.000000 0.000000 0.000000 
0.000000 0.000000 0.000000 
0.000000 0.000000 0.000000 

-0.000000 0.000000 0.000000 
0.000000 0.000000 0.000000 
0.000000 0.000000 0.000000 

0.000000 0.000000 0.000000 
0.000000 -0.000000 0.000000 
0.000000 0.000000 0.000000 

0.000000 0.000000 0.000000 
0.000000 -0.000000 0.000000 
0.000000 0.000000 0.000000 

0.000000 -0.000000 0.000000 
0.000000 -0.000000 0.000000 
0.000000 0.000000 0.000000 

0.000000 -0.000000 0.000000 
0.000000 -0.000000 0.000000 
0.000000 0.000000 0.000000 

-0.000000 0.000000 0.000000 
0.000000 0.000000 0.000000 
0.000000 0.000000 0.000000 

0.000000 -0.000000 0.000000 
0.000000 0.000000 0.000000 
0.000000 0.000000 0.000000 

0.000000 -0.000000 0.000000 
0.000000 -0.000000 0.000000 
0.000000 0.000000 0.000000 

0.000000 -0.000000 0.000000 
0.000000 -0.000000 0.000000 
0.000000 0.000000 0.000000 

0.000000 -0.000000 0.000000 
0.000000 -0.000000 0.000000 
0.000000 0.000000 0.000000 

-0.000000 0.000000 0.000000 
0.000000 -0.000000 0.000000 
0.000000 0.000000 0.000000 

-0.000000 0.000000 0.000000 
0.000000 0.000000 0.000000 
0.000000 0.000000 0.000000 

-0.000000 0.000000 0.000000 
0.000000 0.000000 0.000000 
0.000000 0.000000 0.000000 

-0.000000 0.000000 0.000000 
0.000000 -0.000000 0.000000 
0.000000 0.000000 0.000000 

-0.000000 0.000000 0.000000 
0.000000 -0.000000 0.000000 
0.000000 0.000000 0.000000 

0.000000 -0.000000 0.000000 
0.000000 -0.000000 0.000000 
0.000000 0.000000 0.000000 

0.000000 0.000000 0.000000 
0.000000 -0.000000 0.000000 
0.000000 0.000000 0.000000 

-0.000000 0.000000 0.000000 
0.000000 0.000000 0.000000 
0.000000 0.000000 0.000000 

-0.000000 0.000000 0.000000 
0.000000 0.000000 0.000000 
0.000000 0.000000 0.000000 

0.000000 -0.000000 0.000000 
0.000000 0.000000 0.000000 
0.000000 0.000000 0.000000 

-0.000000 0.000000 0.000000 
0.000000 0.000000 0.000000 
0.000000 0.000000 0.000000 

-0.000000 -0.000000 0.000000 
0.000000 0.000000 0.000000 
0.000000 0.000000 0.000000 

-0.000000 -0.000000 0.000000 
0.000000 -0.000000 0.000000 
0.000000 0.000000 0.000000 

-0.000000 -0.000000 0.000000 
0.000000 -0.000000 0.000000 
0.000000 0.000000 0.000000 

-0.000000 -0.000000 0.000000 
0.000000 -0.000000 0.000000 
0.000000 0.000000 0.000000 

-0.000000 0.000000 0.000000 
0.000000 -0.000000 0.000000 
0.000000 0.000000 0.000000 

0.000000 0.000000 0.000000 
0.000000 0.000000 0.000000 
0.000000 0.000000 0.000000 

-0.000000 0.000000 0.000000 
0.000000 0.000000 0.000000 
0.000000 0.000000 0.000000 

-0.000000 0.000000 0.000000 
0.000000 0.000000 0.000000 
0.000000 0.000000 0.000000 

0.000000 0.000000 0.000000 
0.000000 0.000000 0.000000 
0.000000 0.000000 0.000000 

-0.000000 -0.000000 0.000000 
0.000000 -0.000000 0.000000 
0.000000 0.000000 0.000000 

-0.000000 0.000000 0.000000 
0.000000 -0.000000 0.000000 
0.000000 0.000000 0.000000 

-0.000000 -0.000000 0.000000 
0.000000 -0.000000 0.000000 
0.000000 0.000000 0.000000 

0.000000 -0.000000 0.000000 
0.000000 -0.000000 0.000000 
0.000000 0.000000 0.000000 

0.000000 -0.000000 0.000000 
0.000000 0.000000 0.000000 
0.000000 0.000000 0.000000 

-0.000000 0.000000 0.000000 
0.000000 0.000000 0.000000 
0.000000 0.000000 0.000000 

-0.000000 0.000000 0.000000 
0.000000 0.000000 0.000000 
0.000000 0.000000 0.000000 

-0.000000 -0.000000 0.000000 
0.000000 -0.000000 0.000000 
0.000000 0.000000 0.000000 

-0.000000 -0.000000 0.000000 
0.000000 0.000000 0.000000 
0.000000 0.000000 0.000000 

0.000000 -0.000000 0.000000 
0.000000 -0.000000 0.000000 
0.000000 0.000000 0.000000 

0.000000 -0.000000 0.000000 
0.000000 -0.000000 0.000000 
0.000000 0.000000 0.000000 

-0.000000 0.000000 0.000000 
0.000000 -0.000000 0.000000 
0.000000 0.000000 0.000000 

-0.000000 0.000000 0.000000 
0.000000 0.000000 0.000000 
0.000000 0.000000 0.000000 

-0.000000 -0.000000 0.000000 
0.000000 0.000000 0.000000 
0.000000 0.000000 0.000000 

0.000000 0.000000 0.000000 
0.000000 -0.000000 0.000000 
0.000000 0.000000 0.000000 

-0.000000 0.000000 0.000000 
0.000000 -0.000000 0.000000 
0.000000 0.000000 0.000000 

-0.000000 0.000000 0.000000 
0.000000 0.000000 0.000000 
0.000000 0.000000 0.000000 

-0.000000 -0.000000 0.000000 
0.000000 -0.000000 0.000000 
0.000000 0.000000 0.000000 

-0.000000 -0.000000 0.000000 
0.000000 0.000000 0.000000 
0.000000 0.000000 0.000000 

-0.000000 0.000000 0.000000 
0.000000 -0.000000 0.000000 
0.000000 0.000000 0.000000 

-0.000000 0.000000 0.000000 
0.000000 -0.000000 0.000000 
0.000000 0.000000 0.000000 

-0.000000 0.000000 0.000000 
0.000000 0.000000 0.000000 
0.000000 0.000000 0.000000 

-0.000000 0.000000 0.000000 
0.000000 0.000000 0.000000 
0.000000 0.000000 0.000000 

-0.000000 0.000000 0.000000 
0.000000 0.000000 0.000000 
0.000000 0.000000 0.000000 

-0.000000 0.000000 0.000000 
0.000000 0.000000 0.000000 
0.000000 0.000000 0.000000 

-0.000000 0.000000 0.000000 
0.000000 0.000000 0.000000 
0.000000 0.000000 0.000000 

-0.000000 0.000000 0.000000 
0.000000 0.000000 0.000000 
0.000000 0.000000 0.000000 

-0.000000 0.000000 0.000000 
0.000000 0.000000 0.000000 
0.000000 0.000000 0.000000 

-0.000000 0.000000 0.000000 
0.000000 0.000000 0.000000 
0.000000 0.000000 0.000000 

-0.000000 0.000000 0.000000 
0.000000 0.000000 0.000000 
0.000000 0.000000 0.000000 

0.000000 -0.000000 0.000000 
0.000000 -0.000000 0.000000 
0.000000 0.000000 0.000000 

-0.000000 0.000000 0.000000 
0.000000 -0.000000 0.000000 
0.000000 0.000000 0.000000 

-0.000000 -0.000000 0.000000 
0.000000 -0.000000 0.000000 
0.000000 0.000000 0.000000 

-0.000000 -0.000000 0.000000 
0.000000 -0.000000 0.000000 
0.000000 0.000000 0.000000 

-0.000000 -0.000000 0.000000 
0.000000 0.000000 0.000000 
0.000000 0.000000 0.000000 

-0.000000 0.000000 0.000000 
0.000000 0.000000 0.000000 
0.000000 0.000000 0.000000 

-0.000000 0.000000 0.000000 
0.000000 0.000000 0.000000 
0.000000 0.000000 0.000000 

0.000000 0.000000 0.000000 
0.000000 0.000000 0.000000 
0.000000 0.000000 0.000000 

0.000000 0.000000 0.000000 
0.000000 0.000000 0.000000 
0.000000 0.000000 0.000000 

0.000000 -0.000000 0.000000 
0.000000 0.000000 0.000000 
0.000000 0.000000 0.000000 

-0.000000 -0.000000 0.000000 
0.000000 -0.000000 0.000000 
0.000000 0.000000 0.000000 

0.000000 0.000000 0.000000 
0.000000 -0.000000 0.000000 
0.000000 0.000000 0.000000 

-0.000000 0.000000 0.000000 
0.000000 0.000000 0.000000 
0.000000 0.000000 0.000000 

0.000000 -0.000000 0.000000 
0.000000 -0.000000 0.000000 
0.000000 0.000000 0.000000 

-0.000000 -0.000000 0.000000 
0.000000 -0.000000 0.000000 
0.000000 0.000000 0.000000 

-0.000000 0.000000 0.000000 
0.000000 -0.000000 0.000000 
0.000000 0.000000 0.000000 

