# vtk DataFile Version 3.0 
vtk output 
ASCII 
DATASET UNSTRUCTURED_GRID 
POINTS 175 float 
-0.026061 -0.279403 0.000000 
-0.106992 -0.211348 0.000000 
-0.054870 -0.219580 0.000000 
-0.028809 -0.173696 0.000000 
-0.186430 -0.147272 0.000000 
-0.137056 -0.149798 0.000000 
-0.114311 -0.096151 0.000000 
-0.058186 -0.111817 0.000000 
-0.029377 -0.071639 0.000000 
-0.265318 -0.084116 0.000000 
-0.217198 -0.084916 0.000000 
-0.196633 -0.027619 0.000000 
-0.143120 -0.036328 0.000000 
-0.116563 0.010940 0.000000 
-0.058945 -0.008705 0.000000 
-0.029568 0.029415 0.000000 
-0.344206 -0.020960 0.000000 
-0.296791 -0.020953 0.000000 
-0.278030 0.038990 0.000000 
-0.225992 0.033123 0.000000 
-0.201664 0.085240 0.000000 
-0.145749 0.071766 0.000000 
-0.117890 0.116109 0.000000 
-0.059328 0.093403 0.000000 
-0.029759 0.130469 0.000000 
-0.058559 -0.320154 0.000000 
-0.162226 -0.340996 0.000000 
-0.123292 -0.305379 0.000000 
-0.142917 -0.256395 0.000000 
-0.261851 -0.363153 0.000000 
-0.229092 -0.326126 0.000000 
-0.256854 -0.274894 0.000000 
-0.209613 -0.240782 0.000000 
-0.223062 -0.193208 0.000000 
-0.360414 -0.385453 0.000000 
-0.329787 -0.348330 0.000000 
-0.361761 -0.296528 0.000000 
-0.321587 -0.260119 0.000000 
-0.341985 -0.209885 0.000000 
-0.290702 -0.177086 0.000000 
-0.302189 -0.130351 0.000000 
-0.458977 -0.407753 0.000000 
-0.429420 -0.370678 0.000000 
-0.464588 -0.318637 0.000000 
-0.427556 -0.281609 0.000000 
-0.453135 -0.230094 0.000000 
-0.407738 -0.194779 0.000000 
-0.425037 -0.145351 0.000000 
-0.370772 -0.113722 0.000000 
-0.381315 -0.067494 0.000000 
-0.046960 -0.370969 0.000000 
-0.095301 -0.465015 0.000000 
-0.098873 -0.412368 0.000000 
-0.149405 -0.397170 0.000000 
-0.140093 -0.556719 0.000000 
-0.148617 -0.508021 0.000000 
-0.205981 -0.497783 0.000000 
-0.203197 -0.439580 0.000000 
-0.248777 -0.420433 0.000000 
-0.184111 -0.647682 0.000000 
-0.194039 -0.600591 0.000000 
-0.254475 -0.593292 0.000000 
-0.257893 -0.539182 0.000000 
-0.309886 -0.523810 0.000000 
-0.303554 -0.463264 0.000000 
-0.347255 -0.443107 0.000000 
-0.228129 -0.738646 0.000000 
-0.238687 -0.692422 0.000000 
-0.301302 -0.687470 0.000000 
-0.307162 -0.635431 0.000000 
-0.363386 -0.623310 0.000000 
-0.362692 -0.565798 0.000000 
-0.412122 -0.548505 0.000000 
-0.403017 -0.486359 0.000000 
-0.445733 -0.465780 0.000000 
-0.000000 -0.393584 0.000000 
0.043388 -0.490014 0.000000 
-0.000000 -0.459982 0.000000 
-0.043388 -0.490014 0.000000 
0.087158 -0.582211 0.000000 
0.043769 -0.558513 0.000000 
-0.000000 -0.596978 0.000000 
-0.043769 -0.558513 0.000000 
-0.087158 -0.582211 0.000000 
0.130831 -0.673341 0.000000 
0.087824 -0.651742 0.000000 
0.044436 -0.694442 0.000000 
-0.000000 -0.663377 0.000000 
-0.044436 -0.694442 0.000000 
-0.087824 -0.651742 0.000000 
-0.130831 -0.673341 0.000000 
0.174505 -0.764470 0.000000 
0.131782 -0.743904 0.000000 
0.088871 -0.789771 0.000000 
0.044532 -0.761907 0.000000 
-0.000000 -0.798307 0.000000 
-0.044532 -0.761907 0.000000 
-0.088871 -0.789771 0.000000 
-0.131782 -0.743904 0.000000 
-0.174505 -0.764470 0.000000 
0.046960 -0.370969 0.000000 
0.149405 -0.397170 0.000000 
0.098873 -0.412368 0.000000 
0.095301 -0.465015 0.000000 
0.248777 -0.420433 0.000000 
0.203197 -0.439580 0.000000 
0.205981 -0.497783 0.000000 
0.148617 -0.508021 0.000000 
0.140093 -0.556719 0.000000 
0.347255 -0.443107 0.000000 
0.303554 -0.463264 0.000000 
0.309886 -0.523810 0.000000 
0.257893 -0.539182 0.000000 
0.254475 -0.593292 0.000000 
0.194039 -0.600591 0.000000 
0.184111 -0.647682 0.000000 
0.445733 -0.465780 0.000000 
0.403017 -0.486359 0.000000 
0.412122 -0.548505 0.000000 
0.362692 -0.565798 0.000000 
0.363386 -0.623310 0.000000 
0.307162 -0.635431 0.000000 
0.301302 -0.687470 0.000000 
0.238687 -0.692422 0.000000 
0.228129 -0.738646 0.000000 
0.058559 -0.320154 0.000000 
0.142917 -0.256395 0.000000 
0.123292 -0.305379 0.000000 
0.162226 -0.340996 0.000000 
0.223062 -0.193208 0.000000 
0.209613 -0.240782 0.000000 
0.256854 -0.274894 0.000000 
0.229092 -0.326126 0.000000 
0.261851 -0.363153 0.000000 
0.302189 -0.130351 0.000000 
0.290702 -0.177086 0.000000 
0.341985 -0.209885 0.000000 
0.321587 -0.260119 0.000000 
0.361761 -0.296528 0.000000 
0.329787 -0.348330 0.000000 
0.360414 -0.385453 0.000000 
0.381315 -0.067494 0.000000 
0.370772 -0.113722 0.000000 
0.425037 -0.145351 0.000000 
0.407738 -0.194779 0.000000 
0.453135 -0.230094 0.000000 
0.427556 -0.281609 0.000000 
0.464588 -0.318637 0.000000 
0.429420 -0.370678 0.000000 
0.458977 -0.407753 0.000000 
0.026061 -0.279403 0.000000 
0.028809 -0.173696 0.000000 
0.054870 -0.219580 0.000000 
0.106992 -0.211348 0.000000 
0.029377 -0.071639 0.000000 
0.058186 -0.111817 0.000000 
0.114311 -0.096151 0.000000 
0.137056 -0.149798 0.000000 
0.186430 -0.147272 0.000000 
0.029568 0.029415 0.000000 
0.058945 -0.008705 0.000000 
0.116563 0.010940 0.000000 
0.143120 -0.036328 0.000000 
0.196633 -0.027619 0.000000 
0.217198 -0.084916 0.000000 
0.265318 -0.084116 0.000000 
0.029759 0.130469 0.000000 
0.059328 0.093403 0.000000 
0.117890 0.116109 0.000000 
0.145749 0.071766 0.000000 
0.201664 0.085240 0.000000 
0.225992 0.033123 0.000000 
0.278030 0.038990 0.000000 
0.296791 -0.020953 0.000000 
0.344206 -0.020960 0.000000 
CELLS 175 350 
1 0 
1 1 
1 2 
1 3 
1 4 
1 5 
1 6 
1 7 
1 8 
1 9 
1 10 
1 11 
1 12 
1 13 
1 14 
1 15 
1 16 
1 17 
1 18 
1 19 
1 20 
1 21 
1 22 
1 23 
1 24 
1 25 
1 26 
1 27 
1 28 
1 29 
1 30 
1 31 
1 32 
1 33 
1 34 
1 35 
1 36 
1 37 
1 38 
1 39 
1 40 
1 41 
1 42 
1 43 
1 44 
1 45 
1 46 
1 47 
1 48 
1 49 
1 50 
1 51 
1 52 
1 53 
1 54 
1 55 
1 56 
1 57 
1 58 
1 59 
1 60 
1 61 
1 62 
1 63 
1 64 
1 65 
1 66 
1 67 
1 68 
1 69 
1 70 
1 71 
1 72 
1 73 
1 74 
1 75 
1 76 
1 77 
1 78 
1 79 
1 80 
1 81 
1 82 
1 83 
1 84 
1 85 
1 86 
1 87 
1 88 
1 89 
1 90 
1 91 
1 92 
1 93 
1 94 
1 95 
1 96 
1 97 
1 98 
1 99 
1 100 
1 101 
1 102 
1 103 
1 104 
1 105 
1 106 
1 107 
1 108 
1 109 
1 110 
1 111 
1 112 
1 113 
1 114 
1 115 
1 116 
1 117 
1 118 
1 119 
1 120 
1 121 
1 122 
1 123 
1 124 
1 125 
1 126 
1 127 
1 128 
1 129 
1 130 
1 131 
1 132 
1 133 
1 134 
1 135 
1 136 
1 137 
1 138 
1 139 
1 140 
1 141 
1 142 
1 143 
1 144 
1 145 
1 146 
1 147 
1 148 
1 149 
1 150 
1 151 
1 152 
1 153 
1 154 
1 155 
1 156 
1 157 
1 158 
1 159 
1 160 
1 161 
1 162 
1 163 
1 164 
1 165 
1 166 
1 167 
1 168 
1 169 
1 170 
1 171 
1 172 
1 173 
1 174 
CELL_TYPES 175 
1 
1 
1 
1 
1 
1 
1 
1 
1 
1 
1 
1 
1 
1 
1 
1 
1 
1 
1 
1 
1 
1 
1 
1 
1 
1 
1 
1 
1 
1 
1 
1 
1 
1 
1 
1 
1 
1 
1 
1 
1 
1 
1 
1 
1 
1 
1 
1 
1 
1 
1 
1 
1 
1 
1 
1 
1 
1 
1 
1 
1 
1 
1 
1 
1 
1 
1 
1 
1 
1 
1 
1 
1 
1 
1 
1 
1 
1 
1 
1 
1 
1 
1 
1 
1 
1 
1 
1 
1 
1 
1 
1 
1 
1 
1 
1 
1 
1 
1 
1 
1 
1 
1 
1 
1 
1 
1 
1 
1 
1 
1 
1 
1 
1 
1 
1 
1 
1 
1 
1 
1 
1 
1 
1 
1 
1 
1 
1 
1 
1 
1 
1 
1 
1 
1 
1 
1 
1 
1 
1 
1 
1 
1 
1 
1 
1 
1 
1 
1 
1 
1 
1 
1 
1 
1 
1 
1 
1 
1 
1 
1 
1 
1 
1 
1 
1 
1 
1 
1 
1 
1 
1 
1 
1 
1 
POINT_DATA 175 
VECTORS X_GC float 
-0.026061 -0.279403 0.000000 
-0.106992 -0.211348 0.000000 
-0.054870 -0.219580 0.000000 
-0.028809 -0.173696 0.000000 
-0.186430 -0.147272 0.000000 
-0.137056 -0.149798 0.000000 
-0.114311 -0.096151 0.000000 
-0.058186 -0.111817 0.000000 
-0.029377 -0.071639 0.000000 
-0.265318 -0.084116 0.000000 
-0.217198 -0.084916 0.000000 
-0.196633 -0.027619 0.000000 
-0.143120 -0.036328 0.000000 
-0.116563 0.010940 0.000000 
-0.058945 -0.008705 0.000000 
-0.029568 0.029415 0.000000 
-0.344206 -0.020960 0.000000 
-0.296791 -0.020953 0.000000 
-0.278030 0.038990 0.000000 
-0.225992 0.033123 0.000000 
-0.201664 0.085240 0.000000 
-0.145749 0.071766 0.000000 
-0.117890 0.116109 0.000000 
-0.059328 0.093403 0.000000 
-0.029759 0.130469 0.000000 
-0.058559 -0.320154 0.000000 
-0.162226 -0.340996 0.000000 
-0.123292 -0.305379 0.000000 
-0.142917 -0.256395 0.000000 
-0.261851 -0.363153 0.000000 
-0.229092 -0.326126 0.000000 
-0.256854 -0.274894 0.000000 
-0.209613 -0.240782 0.000000 
-0.223062 -0.193208 0.000000 
-0.360414 -0.385453 0.000000 
-0.329787 -0.348330 0.000000 
-0.361761 -0.296528 0.000000 
-0.321587 -0.260119 0.000000 
-0.341985 -0.209885 0.000000 
-0.290702 -0.177086 0.000000 
-0.302189 -0.130351 0.000000 
-0.458977 -0.407753 0.000000 
-0.429420 -0.370678 0.000000 
-0.464588 -0.318637 0.000000 
-0.427556 -0.281609 0.000000 
-0.453135 -0.230094 0.000000 
-0.407738 -0.194779 0.000000 
-0.425037 -0.145351 0.000000 
-0.370772 -0.113722 0.000000 
-0.381315 -0.067494 0.000000 
-0.046960 -0.370969 0.000000 
-0.095301 -0.465015 0.000000 
-0.098873 -0.412368 0.000000 
-0.149405 -0.397170 0.000000 
-0.140093 -0.556719 0.000000 
-0.148617 -0.508021 0.000000 
-0.205981 -0.497783 0.000000 
-0.203197 -0.439580 0.000000 
-0.248777 -0.420433 0.000000 
-0.184111 -0.647682 0.000000 
-0.194039 -0.600591 0.000000 
-0.254475 -0.593292 0.000000 
-0.257893 -0.539182 0.000000 
-0.309886 -0.523810 0.000000 
-0.303554 -0.463264 0.000000 
-0.347255 -0.443107 0.000000 
-0.228129 -0.738646 0.000000 
-0.238687 -0.692422 0.000000 
-0.301302 -0.687470 0.000000 
-0.307162 -0.635431 0.000000 
-0.363386 -0.623310 0.000000 
-0.362692 -0.565798 0.000000 
-0.412122 -0.548505 0.000000 
-0.403017 -0.486359 0.000000 
-0.445733 -0.465780 0.000000 
-0.000000 -0.393584 0.000000 
0.043388 -0.490014 0.000000 
-0.000000 -0.459982 0.000000 
-0.043388 -0.490014 0.000000 
0.087158 -0.582211 0.000000 
0.043769 -0.558513 0.000000 
-0.000000 -0.596978 0.000000 
-0.043769 -0.558513 0.000000 
-0.087158 -0.582211 0.000000 
0.130831 -0.673341 0.000000 
0.087824 -0.651742 0.000000 
0.044436 -0.694442 0.000000 
-0.000000 -0.663377 0.000000 
-0.044436 -0.694442 0.000000 
-0.087824 -0.651742 0.000000 
-0.130831 -0.673341 0.000000 
0.174505 -0.764470 0.000000 
0.131782 -0.743904 0.000000 
0.088871 -0.789771 0.000000 
0.044532 -0.761907 0.000000 
-0.000000 -0.798307 0.000000 
-0.044532 -0.761907 0.000000 
-0.088871 -0.789771 0.000000 
-0.131782 -0.743904 0.000000 
-0.174505 -0.764470 0.000000 
0.046960 -0.370969 0.000000 
0.149405 -0.397170 0.000000 
0.098873 -0.412368 0.000000 
0.095301 -0.465015 0.000000 
0.248777 -0.420433 0.000000 
0.203197 -0.439580 0.000000 
0.205981 -0.497783 0.000000 
0.148617 -0.508021 0.000000 
0.140093 -0.556719 0.000000 
0.347255 -0.443107 0.000000 
0.303554 -0.463264 0.000000 
0.309886 -0.523810 0.000000 
0.257893 -0.539182 0.000000 
0.254475 -0.593292 0.000000 
0.194039 -0.600591 0.000000 
0.184111 -0.647682 0.000000 
0.445733 -0.465780 0.000000 
0.403017 -0.486359 0.000000 
0.412122 -0.548505 0.000000 
0.362692 -0.565798 0.000000 
0.363386 -0.623310 0.000000 
0.307162 -0.635431 0.000000 
0.301302 -0.687470 0.000000 
0.238687 -0.692422 0.000000 
0.228129 -0.738646 0.000000 
0.058559 -0.320154 0.000000 
0.142917 -0.256395 0.000000 
0.123292 -0.305379 0.000000 
0.162226 -0.340996 0.000000 
0.223062 -0.193208 0.000000 
0.209613 -0.240782 0.000000 
0.256854 -0.274894 0.000000 
0.229092 -0.326126 0.000000 
0.261851 -0.363153 0.000000 
0.302189 -0.130351 0.000000 
0.290702 -0.177086 0.000000 
0.341985 -0.209885 0.000000 
0.321587 -0.260119 0.000000 
0.361761 -0.296528 0.000000 
0.329787 -0.348330 0.000000 
0.360414 -0.385453 0.000000 
0.381315 -0.067494 0.000000 
0.370772 -0.113722 0.000000 
0.425037 -0.145351 0.000000 
0.407738 -0.194779 0.000000 
0.453135 -0.230094 0.000000 
0.427556 -0.281609 0.000000 
0.464588 -0.318637 0.000000 
0.429420 -0.370678 0.000000 
0.458977 -0.407753 0.000000 
0.026061 -0.279403 0.000000 
0.028809 -0.173696 0.000000 
0.054870 -0.219580 0.000000 
0.106992 -0.211348 0.000000 
0.029377 -0.071639 0.000000 
0.058186 -0.111817 0.000000 
0.114311 -0.096151 0.000000 
0.137056 -0.149798 0.000000 
0.186430 -0.147272 0.000000 
0.029568 0.029415 0.000000 
0.058945 -0.008705 0.000000 
0.116563 0.010940 0.000000 
0.143120 -0.036328 0.000000 
0.196633 -0.027619 0.000000 
0.217198 -0.084916 0.000000 
0.265318 -0.084116 0.000000 
0.029759 0.130469 0.000000 
0.059328 0.093403 0.000000 
0.117890 0.116109 0.000000 
0.145749 0.071766 0.000000 
0.201664 0.085240 0.000000 
0.225992 0.033123 0.000000 
0.278030 0.038990 0.000000 
0.296791 -0.020953 0.000000 
0.344206 -0.020960 0.000000 
VECTORS X_EC float 
0.338794 0.271940 0.000000 
-0.609100 -0.646809 0.000000 
0.713312 -0.535668 0.000000 
0.374519 0.844903 0.000000 
0.423588 0.488172 0.000000 
-0.218274 0.522276 0.000000 
-0.513962 -0.201963 0.000000 
0.756418 0.009523 0.000000 
0.381900 -0.532869 0.000000 
-0.550868 -0.364431 0.000000 
0.823577 -0.353635 0.000000 
0.556234 0.872860 0.000000 
-0.139443 0.990429 0.000000 
-0.484677 0.352305 0.000000 
0.766286 0.617520 0.000000 
0.384386 0.102900 0.000000 
0.474677 0.782966 0.000000 
-0.141715 0.782869 0.000000 
-0.385608 -0.026359 0.000000 
0.937896 0.052837 0.000000 
0.621631 -0.650743 0.000000 
-0.105264 -0.468844 0.000000 
-0.467428 0.932530 0.000000 
0.771260 -0.760942 0.000000 
0.386873 0.738669 0.000000 
0.761262 0.822074 0.000000 
0.108942 -0.896549 0.000000 
-0.397202 0.622612 0.000000 
-0.142083 -0.038664 0.000000 
-0.595936 -0.597438 0.000000 
0.978194 0.902696 0.000000 
-0.660903 0.211071 0.000000 
0.724964 -0.249449 0.000000 
0.899809 -0.891698 0.000000 
0.685384 -0.296386 0.000000 
0.287229 -0.797545 0.000000 
0.702895 0.503127 0.000000 
0.180633 0.011608 0.000000 
0.445811 -0.666551 0.000000 
-0.220880 0.890663 0.000000 
-0.071546 0.259737 0.000000 
-0.033296 0.004666 0.000000 
-0.417537 -0.495844 0.000000 
0.039645 0.801594 0.000000 
-0.441768 0.301723 0.000000 
-0.109248 -0.393728 0.000000 
-0.699407 -0.870484 0.000000 
-0.474522 0.462237 0.000000 
0.820030 0.035244 0.000000 
0.957100 -0.588828 0.000000 
0.610485 -0.491919 0.000000 
-0.761092 0.777700 0.000000 
-0.714655 0.066963 0.000000 
-0.057734 -0.138205 0.000000 
-0.178789 0.015704 0.000000 
-0.067979 -0.641722 0.000000 
0.677748 -0.779925 0.000000 
0.641556 0.434330 0.000000 
-0.765897 0.175851 0.000000 
0.393446 -0.756287 0.000000 
0.522510 0.607983 0.000000 
-0.691820 0.509439 0.000000 
-0.647393 -0.221043 0.000000 
0.028512 -0.428570 0.000000 
-0.053800 0.754070 0.000000 
0.514316 0.481939 0.000000 
0.965681 0.471722 0.000000 
-0.897068 -0.152306 0.000000 
-0.083078 -0.219159 0.000000 
-0.006893 -0.921684 0.000000 
0.724017 0.914683 0.000000 
0.714996 0.138280 0.000000 
-0.642413 -0.095178 0.000000 
-0.760780 -0.934158 0.000000 
-0.205471 0.788026 0.000000 
0.000000 -0.186618 0.000000 
-0.564049 -0.884805 0.000000 
0.000000 0.709759 0.000000 
0.564049 -0.884805 0.000000 
0.866949 0.359850 0.000000 
-0.569003 0.039919 0.000000 
0.000000 0.559207 0.000000 
0.569003 0.039919 0.000000 
-0.866949 0.359850 0.000000 
0.299194 -0.409899 0.000000 
0.858290 -0.701483 0.000000 
-0.577662 -0.125038 0.000000 
0.000000 -0.544416 0.000000 
0.577662 -0.125038 0.000000 
-0.858290 -0.701483 0.000000 
-0.299194 -0.409899 0.000000 
-0.268560 0.820351 0.000000 
0.286830 0.542709 0.000000 
0.844677 -0.838093 0.000000 
-0.578910 0.785744 0.000000 
0.000000 -0.722852 0.000000 
0.578910 0.785744 0.000000 
-0.844677 -0.838093 0.000000 
-0.286830 0.542709 0.000000 
0.268560 0.820351 0.000000 
-0.610485 -0.491919 0.000000 
0.057734 -0.138205 0.000000 
0.714655 0.066963 0.000000 
0.761092 0.777700 0.000000 
0.765897 0.175851 0.000000 
-0.641556 0.434330 0.000000 
-0.677748 -0.779925 0.000000 
0.067979 -0.641722 0.000000 
0.178789 0.015704 0.000000 
-0.514316 0.481939 0.000000 
0.053800 0.754070 0.000000 
-0.028512 -0.428570 0.000000 
0.647393 -0.221043 0.000000 
0.691820 0.509439 0.000000 
-0.522510 0.607983 0.000000 
-0.393446 -0.756287 0.000000 
0.205471 0.788026 0.000000 
0.760780 -0.934158 0.000000 
0.642413 -0.095178 0.000000 
-0.714996 0.138280 0.000000 
-0.724017 0.914683 0.000000 
0.006894 -0.921684 0.000000 
0.083078 -0.219159 0.000000 
0.897068 -0.152306 0.000000 
-0.965681 0.471722 0.000000 
-0.761262 0.822074 0.000000 
0.142083 -0.038664 0.000000 
0.397202 0.622612 0.000000 
-0.108942 -0.896549 0.000000 
-0.899809 -0.891698 0.000000 
-0.724964 -0.249449 0.000000 
0.660903 0.211071 0.000000 
-0.978194 0.902696 0.000000 
0.595936 -0.597438 0.000000 
0.071546 0.259737 0.000000 
0.220880 0.890663 0.000000 
-0.445811 -0.666551 0.000000 
-0.180633 0.011608 0.000000 
-0.702895 0.503127 0.000000 
-0.287229 -0.797545 0.000000 
-0.685384 -0.296386 0.000000 
-0.957100 -0.588828 0.000000 
-0.820030 0.035244 0.000000 
0.474522 0.462237 0.000000 
0.699407 -0.870484 0.000000 
0.109248 -0.393728 0.000000 
0.441768 0.301723 0.000000 
-0.039645 0.801594 0.000000 
0.417537 -0.495844 0.000000 
0.033296 0.004666 0.000000 
-0.338794 0.271940 0.000000 
-0.374519 0.844903 0.000000 
-0.713312 -0.535668 0.000000 
0.609100 -0.646809 0.000000 
-0.381900 -0.532869 0.000000 
-0.756418 0.009523 0.000000 
0.513962 -0.201963 0.000000 
0.218274 0.522276 0.000000 
-0.423588 0.488172 0.000000 
-0.384386 0.102900 0.000000 
-0.766286 0.617520 0.000000 
0.484677 0.352305 0.000000 
0.139443 0.990429 0.000000 
-0.556234 0.872860 0.000000 
-0.823577 -0.353635 0.000000 
0.550868 -0.364431 0.000000 
-0.386873 0.738669 0.000000 
-0.771260 -0.760942 0.000000 
0.467428 0.932530 0.000000 
0.105264 -0.468844 0.000000 
-0.621631 -0.650743 0.000000 
-0.937896 0.052837 0.000000 
0.385608 -0.026359 0.000000 
0.141715 0.782869 0.000000 
-0.474677 0.782966 0.000000 
CELL_DATA 175 
SCALARS MASS float 
LOOKUP_TABLE default 
0.078183 
0.086427 
0.094672 
0.086427 
0.088131 
0.092111 
0.085854 
0.092111 
0.088131 
0.088705 
0.091000 
0.086983 
0.091556 
0.086983 
0.091000 
0.088705 
0.089278 
0.091574 
0.089278 
0.092722 
0.089278 
0.092722 
0.089278 
0.091574 
0.089278 
0.078183 
0.086427 
0.094672 
0.086427 
0.088131 
0.092111 
0.085854 
0.092111 
0.088131 
0.088705 
0.091000 
0.086983 
0.091556 
0.086983 
0.091000 
0.088705 
0.089278 
0.091574 
0.089278 
0.092722 
0.089278 
0.092722 
0.089278 
0.091574 
0.089278 
0.078183 
0.086427 
0.094672 
0.086427 
0.088131 
0.092111 
0.085854 
0.092111 
0.088131 
0.088705 
0.091000 
0.086983 
0.091556 
0.086983 
0.091000 
0.088705 
0.089278 
0.091574 
0.089278 
0.092722 
0.089278 
0.092722 
0.089278 
0.091574 
0.089278 
0.078183 
0.086427 
0.094672 
0.086427 
0.088131 
0.092111 
0.085854 
0.092111 
0.088131 
0.088705 
0.091000 
0.086983 
0.091556 
0.086983 
0.091000 
0.088705 
0.089278 
0.091574 
0.089278 
0.092722 
0.089278 
0.092722 
0.089278 
0.091574 
0.089278 
0.078183 
0.086427 
0.094672 
0.086427 
0.088131 
0.092111 
0.085854 
0.092111 
0.088131 
0.088705 
0.091000 
0.086983 
0.091556 
0.086983 
0.091000 
0.088705 
0.089278 
0.091574 
0.089278 
0.092722 
0.089278 
0.092722 
0.089278 
0.091574 
0.089278 
0.078183 
0.086427 
0.094672 
0.086427 
0.088131 
0.092111 
0.085854 
0.092111 
0.088131 
0.088705 
0.091000 
0.086983 
0.091556 
0.086983 
0.091000 
0.088705 
0.089278 
0.091574 
0.089278 
0.092722 
0.089278 
0.092722 
0.089278 
0.091574 
0.089278 
0.078183 
0.086427 
0.094672 
0.086427 
0.088131 
0.092111 
0.085854 
0.092111 
0.088131 
0.088705 
0.091000 
0.086983 
0.091556 
0.086983 
0.091000 
0.088705 
0.089278 
0.091574 
0.089278 
0.092722 
0.089278 
0.092722 
0.089278 
0.091574 
0.089278 
SCALARS MASS float 
LOOKUP_TABLE default 
0.078183 
0.086427 
0.094672 
0.086427 
0.088131 
0.092111 
0.085854 
0.092111 
0.088131 
0.088705 
0.091000 
0.086983 
0.091556 
0.086983 
0.091000 
0.088705 
0.089278 
0.091574 
0.089278 
0.092722 
0.089278 
0.092722 
0.089278 
0.091574 
0.089278 
0.078183 
0.086427 
0.094672 
0.086427 
0.088131 
0.092111 
0.085854 
0.092111 
0.088131 
0.088705 
0.091000 
0.086983 
0.091556 
0.086983 
0.091000 
0.088705 
0.089278 
0.091574 
0.089278 
0.092722 
0.089278 
0.092722 
0.089278 
0.091574 
0.089278 
0.078183 
0.086427 
0.094672 
0.086427 
0.088131 
0.092111 
0.085854 
0.092111 
0.088131 
0.088705 
0.091000 
0.086983 
0.091556 
0.086983 
0.091000 
0.088705 
0.089278 
0.091574 
0.089278 
0.092722 
0.089278 
0.092722 
0.089278 
0.091574 
0.089278 
0.078183 
0.086427 
0.094672 
0.086427 
0.088131 
0.092111 
0.085854 
0.092111 
0.088131 
0.088705 
0.091000 
0.086983 
0.091556 
0.086983 
0.091000 
0.088705 
0.089278 
0.091574 
0.089278 
0.092722 
0.089278 
0.092722 
0.089278 
0.091574 
0.089278 
0.078183 
0.086427 
0.094672 
0.086427 
0.088131 
0.092111 
0.085854 
0.092111 
0.088131 
0.088705 
0.091000 
0.086983 
0.091556 
0.086983 
0.091000 
0.088705 
0.089278 
0.091574 
0.089278 
0.092722 
0.089278 
0.092722 
0.089278 
0.091574 
0.089278 
0.078183 
0.086427 
0.094672 
0.086427 
0.088131 
0.092111 
0.085854 
0.092111 
0.088131 
0.088705 
0.091000 
0.086983 
0.091556 
0.086983 
0.091000 
0.088705 
0.089278 
0.091574 
0.089278 
0.092722 
0.089278 
0.092722 
0.089278 
0.091574 
0.089278 
0.078183 
0.086427 
0.094672 
0.086427 
0.088131 
0.092111 
0.085854 
0.092111 
0.088131 
0.088705 
0.091000 
0.086983 
0.091556 
0.086983 
0.091000 
0.088705 
0.089278 
0.091574 
0.089278 
0.092722 
0.089278 
0.092722 
0.089278 
0.091574 
0.089278 
SCALARS DENSITY float 
LOOKUP_TABLE default 
20.000000 
20.000000 
20.000000 
20.000000 
20.000000 
20.000000 
20.000000 
20.000000 
20.000000 
20.000000 
20.000000 
20.000000 
20.000000 
20.000000 
20.000000 
20.000000 
20.000000 
20.000000 
20.000000 
20.000000 
20.000000 
20.000000 
20.000000 
20.000000 
20.000000 
20.000000 
20.000000 
20.000000 
20.000000 
20.000000 
20.000000 
20.000000 
20.000000 
20.000000 
20.000000 
20.000000 
20.000000 
20.000000 
20.000000 
20.000000 
20.000000 
20.000000 
20.000000 
20.000000 
20.000000 
20.000000 
20.000000 
20.000000 
20.000000 
20.000000 
20.000000 
20.000000 
20.000000 
20.000000 
20.000000 
20.000000 
20.000000 
20.000000 
20.000000 
20.000000 
20.000000 
20.000000 
20.000000 
20.000000 
20.000000 
20.000000 
20.000000 
20.000000 
20.000000 
20.000000 
20.000000 
20.000000 
20.000000 
20.000000 
20.000000 
20.000000 
20.000000 
20.000000 
20.000000 
20.000000 
20.000000 
20.000000 
20.000000 
20.000000 
20.000000 
20.000000 
20.000000 
20.000000 
20.000000 
20.000000 
20.000000 
20.000000 
20.000000 
20.000000 
20.000000 
20.000000 
20.000000 
20.000000 
20.000000 
20.000000 
20.000000 
20.000000 
20.000000 
20.000000 
20.000000 
20.000000 
20.000000 
20.000000 
20.000000 
20.000000 
20.000000 
20.000000 
20.000000 
20.000000 
20.000000 
20.000000 
20.000000 
20.000000 
20.000000 
20.000000 
20.000000 
20.000000 
20.000000 
20.000000 
20.000000 
20.000000 
20.000000 
20.000000 
20.000000 
20.000000 
20.000000 
20.000000 
20.000000 
20.000000 
20.000000 
20.000000 
20.000000 
20.000000 
20.000000 
20.000000 
20.000000 
20.000000 
20.000000 
20.000000 
20.000000 
20.000000 
20.000000 
20.000000 
20.000000 
20.000000 
20.000000 
20.000000 
20.000000 
20.000000 
20.000000 
20.000000 
20.000000 
20.000000 
20.000000 
20.000000 
20.000000 
20.000000 
20.000000 
20.000000 
20.000000 
20.000000 
20.000000 
20.000000 
20.000000 
20.000000 
20.000000 
20.000000 
20.000000 
20.000000 
20.000000 
SCALARS ELEM_i float 
LOOKUP_TABLE default 
180 
207 
180 
181 
208 
208 
208 
181 
181 
235 
208 
209 
209 
209 
182 
182 
236 
236 
236 
209 
209 
209 
210 
182 
183 
180 
206 
207 
207 
233 
207 
234 
207 
207 
233 
233 
234 
234 
234 
235 
235 
260 
260 
261 
261 
261 
261 
262 
235 
235 
179 
206 
206 
206 
205 
205 
205 
206 
233 
204 
205 
232 
232 
232 
233 
233 
204 
231 
231 
231 
232 
232 
259 
259 
260 
179 
178 
179 
178 
151 
178 
178 
178 
205 
150 
150 
177 
177 
177 
204 
204 
150 
150 
149 
177 
176 
177 
203 
204 
204 
179 
152 
152 
152 
125 
152 
151 
151 
151 
125 
125 
124 
124 
124 
151 
150 
98 
97 
97 
124 
124 
123 
123 
123 
150 
180 
153 
153 
152 
153 
153 
126 
153 
125 
127 
127 
126 
126 
126 
125 
125 
127 
127 
100 
99 
99 
99 
99 
98 
98 
180 
181 
180 
153 
181 
181 
154 
154 
154 
182 
182 
155 
155 
155 
154 
127 
183 
182 
156 
155 
155 
155 
128 
128 
128 
VECTORS VELOCITY float 
0.000000 -2.557663 0.000000 
-0.000000 -2.557663 0.000000 
-0.000000 -2.557663 0.000000 
-0.000000 -2.557663 0.000000 
-0.000000 -2.557663 0.000000 
-0.000000 -2.557663 0.000000 
-0.000000 -2.557663 0.000000 
-0.000000 -2.557663 0.000000 
-0.000000 -2.557663 0.000000 
-0.000000 -2.557663 0.000000 
-0.000000 -2.557663 0.000000 
-0.000000 -2.557663 0.000000 
-0.000000 -2.557663 0.000000 
0.000000 -2.557663 0.000000 
0.000000 -2.557663 0.000000 
0.000000 -2.557663 0.000000 
-0.000000 -2.557663 0.000000 
-0.000000 -2.557663 0.000000 
-0.000000 -2.557663 0.000000 
0.000000 -2.557663 0.000000 
0.000000 -2.557663 0.000000 
0.000000 -2.557663 0.000000 
0.000000 -2.557663 0.000000 
0.000000 -2.557663 0.000000 
0.000000 -2.557663 0.000000 
0.000000 -2.557663 0.000000 
0.000000 -2.557663 0.000000 
-0.000000 -2.557663 0.000000 
-0.000000 -2.557663 0.000000 
0.000000 -2.557663 0.000000 
0.000000 -2.557663 0.000000 
-0.000000 -2.557663 0.000000 
-0.000000 -2.557663 0.000000 
-0.000000 -2.557663 0.000000 
-0.000000 -2.557663 0.000000 
-0.000000 -2.557663 0.000000 
-0.000000 -2.557663 0.000000 
0.000000 -2.557663 0.000000 
0.000000 -2.557663 0.000000 
0.000000 -2.557663 0.000000 
0.000000 -2.557663 0.000000 
0.000000 -2.557663 0.000000 
-0.000000 -2.557663 0.000000 
-0.000000 -2.557663 0.000000 
-0.000000 -2.557663 0.000000 
-0.000000 -2.557663 0.000000 
0.000000 -2.557663 0.000000 
0.000000 -2.557663 0.000000 
0.000000 -2.557663 0.000000 
0.000000 -2.557663 0.000000 
-0.000000 -2.557663 0.000000 
-0.000000 -2.557663 0.000000 
-0.000000 -2.557663 0.000000 
-0.000000 -2.557663 0.000000 
-0.000000 -2.557663 0.000000 
-0.000000 -2.557663 0.000000 
-0.000000 -2.557663 0.000000 
0.000000 -2.557663 0.000000 
0.000000 -2.557663 0.000000 
-0.000000 -2.557663 0.000000 
-0.000000 -2.557663 0.000000 
-0.000000 -2.557663 0.000000 
-0.000000 -2.557663 0.000000 
-0.000000 -2.557663 0.000000 
0.000000 -2.557663 0.000000 
0.000000 -2.557663 0.000000 
-0.000000 -2.557663 0.000000 
-0.000000 -2.557663 0.000000 
0.000000 -2.557663 0.000000 
-0.000000 -2.557663 0.000000 
-0.000000 -2.557663 0.000000 
-0.000000 -2.557663 0.000000 
0.000000 -2.557663 0.000000 
0.000000 -2.557663 0.000000 
0.000000 -2.557663 0.000000 
-0.000000 -2.557663 0.000000 
0.000000 -2.557663 0.000000 
-0.000000 -2.557663 0.000000 
-0.000000 -2.557663 0.000000 
-0.000000 -2.557663 0.000000 
-0.000000 -2.557663 0.000000 
-0.000000 -2.557663 0.000000 
-0.000000 -2.557663 0.000000 
-0.000000 -2.557663 0.000000 
-0.000000 -2.557663 0.000000 
-0.000000 -2.557663 0.000000 
-0.000000 -2.557663 0.000000 
-0.000000 -2.557663 0.000000 
-0.000000 -2.557663 0.000000 
-0.000000 -2.557663 0.000000 
-0.000000 -2.557663 0.000000 
-0.000000 -2.557663 0.000000 
-0.000000 -2.557663 0.000000 
0.000000 -2.557663 0.000000 
0.000000 -2.557663 0.000000 
0.000000 -2.557663 0.000000 
0.000000 -2.557663 0.000000 
0.000000 -2.557663 0.000000 
0.000000 -2.557663 0.000000 
0.000000 -2.557663 0.000000 
0.000000 -2.557663 0.000000 
0.000000 -2.557663 0.000000 
0.000000 -2.557663 0.000000 
0.000000 -2.557663 0.000000 
0.000000 -2.557663 0.000000 
0.000000 -2.557663 0.000000 
0.000000 -2.557663 0.000000 
0.000000 -2.557663 0.000000 
-0.000000 -2.557663 0.000000 
0.000000 -2.557663 0.000000 
0.000000 -2.557663 0.000000 
0.000000 -2.557663 0.000000 
-0.000000 -2.557663 0.000000 
-0.000000 -2.557663 0.000000 
-0.000000 -2.557663 0.000000 
-0.000000 -2.557663 0.000000 
0.000000 -2.557663 0.000000 
0.000000 -2.557663 0.000000 
-0.000000 -2.557663 0.000000 
-0.000000 -2.557663 0.000000 
-0.000000 -2.557663 0.000000 
-0.000000 -2.557663 0.000000 
0.000000 -2.557663 0.000000 
-0.000000 -2.557663 0.000000 
-0.000000 -2.557663 0.000000 
0.000000 -2.557663 0.000000 
-0.000000 -2.557663 0.000000 
0.000000 -2.557663 0.000000 
0.000000 -2.557663 0.000000 
-0.000000 -2.557663 0.000000 
-0.000000 -2.557663 0.000000 
-0.000000 -2.557663 0.000000 
-0.000000 -2.557663 0.000000 
0.000000 -2.557663 0.000000 
0.000000 -2.557663 0.000000 
0.000000 -2.557663 0.000000 
0.000000 -2.557663 0.000000 
-0.000000 -2.557663 0.000000 
-0.000000 -2.557663 0.000000 
-0.000000 -2.557663 0.000000 
-0.000000 -2.557663 0.000000 
0.000000 -2.557663 0.000000 
0.000000 -2.557663 0.000000 
0.000000 -2.557663 0.000000 
0.000000 -2.557663 0.000000 
-0.000000 -2.557663 0.000000 
-0.000000 -2.557663 0.000000 
-0.000000 -2.557663 0.000000 
-0.000000 -2.557663 0.000000 
-0.000000 -2.557663 0.000000 
0.000000 -2.557663 0.000000 
-0.000000 -2.557663 0.000000 
-0.000000 -2.557663 0.000000 
-0.000000 -2.557663 0.000000 
-0.000000 -2.557663 0.000000 
-0.000000 -2.557663 0.000000 
0.000000 -2.557663 0.000000 
-0.000000 -2.557663 0.000000 
0.000000 -2.557663 0.000000 
0.000000 -2.557663 0.000000 
0.000000 -2.557663 0.000000 
0.000000 -2.557663 0.000000 
0.000000 -2.557663 0.000000 
0.000000 -2.557663 0.000000 
0.000000 -2.557663 0.000000 
0.000000 -2.557663 0.000000 
-0.000000 -2.557663 0.000000 
0.000000 -2.557663 0.000000 
-0.000000 -2.557663 0.000000 
-0.000000 -2.557663 0.000000 
-0.000000 -2.557663 0.000000 
-0.000000 -2.557663 0.000000 
0.000000 -2.557663 0.000000 
-0.000000 -2.557663 0.000000 
0.000000 -2.557663 0.000000 
TENSORS STRESS float 
0.000000 -0.000000 0.000000 
0.000000 0.000000 0.000000 
0.000000 0.000000 0.000000 

0.000000 0.000000 0.000000 
0.000000 0.000000 0.000000 
0.000000 0.000000 0.000000 

0.000000 0.000000 0.000000 
0.000000 -0.000000 0.000000 
0.000000 0.000000 0.000000 

-0.000000 0.000000 0.000000 
0.000000 -0.000000 0.000000 
0.000000 0.000000 0.000000 

-0.000000 0.000000 0.000000 
0.000000 -0.000000 0.000000 
0.000000 0.000000 0.000000 

0.000000 0.000000 0.000000 
0.000000 -0.000000 0.000000 
0.000000 0.000000 0.000000 

-0.000000 -0.000000 0.000000 
0.000000 -0.000000 0.000000 
0.000000 0.000000 0.000000 

-0.000000 -0.000000 0.000000 
0.000000 -0.000000 0.000000 
0.000000 0.000000 0.000000 

-0.000000 -0.000000 0.000000 
0.000000 -0.000000 0.000000 
0.000000 0.000000 0.000000 

0.000000 -0.000000 0.000000 
0.000000 -0.000000 0.000000 
0.000000 0.000000 0.000000 

-0.000000 -0.000000 0.000000 
0.000000 -0.000000 0.000000 
0.000000 0.000000 0.000000 

0.000000 -0.000000 0.000000 
0.000000 -0.000000 0.000000 
0.000000 0.000000 0.000000 

0.000000 -0.000000 0.000000 
0.000000 -0.000000 0.000000 
0.000000 0.000000 0.000000 

0.000000 0.000000 0.000000 
0.000000 0.000000 0.000000 
0.000000 0.000000 0.000000 

0.000000 -0.000000 0.000000 
0.000000 0.000000 0.000000 
0.000000 0.000000 0.000000 

0.000000 -0.000000 0.000000 
0.000000 0.000000 0.000000 
0.000000 0.000000 0.000000 

0.000000 -0.000000 0.000000 
0.000000 0.000000 0.000000 
0.000000 0.000000 0.000000 

0.000000 -0.000000 0.000000 
0.000000 0.000000 0.000000 
0.000000 0.000000 0.000000 

0.000000 -0.000000 0.000000 
0.000000 0.000000 0.000000 
0.000000 0.000000 0.000000 

0.000000 0.000000 0.000000 
0.000000 0.000000 0.000000 
0.000000 0.000000 0.000000 

-0.000000 0.000000 0.000000 
0.000000 -0.000000 0.000000 
0.000000 0.000000 0.000000 

0.000000 -0.000000 0.000000 
0.000000 0.000000 0.000000 
0.000000 0.000000 0.000000 

-0.000000 0.000000 0.000000 
0.000000 -0.000000 0.000000 
0.000000 0.000000 0.000000 

-0.000000 0.000000 0.000000 
0.000000 -0.000000 0.000000 
0.000000 0.000000 0.000000 

0.000000 -0.000000 0.000000 
0.000000 0.000000 0.000000 
0.000000 0.000000 0.000000 

0.000000 0.000000 0.000000 
0.000000 0.000000 0.000000 
0.000000 0.000000 0.000000 

-0.000000 0.000000 0.000000 
0.000000 0.000000 0.000000 
0.000000 0.000000 0.000000 

-0.000000 -0.000000 0.000000 
0.000000 -0.000000 0.000000 
0.000000 0.000000 0.000000 

-0.000000 0.000000 0.000000 
0.000000 -0.000000 0.000000 
0.000000 0.000000 0.000000 

-0.000000 0.000000 0.000000 
0.000000 -0.000000 0.000000 
0.000000 0.000000 0.000000 

-0.000000 -0.000000 0.000000 
0.000000 -0.000000 0.000000 
0.000000 0.000000 0.000000 

-0.000000 -0.000000 0.000000 
0.000000 -0.000000 0.000000 
0.000000 0.000000 0.000000 

-0.000000 -0.000000 0.000000 
0.000000 -0.000000 0.000000 
0.000000 0.000000 0.000000 

0.000000 0.000000 0.000000 
0.000000 0.000000 0.000000 
0.000000 0.000000 0.000000 

-0.000000 -0.000000 0.000000 
0.000000 -0.000000 0.000000 
0.000000 0.000000 0.000000 

-0.000000 0.000000 0.000000 
0.000000 -0.000000 0.000000 
0.000000 0.000000 0.000000 

-0.000000 -0.000000 0.000000 
0.000000 -0.000000 0.000000 
0.000000 0.000000 0.000000 

-0.000000 0.000000 0.000000 
0.000000 -0.000000 0.000000 
0.000000 0.000000 0.000000 

-0.000000 -0.000000 0.000000 
0.000000 0.000000 0.000000 
0.000000 0.000000 0.000000 

-0.000000 -0.000000 0.000000 
0.000000 0.000000 0.000000 
0.000000 0.000000 0.000000 

0.000000 -0.000000 0.000000 
0.000000 0.000000 0.000000 
0.000000 0.000000 0.000000 

0.000000 0.000000 0.000000 
0.000000 -0.000000 0.000000 
0.000000 0.000000 0.000000 

-0.000000 0.000000 0.000000 
0.000000 -0.000000 0.000000 
0.000000 0.000000 0.000000 

-0.000000 -0.000000 0.000000 
0.000000 0.000000 0.000000 
0.000000 0.000000 0.000000 

-0.000000 -0.000000 0.000000 
0.000000 0.000000 0.000000 
0.000000 0.000000 0.000000 

-0.000000 0.000000 0.000000 
0.000000 -0.000000 0.000000 
0.000000 0.000000 0.000000 

-0.000000 0.000000 0.000000 
0.000000 0.000000 0.000000 
0.000000 0.000000 0.000000 

-0.000000 -0.000000 0.000000 
0.000000 0.000000 0.000000 
0.000000 0.000000 0.000000 

0.000000 -0.000000 0.000000 
0.000000 0.000000 0.000000 
0.000000 0.000000 0.000000 

0.000000 -0.000000 0.000000 
0.000000 0.000000 0.000000 
0.000000 0.000000 0.000000 

0.000000 -0.000000 0.000000 
0.000000 0.000000 0.000000 
0.000000 0.000000 0.000000 

0.000000 -0.000000 0.000000 
0.000000 0.000000 0.000000 
0.000000 0.000000 0.000000 

-0.000000 -0.000000 0.000000 
0.000000 0.000000 0.000000 
0.000000 0.000000 0.000000 

-0.000000 -0.000000 0.000000 
0.000000 0.000000 0.000000 
0.000000 0.000000 0.000000 

-0.000000 -0.000000 0.000000 
0.000000 -0.000000 0.000000 
0.000000 0.000000 0.000000 

-0.000000 0.000000 0.000000 
0.000000 -0.000000 0.000000 
0.000000 0.000000 0.000000 

0.000000 -0.000000 0.000000 
0.000000 0.000000 0.000000 
0.000000 0.000000 0.000000 

-0.000000 -0.000000 0.000000 
0.000000 0.000000 0.000000 
0.000000 0.000000 0.000000 

-0.000000 0.000000 0.000000 
0.000000 -0.000000 0.000000 
0.000000 0.000000 0.000000 

0.000000 -0.000000 0.000000 
0.000000 0.000000 0.000000 
0.000000 0.000000 0.000000 

0.000000 -0.000000 0.000000 
0.000000 -0.000000 0.000000 
0.000000 0.000000 0.000000 

-0.000000 -0.000000 0.000000 
0.000000 -0.000000 0.000000 
0.000000 0.000000 0.000000 

-0.000000 -0.000000 0.000000 
0.000000 -0.000000 0.000000 
0.000000 0.000000 0.000000 

-0.000000 0.000000 0.000000 
0.000000 -0.000000 0.000000 
0.000000 0.000000 0.000000 

-0.000000 -0.000000 0.000000 
0.000000 -0.000000 0.000000 
0.000000 0.000000 0.000000 

-0.000000 -0.000000 0.000000 
0.000000 0.000000 0.000000 
0.000000 0.000000 0.000000 

-0.000000 -0.000000 0.000000 
0.000000 0.000000 0.000000 
0.000000 0.000000 0.000000 

-0.000000 0.000000 0.000000 
0.000000 -0.000000 0.000000 
0.000000 0.000000 0.000000 

-0.000000 0.000000 0.000000 
0.000000 0.000000 0.000000 
0.000000 0.000000 0.000000 

-0.000000 -0.000000 0.000000 
0.000000 -0.000000 0.000000 
0.000000 0.000000 0.000000 

-0.000000 -0.000000 0.000000 
0.000000 -0.000000 0.000000 
0.000000 0.000000 0.000000 

-0.000000 0.000000 0.000000 
0.000000 -0.000000 0.000000 
0.000000 0.000000 0.000000 

-0.000000 -0.000000 0.000000 
0.000000 0.000000 0.000000 
0.000000 0.000000 0.000000 

0.000000 0.000000 0.000000 
0.000000 -0.000000 0.000000 
0.000000 0.000000 0.000000 

0.000000 0.000000 0.000000 
0.000000 0.000000 0.000000 
0.000000 0.000000 0.000000 

0.000000 -0.000000 0.000000 
0.000000 -0.000000 0.000000 
0.000000 0.000000 0.000000 

-0.000000 0.000000 0.000000 
0.000000 0.000000 0.000000 
0.000000 0.000000 0.000000 

0.000000 -0.000000 0.000000 
0.000000 0.000000 0.000000 
0.000000 0.000000 0.000000 

-0.000000 0.000000 0.000000 
0.000000 0.000000 0.000000 
0.000000 0.000000 0.000000 

-0.000000 -0.000000 0.000000 
0.000000 -0.000000 0.000000 
0.000000 0.000000 0.000000 

0.000000 0.000000 0.000000 
0.000000 0.000000 0.000000 
0.000000 0.000000 0.000000 

-0.000000 0.000000 0.000000 
0.000000 -0.000000 0.000000 
0.000000 0.000000 0.000000 

-0.000000 0.000000 0.000000 
0.000000 -0.000000 0.000000 
0.000000 0.000000 0.000000 

0.000000 -0.000000 0.000000 
0.000000 0.000000 0.000000 
0.000000 0.000000 0.000000 

0.000000 0.000000 0.000000 
0.000000 0.000000 0.000000 
0.000000 0.000000 0.000000 

-0.000000 -0.000000 0.000000 
0.000000 -0.000000 0.000000 
0.000000 0.000000 0.000000 

0.000000 -0.000000 0.000000 
0.000000 0.000000 0.000000 
0.000000 0.000000 0.000000 

-0.000000 -0.000000 0.000000 
0.000000 -0.000000 0.000000 
0.000000 0.000000 0.000000 

0.000000 -0.000000 0.000000 
0.000000 0.000000 0.000000 
0.000000 0.000000 0.000000 

0.000000 0.000000 0.000000 
0.000000 0.000000 0.000000 
0.000000 0.000000 0.000000 

-0.000000 0.000000 0.000000 
0.000000 -0.000000 0.000000 
0.000000 0.000000 0.000000 

-0.000000 0.000000 0.000000 
0.000000 -0.000000 0.000000 
0.000000 0.000000 0.000000 

-0.000000 0.000000 0.000000 
0.000000 -0.000000 0.000000 
0.000000 0.000000 0.000000 

0.000000 0.000000 0.000000 
0.000000 0.000000 0.000000 
0.000000 0.000000 0.000000 

0.000000 0.000000 0.000000 
0.000000 -0.000000 0.000000 
0.000000 0.000000 0.000000 

0.000000 0.000000 0.000000 
0.000000 -0.000000 0.000000 
0.000000 0.000000 0.000000 

0.000000 0.000000 0.000000 
0.000000 0.000000 0.000000 
0.000000 0.000000 0.000000 

-0.000000 -0.000000 0.000000 
0.000000 -0.000000 0.000000 
0.000000 0.000000 0.000000 

-0.000000 -0.000000 0.000000 
0.000000 0.000000 0.000000 
0.000000 0.000000 0.000000 

-0.000000 0.000000 0.000000 
0.000000 -0.000000 0.000000 
0.000000 0.000000 0.000000 

-0.000000 -0.000000 0.000000 
0.000000 -0.000000 0.000000 
0.000000 0.000000 0.000000 

-0.000000 -0.000000 0.000000 
0.000000 -0.000000 0.000000 
0.000000 0.000000 0.000000 

-0.000000 -0.000000 0.000000 
0.000000 -0.000000 0.000000 
0.000000 0.000000 0.000000 

0.000000 0.000000 0.000000 
0.000000 0.000000 0.000000 
0.000000 0.000000 0.000000 

-0.000000 -0.000000 0.000000 
0.000000 -0.000000 0.000000 
0.000000 0.000000 0.000000 

-0.000000 0.000000 0.000000 
0.000000 -0.000000 0.000000 
0.000000 0.000000 0.000000 

-0.000000 0.000000 0.000000 
0.000000 -0.000000 0.000000 
0.000000 0.000000 0.000000 

-0.000000 -0.000000 0.000000 
0.000000 -0.000000 0.000000 
0.000000 0.000000 0.000000 

-0.000000 -0.000000 0.000000 
0.000000 0.000000 0.000000 
0.000000 0.000000 0.000000 

-0.000000 0.000000 0.000000 
0.000000 -0.000000 0.000000 
0.000000 0.000000 0.000000 

-0.000000 0.000000 0.000000 
0.000000 0.000000 0.000000 
0.000000 0.000000 0.000000 

0.000000 0.000000 0.000000 
0.000000 0.000000 0.000000 
0.000000 0.000000 0.000000 

0.000000 0.000000 0.000000 
0.000000 -0.000000 0.000000 
0.000000 0.000000 0.000000 

-0.000000 0.000000 0.000000 
0.000000 -0.000000 0.000000 
0.000000 0.000000 0.000000 

-0.000000 0.000000 0.000000 
0.000000 0.000000 0.000000 
0.000000 0.000000 0.000000 

-0.000000 -0.000000 0.000000 
0.000000 -0.000000 0.000000 
0.000000 0.000000 0.000000 

-0.000000 -0.000000 0.000000 
0.000000 0.000000 0.000000 
0.000000 0.000000 0.000000 

-0.000000 -0.000000 0.000000 
0.000000 -0.000000 0.000000 
0.000000 0.000000 0.000000 

0.000000 -0.000000 0.000000 
0.000000 -0.000000 0.000000 
0.000000 0.000000 0.000000 

-0.000000 0.000000 0.000000 
0.000000 -0.000000 0.000000 
0.000000 0.000000 0.000000 

-0.000000 -0.000000 0.000000 
0.000000 -0.000000 0.000000 
0.000000 0.000000 0.000000 

-0.000000 -0.000000 0.000000 
0.000000 -0.000000 0.000000 
0.000000 0.000000 0.000000 

0.000000 -0.000000 0.000000 
0.000000 -0.000000 0.000000 
0.000000 0.000000 0.000000 

0.000000 0.000000 0.000000 
0.000000 -0.000000 0.000000 
0.000000 0.000000 0.000000 

0.000000 0.000000 0.000000 
0.000000 0.000000 0.000000 
0.000000 0.000000 0.000000 

0.000000 -0.000000 0.000000 
0.000000 0.000000 0.000000 
0.000000 0.000000 0.000000 

-0.000000 -0.000000 0.000000 
0.000000 -0.000000 0.000000 
0.000000 0.000000 0.000000 

0.000000 -0.000000 0.000000 
0.000000 0.000000 0.000000 
0.000000 0.000000 0.000000 

0.000000 -0.000000 0.000000 
0.000000 0.000000 0.000000 
0.000000 0.000000 0.000000 

-0.000000 -0.000000 0.000000 
0.000000 -0.000000 0.000000 
0.000000 0.000000 0.000000 

-0.000000 -0.000000 0.000000 
0.000000 0.000000 0.000000 
0.000000 0.000000 0.000000 

-0.000000 -0.000000 0.000000 
0.000000 -0.000000 0.000000 
0.000000 0.000000 0.000000 

0.000000 -0.000000 0.000000 
0.000000 0.000000 0.000000 
0.000000 0.000000 0.000000 

0.000000 0.000000 0.000000 
0.000000 0.000000 0.000000 
0.000000 0.000000 0.000000 

-0.000000 -0.000000 0.000000 
0.000000 -0.000000 0.000000 
0.000000 0.000000 0.000000 

0.000000 -0.000000 0.000000 
0.000000 -0.000000 0.000000 
0.000000 0.000000 0.000000 

0.000000 -0.000000 0.000000 
0.000000 -0.000000 0.000000 
0.000000 0.000000 0.000000 

0.000000 -0.000000 0.000000 
0.000000 0.000000 0.000000 
0.000000 0.000000 0.000000 

0.000000 -0.000000 0.000000 
0.000000 0.000000 0.000000 
0.000000 0.000000 0.000000 

-0.000000 -0.000000 0.000000 
0.000000 -0.000000 0.000000 
0.000000 0.000000 0.000000 

-0.000000 0.000000 0.000000 
0.000000 0.000000 0.000000 
0.000000 0.000000 0.000000 

-0.000000 -0.000000 0.000000 
0.000000 -0.000000 0.000000 
0.000000 0.000000 0.000000 

-0.000000 0.000000 0.000000 
0.000000 -0.000000 0.000000 
0.000000 0.000000 0.000000 

0.000000 0.000000 0.000000 
0.000000 -0.000000 0.000000 
0.000000 0.000000 0.000000 

-0.000000 0.000000 0.000000 
0.000000 0.000000 0.000000 
0.000000 0.000000 0.000000 

-0.000000 -0.000000 0.000000 
0.000000 -0.000000 0.000000 
0.000000 0.000000 0.000000 

-0.000000 0.000000 0.000000 
0.000000 -0.000000 0.000000 
0.000000 0.000000 0.000000 

-0.000000 -0.000000 0.000000 
0.000000 -0.000000 0.000000 
0.000000 0.000000 0.000000 

-0.000000 0.000000 0.000000 
0.000000 -0.000000 0.000000 
0.000000 0.000000 0.000000 

0.000000 -0.000000 0.000000 
0.000000 0.000000 0.000000 
0.000000 0.000000 0.000000 

0.000000 -0.000000 0.000000 
0.000000 0.000000 0.000000 
0.000000 0.000000 0.000000 

-0.000000 -0.000000 0.000000 
0.000000 -0.000000 0.000000 
0.000000 0.000000 0.000000 

0.000000 -0.000000 0.000000 
0.000000 0.000000 0.000000 
0.000000 0.000000 0.000000 

-0.000000 0.000000 0.000000 
0.000000 -0.000000 0.000000 
0.000000 0.000000 0.000000 

0.000000 -0.000000 0.000000 
0.000000 -0.000000 0.000000 
0.000000 0.000000 0.000000 

0.000000 0.000000 0.000000 
0.000000 0.000000 0.000000 
0.000000 0.000000 0.000000 

-0.000000 0.000000 0.000000 
0.000000 -0.000000 0.000000 
0.000000 0.000000 0.000000 

-0.000000 0.000000 0.000000 
0.000000 -0.000000 0.000000 
0.000000 0.000000 0.000000 

-0.000000 0.000000 0.000000 
0.000000 -0.000000 0.000000 
0.000000 0.000000 0.000000 

0.000000 -0.000000 0.000000 
0.000000 -0.000000 0.000000 
0.000000 0.000000 0.000000 

0.000000 0.000000 0.000000 
0.000000 0.000000 0.000000 
0.000000 0.000000 0.000000 

-0.000000 -0.000000 0.000000 
0.000000 -0.000000 0.000000 
0.000000 0.000000 0.000000 

0.000000 -0.000000 0.000000 
0.000000 0.000000 0.000000 
0.000000 0.000000 0.000000 

-0.000000 -0.000000 0.000000 
0.000000 -0.000000 0.000000 
0.000000 0.000000 0.000000 

-0.000000 -0.000000 0.000000 
0.000000 -0.000000 0.000000 
0.000000 0.000000 0.000000 

-0.000000 -0.000000 0.000000 
0.000000 -0.000000 0.000000 
0.000000 0.000000 0.000000 

-0.000000 0.000000 0.000000 
0.000000 -0.000000 0.000000 
0.000000 0.000000 0.000000 

0.000000 0.000000 0.000000 
0.000000 0.000000 0.000000 
0.000000 0.000000 0.000000 

-0.000000 0.000000 0.000000 
0.000000 -0.000000 0.000000 
0.000000 0.000000 0.000000 

-0.000000 -0.000000 0.000000 
0.000000 -0.000000 0.000000 
0.000000 0.000000 0.000000 

0.000000 -0.000000 0.000000 
0.000000 0.000000 0.000000 
0.000000 0.000000 0.000000 

0.000000 -0.000000 0.000000 
0.000000 0.000000 0.000000 
0.000000 0.000000 0.000000 

-0.000000 0.000000 0.000000 
0.000000 -0.000000 0.000000 
0.000000 0.000000 0.000000 

-0.000000 -0.000000 0.000000 
0.000000 -0.000000 0.000000 
0.000000 0.000000 0.000000 

-0.000000 0.000000 0.000000 
0.000000 0.000000 0.000000 
0.000000 0.000000 0.000000 

TENSORS STRAIN float 
0.000000 -0.000000 0.000000 
0.000000 -0.000000 0.000000 
0.000000 0.000000 0.000000 

0.000000 0.000000 0.000000 
0.000000 0.000000 0.000000 
0.000000 0.000000 0.000000 

0.000000 0.000000 0.000000 
0.000000 -0.000000 0.000000 
0.000000 0.000000 0.000000 

-0.000000 0.000000 0.000000 
0.000000 -0.000000 0.000000 
0.000000 0.000000 0.000000 

0.000000 0.000000 0.000000 
0.000000 -0.000000 0.000000 
0.000000 0.000000 0.000000 

0.000000 0.000000 0.000000 
0.000000 -0.000000 0.000000 
0.000000 0.000000 0.000000 

0.000000 -0.000000 0.000000 
0.000000 -0.000000 0.000000 
0.000000 0.000000 0.000000 

-0.000000 -0.000000 0.000000 
0.000000 -0.000000 0.000000 
0.000000 0.000000 0.000000 

0.000000 -0.000000 0.000000 
0.000000 -0.000000 0.000000 
0.000000 0.000000 0.000000 

0.000000 -0.000000 0.000000 
0.000000 -0.000000 0.000000 
0.000000 0.000000 0.000000 

0.000000 -0.000000 0.000000 
0.000000 -0.000000 0.000000 
0.000000 0.000000 0.000000 

0.000000 -0.000000 0.000000 
0.000000 -0.000000 0.000000 
0.000000 0.000000 0.000000 

0.000000 -0.000000 0.000000 
0.000000 -0.000000 0.000000 
0.000000 0.000000 0.000000 

0.000000 0.000000 0.000000 
0.000000 0.000000 0.000000 
0.000000 0.000000 0.000000 

0.000000 -0.000000 0.000000 
0.000000 0.000000 0.000000 
0.000000 0.000000 0.000000 

0.000000 -0.000000 0.000000 
0.000000 -0.000000 0.000000 
0.000000 0.000000 0.000000 

0.000000 -0.000000 0.000000 
0.000000 0.000000 0.000000 
0.000000 0.000000 0.000000 

0.000000 -0.000000 0.000000 
0.000000 0.000000 0.000000 
0.000000 0.000000 0.000000 

-0.000000 -0.000000 0.000000 
0.000000 0.000000 0.000000 
0.000000 0.000000 0.000000 

0.000000 0.000000 0.000000 
0.000000 0.000000 0.000000 
0.000000 0.000000 0.000000 

0.000000 0.000000 0.000000 
0.000000 -0.000000 0.000000 
0.000000 0.000000 0.000000 

0.000000 -0.000000 0.000000 
0.000000 -0.000000 0.000000 
0.000000 0.000000 0.000000 

-0.000000 0.000000 0.000000 
0.000000 -0.000000 0.000000 
0.000000 0.000000 0.000000 

0.000000 0.000000 0.000000 
0.000000 -0.000000 0.000000 
0.000000 0.000000 0.000000 

0.000000 -0.000000 0.000000 
0.000000 0.000000 0.000000 
0.000000 0.000000 0.000000 

0.000000 0.000000 0.000000 
0.000000 -0.000000 0.000000 
0.000000 0.000000 0.000000 

-0.000000 0.000000 0.000000 
0.000000 0.000000 0.000000 
0.000000 0.000000 0.000000 

-0.000000 -0.000000 0.000000 
0.000000 0.000000 0.000000 
0.000000 0.000000 0.000000 

-0.000000 0.000000 0.000000 
0.000000 -0.000000 0.000000 
0.000000 0.000000 0.000000 

-0.000000 0.000000 0.000000 
0.000000 -0.000000 0.000000 
0.000000 0.000000 0.000000 

-0.000000 -0.000000 0.000000 
0.000000 0.000000 0.000000 
0.000000 0.000000 0.000000 

-0.000000 -0.000000 0.000000 
0.000000 -0.000000 0.000000 
0.000000 0.000000 0.000000 

-0.000000 -0.000000 0.000000 
0.000000 -0.000000 0.000000 
0.000000 0.000000 0.000000 

0.000000 0.000000 0.000000 
0.000000 0.000000 0.000000 
0.000000 0.000000 0.000000 

-0.000000 -0.000000 0.000000 
0.000000 -0.000000 0.000000 
0.000000 0.000000 0.000000 

-0.000000 0.000000 0.000000 
0.000000 -0.000000 0.000000 
0.000000 0.000000 0.000000 

-0.000000 -0.000000 0.000000 
0.000000 0.000000 0.000000 
0.000000 0.000000 0.000000 

-0.000000 0.000000 0.000000 
0.000000 -0.000000 0.000000 
0.000000 0.000000 0.000000 

-0.000000 -0.000000 0.000000 
0.000000 0.000000 0.000000 
0.000000 0.000000 0.000000 

-0.000000 -0.000000 0.000000 
0.000000 0.000000 0.000000 
0.000000 0.000000 0.000000 

0.000000 -0.000000 0.000000 
0.000000 0.000000 0.000000 
0.000000 0.000000 0.000000 

0.000000 0.000000 0.000000 
0.000000 -0.000000 0.000000 
0.000000 0.000000 0.000000 

0.000000 0.000000 0.000000 
0.000000 -0.000000 0.000000 
0.000000 0.000000 0.000000 

-0.000000 -0.000000 0.000000 
0.000000 0.000000 0.000000 
0.000000 0.000000 0.000000 

-0.000000 -0.000000 0.000000 
0.000000 0.000000 0.000000 
0.000000 0.000000 0.000000 

-0.000000 0.000000 0.000000 
0.000000 -0.000000 0.000000 
0.000000 0.000000 0.000000 

-0.000000 0.000000 0.000000 
0.000000 0.000000 0.000000 
0.000000 0.000000 0.000000 

-0.000000 -0.000000 0.000000 
0.000000 0.000000 0.000000 
0.000000 0.000000 0.000000 

0.000000 -0.000000 0.000000 
0.000000 0.000000 0.000000 
0.000000 0.000000 0.000000 

0.000000 -0.000000 0.000000 
0.000000 0.000000 0.000000 
0.000000 0.000000 0.000000 

0.000000 -0.000000 0.000000 
0.000000 0.000000 0.000000 
0.000000 0.000000 0.000000 

0.000000 -0.000000 0.000000 
0.000000 0.000000 0.000000 
0.000000 0.000000 0.000000 

-0.000000 -0.000000 0.000000 
0.000000 0.000000 0.000000 
0.000000 0.000000 0.000000 

-0.000000 -0.000000 0.000000 
0.000000 0.000000 0.000000 
0.000000 0.000000 0.000000 

0.000000 -0.000000 0.000000 
0.000000 -0.000000 0.000000 
0.000000 0.000000 0.000000 

0.000000 0.000000 0.000000 
0.000000 -0.000000 0.000000 
0.000000 0.000000 0.000000 

0.000000 -0.000000 0.000000 
0.000000 0.000000 0.000000 
0.000000 0.000000 0.000000 

-0.000000 -0.000000 0.000000 
0.000000 0.000000 0.000000 
0.000000 0.000000 0.000000 

-0.000000 0.000000 0.000000 
0.000000 -0.000000 0.000000 
0.000000 0.000000 0.000000 

-0.000000 -0.000000 0.000000 
0.000000 0.000000 0.000000 
0.000000 0.000000 0.000000 

0.000000 -0.000000 0.000000 
0.000000 -0.000000 0.000000 
0.000000 0.000000 0.000000 

-0.000000 -0.000000 0.000000 
0.000000 -0.000000 0.000000 
0.000000 0.000000 0.000000 

-0.000000 -0.000000 0.000000 
0.000000 -0.000000 0.000000 
0.000000 0.000000 0.000000 

-0.000000 0.000000 0.000000 
0.000000 -0.000000 0.000000 
0.000000 0.000000 0.000000 

-0.000000 -0.000000 0.000000 
0.000000 -0.000000 0.000000 
0.000000 0.000000 0.000000 

-0.000000 -0.000000 0.000000 
0.000000 0.000000 0.000000 
0.000000 0.000000 0.000000 

-0.000000 -0.000000 0.000000 
0.000000 0.000000 0.000000 
0.000000 0.000000 0.000000 

-0.000000 0.000000 0.000000 
0.000000 -0.000000 0.000000 
0.000000 0.000000 0.000000 

-0.000000 0.000000 0.000000 
0.000000 0.000000 0.000000 
0.000000 0.000000 0.000000 

-0.000000 -0.000000 0.000000 
0.000000 -0.000000 0.000000 
0.000000 0.000000 0.000000 

-0.000000 -0.000000 0.000000 
0.000000 -0.000000 0.000000 
0.000000 0.000000 0.000000 

-0.000000 0.000000 0.000000 
0.000000 -0.000000 0.000000 
0.000000 0.000000 0.000000 

-0.000000 -0.000000 0.000000 
0.000000 0.000000 0.000000 
0.000000 0.000000 0.000000 

0.000000 0.000000 0.000000 
0.000000 -0.000000 0.000000 
0.000000 0.000000 0.000000 

0.000000 0.000000 0.000000 
0.000000 0.000000 0.000000 
0.000000 0.000000 0.000000 

0.000000 -0.000000 0.000000 
0.000000 -0.000000 0.000000 
0.000000 0.000000 0.000000 

-0.000000 0.000000 0.000000 
0.000000 0.000000 0.000000 
0.000000 0.000000 0.000000 

0.000000 -0.000000 0.000000 
0.000000 0.000000 0.000000 
0.000000 0.000000 0.000000 

-0.000000 0.000000 0.000000 
0.000000 0.000000 0.000000 
0.000000 0.000000 0.000000 

-0.000000 -0.000000 0.000000 
0.000000 -0.000000 0.000000 
0.000000 0.000000 0.000000 

-0.000000 0.000000 0.000000 
0.000000 0.000000 0.000000 
0.000000 0.000000 0.000000 

-0.000000 0.000000 0.000000 
0.000000 -0.000000 0.000000 
0.000000 0.000000 0.000000 

-0.000000 0.000000 0.000000 
0.000000 -0.000000 0.000000 
0.000000 0.000000 0.000000 

0.000000 -0.000000 0.000000 
0.000000 0.000000 0.000000 
0.000000 0.000000 0.000000 

-0.000000 0.000000 0.000000 
0.000000 0.000000 0.000000 
0.000000 0.000000 0.000000 

-0.000000 -0.000000 0.000000 
0.000000 -0.000000 0.000000 
0.000000 0.000000 0.000000 

0.000000 -0.000000 0.000000 
0.000000 -0.000000 0.000000 
0.000000 0.000000 0.000000 

0.000000 -0.000000 0.000000 
0.000000 -0.000000 0.000000 
0.000000 0.000000 0.000000 

0.000000 -0.000000 0.000000 
0.000000 0.000000 0.000000 
0.000000 0.000000 0.000000 

-0.000000 0.000000 0.000000 
0.000000 0.000000 0.000000 
0.000000 0.000000 0.000000 

-0.000000 0.000000 0.000000 
0.000000 -0.000000 0.000000 
0.000000 0.000000 0.000000 

-0.000000 0.000000 0.000000 
0.000000 -0.000000 0.000000 
0.000000 0.000000 0.000000 

-0.000000 0.000000 0.000000 
0.000000 -0.000000 0.000000 
0.000000 0.000000 0.000000 

0.000000 0.000000 0.000000 
0.000000 0.000000 0.000000 
0.000000 0.000000 0.000000 

0.000000 0.000000 0.000000 
0.000000 -0.000000 0.000000 
0.000000 0.000000 0.000000 

0.000000 0.000000 0.000000 
0.000000 -0.000000 0.000000 
0.000000 0.000000 0.000000 

0.000000 0.000000 0.000000 
0.000000 0.000000 0.000000 
0.000000 0.000000 0.000000 

-0.000000 -0.000000 0.000000 
0.000000 -0.000000 0.000000 
0.000000 0.000000 0.000000 

-0.000000 -0.000000 0.000000 
0.000000 0.000000 0.000000 
0.000000 0.000000 0.000000 

-0.000000 0.000000 0.000000 
0.000000 -0.000000 0.000000 
0.000000 0.000000 0.000000 

0.000000 -0.000000 0.000000 
0.000000 -0.000000 0.000000 
0.000000 0.000000 0.000000 

0.000000 -0.000000 0.000000 
0.000000 -0.000000 0.000000 
0.000000 0.000000 0.000000 

-0.000000 -0.000000 0.000000 
0.000000 -0.000000 0.000000 
0.000000 0.000000 0.000000 

-0.000000 0.000000 0.000000 
0.000000 0.000000 0.000000 
0.000000 0.000000 0.000000 

-0.000000 -0.000000 0.000000 
0.000000 -0.000000 0.000000 
0.000000 0.000000 0.000000 

0.000000 0.000000 0.000000 
0.000000 -0.000000 0.000000 
0.000000 0.000000 0.000000 

-0.000000 0.000000 0.000000 
0.000000 0.000000 0.000000 
0.000000 0.000000 0.000000 

-0.000000 -0.000000 0.000000 
0.000000 -0.000000 0.000000 
0.000000 0.000000 0.000000 

-0.000000 -0.000000 0.000000 
0.000000 0.000000 0.000000 
0.000000 0.000000 0.000000 

-0.000000 0.000000 0.000000 
0.000000 -0.000000 0.000000 
0.000000 0.000000 0.000000 

-0.000000 0.000000 0.000000 
0.000000 0.000000 0.000000 
0.000000 0.000000 0.000000 

0.000000 0.000000 0.000000 
0.000000 0.000000 0.000000 
0.000000 0.000000 0.000000 

0.000000 0.000000 0.000000 
0.000000 -0.000000 0.000000 
0.000000 0.000000 0.000000 

0.000000 0.000000 0.000000 
0.000000 -0.000000 0.000000 
0.000000 0.000000 0.000000 

-0.000000 0.000000 0.000000 
0.000000 0.000000 0.000000 
0.000000 0.000000 0.000000 

-0.000000 -0.000000 0.000000 
0.000000 -0.000000 0.000000 
0.000000 0.000000 0.000000 

-0.000000 -0.000000 0.000000 
0.000000 0.000000 0.000000 
0.000000 0.000000 0.000000 

-0.000000 -0.000000 0.000000 
0.000000 0.000000 0.000000 
0.000000 0.000000 0.000000 

0.000000 -0.000000 0.000000 
0.000000 -0.000000 0.000000 
0.000000 0.000000 0.000000 

0.000000 0.000000 0.000000 
0.000000 -0.000000 0.000000 
0.000000 0.000000 0.000000 

0.000000 -0.000000 0.000000 
0.000000 -0.000000 0.000000 
0.000000 0.000000 0.000000 

0.000000 -0.000000 0.000000 
0.000000 -0.000000 0.000000 
0.000000 0.000000 0.000000 

0.000000 -0.000000 0.000000 
0.000000 -0.000000 0.000000 
0.000000 0.000000 0.000000 

0.000000 0.000000 0.000000 
0.000000 -0.000000 0.000000 
0.000000 0.000000 0.000000 

-0.000000 0.000000 0.000000 
0.000000 0.000000 0.000000 
0.000000 0.000000 0.000000 

0.000000 -0.000000 0.000000 
0.000000 0.000000 0.000000 
0.000000 0.000000 0.000000 

-0.000000 -0.000000 0.000000 
0.000000 -0.000000 0.000000 
0.000000 0.000000 0.000000 

-0.000000 -0.000000 0.000000 
0.000000 0.000000 0.000000 
0.000000 0.000000 0.000000 

0.000000 -0.000000 0.000000 
0.000000 0.000000 0.000000 
0.000000 0.000000 0.000000 

-0.000000 -0.000000 0.000000 
0.000000 -0.000000 0.000000 
0.000000 0.000000 0.000000 

-0.000000 -0.000000 0.000000 
0.000000 0.000000 0.000000 
0.000000 0.000000 0.000000 

0.000000 -0.000000 0.000000 
0.000000 -0.000000 0.000000 
0.000000 0.000000 0.000000 

-0.000000 -0.000000 0.000000 
0.000000 0.000000 0.000000 
0.000000 0.000000 0.000000 

-0.000000 0.000000 0.000000 
0.000000 0.000000 0.000000 
0.000000 0.000000 0.000000 

0.000000 -0.000000 0.000000 
0.000000 -0.000000 0.000000 
0.000000 0.000000 0.000000 

0.000000 -0.000000 0.000000 
0.000000 -0.000000 0.000000 
0.000000 0.000000 0.000000 

0.000000 -0.000000 0.000000 
0.000000 -0.000000 0.000000 
0.000000 0.000000 0.000000 

0.000000 -0.000000 0.000000 
0.000000 -0.000000 0.000000 
0.000000 0.000000 0.000000 

0.000000 -0.000000 0.000000 
0.000000 0.000000 0.000000 
0.000000 0.000000 0.000000 

-0.000000 -0.000000 0.000000 
0.000000 -0.000000 0.000000 
0.000000 0.000000 0.000000 

-0.000000 0.000000 0.000000 
0.000000 0.000000 0.000000 
0.000000 0.000000 0.000000 

-0.000000 -0.000000 0.000000 
0.000000 -0.000000 0.000000 
0.000000 0.000000 0.000000 

-0.000000 0.000000 0.000000 
0.000000 -0.000000 0.000000 
0.000000 0.000000 0.000000 

0.000000 0.000000 0.000000 
0.000000 -0.000000 0.000000 
0.000000 0.000000 0.000000 

-0.000000 0.000000 0.000000 
0.000000 0.000000 0.000000 
0.000000 0.000000 0.000000 

-0.000000 -0.000000 0.000000 
0.000000 0.000000 0.000000 
0.000000 0.000000 0.000000 

-0.000000 0.000000 0.000000 
0.000000 0.000000 0.000000 
0.000000 0.000000 0.000000 

-0.000000 -0.000000 0.000000 
0.000000 -0.000000 0.000000 
0.000000 0.000000 0.000000 

-0.000000 0.000000 0.000000 
0.000000 0.000000 0.000000 
0.000000 0.000000 0.000000 

0.000000 -0.000000 0.000000 
0.000000 0.000000 0.000000 
0.000000 0.000000 0.000000 

0.000000 -0.000000 0.000000 
0.000000 0.000000 0.000000 
0.000000 0.000000 0.000000 

-0.000000 -0.000000 0.000000 
0.000000 -0.000000 0.000000 
0.000000 0.000000 0.000000 

0.000000 -0.000000 0.000000 
0.000000 0.000000 0.000000 
0.000000 0.000000 0.000000 

-0.000000 0.000000 0.000000 
0.000000 -0.000000 0.000000 
0.000000 0.000000 0.000000 

0.000000 -0.000000 0.000000 
0.000000 -0.000000 0.000000 
0.000000 0.000000 0.000000 

-0.000000 0.000000 0.000000 
0.000000 0.000000 0.000000 
0.000000 0.000000 0.000000 

0.000000 0.000000 0.000000 
0.000000 -0.000000 0.000000 
0.000000 0.000000 0.000000 

-0.000000 0.000000 0.000000 
0.000000 -0.000000 0.000000 
0.000000 0.000000 0.000000 

-0.000000 0.000000 0.000000 
0.000000 -0.000000 0.000000 
0.000000 0.000000 0.000000 

0.000000 -0.000000 0.000000 
0.000000 -0.000000 0.000000 
0.000000 0.000000 0.000000 

0.000000 0.000000 0.000000 
0.000000 0.000000 0.000000 
0.000000 0.000000 0.000000 

-0.000000 -0.000000 0.000000 
0.000000 -0.000000 0.000000 
0.000000 0.000000 0.000000 

0.000000 -0.000000 0.000000 
0.000000 0.000000 0.000000 
0.000000 0.000000 0.000000 

0.000000 -0.000000 0.000000 
0.000000 -0.000000 0.000000 
0.000000 0.000000 0.000000 

0.000000 -0.000000 0.000000 
0.000000 -0.000000 0.000000 
0.000000 0.000000 0.000000 

-0.000000 -0.000000 0.000000 
0.000000 -0.000000 0.000000 
0.000000 0.000000 0.000000 

0.000000 0.000000 0.000000 
0.000000 -0.000000 0.000000 
0.000000 0.000000 0.000000 

0.000000 0.000000 0.000000 
0.000000 0.000000 0.000000 
0.000000 0.000000 0.000000 

-0.000000 0.000000 0.000000 
0.000000 -0.000000 0.000000 
0.000000 0.000000 0.000000 

-0.000000 -0.000000 0.000000 
0.000000 -0.000000 0.000000 
0.000000 0.000000 0.000000 

-0.000000 -0.000000 0.000000 
0.000000 0.000000 0.000000 
0.000000 0.000000 0.000000 

-0.000000 -0.000000 0.000000 
0.000000 0.000000 0.000000 
0.000000 0.000000 0.000000 

-0.000000 0.000000 0.000000 
0.000000 0.000000 0.000000 
0.000000 0.000000 0.000000 

-0.000000 -0.000000 0.000000 
0.000000 -0.000000 0.000000 
0.000000 0.000000 0.000000 

-0.000000 0.000000 0.000000 
0.000000 0.000000 0.000000 
0.000000 0.000000 0.000000 

