# vtk DataFile Version 3.0 
vtk output 
ASCII 
DATASET UNSTRUCTURED_GRID 
POINTS 175 float 
-0.026061 -0.453570 0.000000 
-0.106992 -0.385514 0.000000 
-0.054870 -0.393747 0.000000 
-0.028809 -0.347863 0.000000 
-0.186430 -0.321439 0.000000 
-0.137056 -0.323965 0.000000 
-0.114311 -0.270318 0.000000 
-0.058186 -0.285983 0.000000 
-0.029377 -0.245806 0.000000 
-0.265318 -0.258283 0.000000 
-0.217198 -0.259083 0.000000 
-0.196633 -0.201786 0.000000 
-0.143120 -0.210495 0.000000 
-0.116563 -0.163226 0.000000 
-0.058945 -0.182872 0.000000 
-0.029568 -0.144752 0.000000 
-0.344206 -0.195127 0.000000 
-0.296791 -0.195120 0.000000 
-0.278030 -0.135177 0.000000 
-0.225992 -0.141043 0.000000 
-0.201664 -0.088926 0.000000 
-0.145749 -0.102400 0.000000 
-0.117890 -0.058058 0.000000 
-0.059328 -0.080764 0.000000 
-0.029759 -0.043698 0.000000 
-0.058559 -0.494320 0.000000 
-0.162226 -0.515163 0.000000 
-0.123292 -0.479545 0.000000 
-0.142917 -0.430562 0.000000 
-0.261851 -0.537319 0.000000 
-0.229092 -0.500292 0.000000 
-0.256854 -0.449061 0.000000 
-0.209613 -0.414948 0.000000 
-0.223062 -0.367374 0.000000 
-0.360414 -0.559620 0.000000 
-0.329787 -0.522497 0.000000 
-0.361761 -0.470695 0.000000 
-0.321587 -0.434286 0.000000 
-0.341985 -0.384052 0.000000 
-0.290702 -0.351253 0.000000 
-0.302189 -0.304518 0.000000 
-0.458977 -0.581920 0.000000 
-0.429420 -0.544845 0.000000 
-0.464588 -0.492803 0.000000 
-0.427556 -0.455776 0.000000 
-0.453135 -0.404261 0.000000 
-0.407738 -0.368946 0.000000 
-0.425037 -0.319518 0.000000 
-0.370772 -0.287888 0.000000 
-0.381315 -0.241661 0.000000 
-0.046960 -0.545136 0.000000 
-0.095301 -0.639181 0.000000 
-0.098873 -0.586534 0.000000 
-0.149405 -0.571337 0.000000 
-0.140093 -0.730885 0.000000 
-0.148617 -0.682187 0.000000 
-0.205981 -0.671950 0.000000 
-0.203197 -0.613747 0.000000 
-0.248777 -0.594600 0.000000 
-0.184111 -0.821849 0.000000 
-0.194039 -0.774758 0.000000 
-0.254475 -0.767458 0.000000 
-0.257893 -0.713349 0.000000 
-0.309886 -0.697976 0.000000 
-0.303554 -0.637431 0.000000 
-0.347255 -0.617273 0.000000 
-0.228129 -0.912813 0.000000 
-0.238687 -0.866588 0.000000 
-0.301302 -0.861636 0.000000 
-0.307162 -0.809597 0.000000 
-0.363386 -0.797477 0.000000 
-0.362692 -0.739965 0.000000 
-0.412122 -0.722672 0.000000 
-0.403017 -0.660525 0.000000 
-0.445733 -0.639946 0.000000 
-0.000000 -0.567751 0.000000 
0.043388 -0.664181 0.000000 
-0.000000 -0.634149 0.000000 
-0.043388 -0.664181 0.000000 
0.087158 -0.756378 0.000000 
0.043769 -0.732679 0.000000 
-0.000000 -0.771145 0.000000 
-0.043769 -0.732679 0.000000 
-0.087158 -0.756378 0.000000 
0.130831 -0.847507 0.000000 
0.087824 -0.825909 0.000000 
0.044436 -0.868608 0.000000 
-0.000000 -0.837543 0.000000 
-0.044436 -0.868608 0.000000 
-0.087824 -0.825909 0.000000 
-0.130831 -0.847507 0.000000 
0.174505 -0.938637 0.000000 
0.131782 -0.918071 0.000000 
0.088871 -0.963938 0.000000 
0.044532 -0.936074 0.000000 
-0.000000 -0.972474 0.000000 
-0.044532 -0.936074 0.000000 
-0.088871 -0.963938 0.000000 
-0.131782 -0.918071 0.000000 
-0.174505 -0.938637 0.000000 
0.046960 -0.545136 0.000000 
0.149405 -0.571337 0.000000 
0.098873 -0.586534 0.000000 
0.095301 -0.639181 0.000000 
0.248777 -0.594600 0.000000 
0.203197 -0.613747 0.000000 
0.205981 -0.671950 0.000000 
0.148617 -0.682187 0.000000 
0.140093 -0.730885 0.000000 
0.347255 -0.617273 0.000000 
0.303554 -0.637431 0.000000 
0.309886 -0.697976 0.000000 
0.257893 -0.713349 0.000000 
0.254475 -0.767458 0.000000 
0.194039 -0.774758 0.000000 
0.184111 -0.821849 0.000000 
0.445733 -0.639946 0.000000 
0.403017 -0.660525 0.000000 
0.412122 -0.722672 0.000000 
0.362692 -0.739965 0.000000 
0.363386 -0.797477 0.000000 
0.307162 -0.809597 0.000000 
0.301302 -0.861636 0.000000 
0.238687 -0.866588 0.000000 
0.228129 -0.912813 0.000000 
0.058559 -0.494320 0.000000 
0.142917 -0.430562 0.000000 
0.123292 -0.479545 0.000000 
0.162226 -0.515163 0.000000 
0.223062 -0.367374 0.000000 
0.209613 -0.414948 0.000000 
0.256854 -0.449061 0.000000 
0.229092 -0.500292 0.000000 
0.261851 -0.537319 0.000000 
0.302189 -0.304518 0.000000 
0.290702 -0.351253 0.000000 
0.341985 -0.384052 0.000000 
0.321587 -0.434286 0.000000 
0.361761 -0.470695 0.000000 
0.329787 -0.522497 0.000000 
0.360414 -0.559620 0.000000 
0.381315 -0.241661 0.000000 
0.370772 -0.287888 0.000000 
0.425037 -0.319518 0.000000 
0.407738 -0.368946 0.000000 
0.453135 -0.404261 0.000000 
0.427556 -0.455776 0.000000 
0.464588 -0.492803 0.000000 
0.429420 -0.544845 0.000000 
0.458977 -0.581920 0.000000 
0.026061 -0.453570 0.000000 
0.028809 -0.347863 0.000000 
0.054870 -0.393747 0.000000 
0.106992 -0.385514 0.000000 
0.029377 -0.245806 0.000000 
0.058186 -0.285983 0.000000 
0.114311 -0.270318 0.000000 
0.137056 -0.323965 0.000000 
0.186430 -0.321439 0.000000 
0.029568 -0.144752 0.000000 
0.058945 -0.182872 0.000000 
0.116563 -0.163226 0.000000 
0.143120 -0.210495 0.000000 
0.196633 -0.201786 0.000000 
0.217198 -0.259083 0.000000 
0.265318 -0.258283 0.000000 
0.029759 -0.043698 0.000000 
0.059328 -0.080764 0.000000 
0.117890 -0.058058 0.000000 
0.145749 -0.102400 0.000000 
0.201664 -0.088926 0.000000 
0.225992 -0.141043 0.000000 
0.278030 -0.135177 0.000000 
0.296791 -0.195120 0.000000 
0.344206 -0.195127 0.000000 
CELLS 175 350 
1 0 
1 1 
1 2 
1 3 
1 4 
1 5 
1 6 
1 7 
1 8 
1 9 
1 10 
1 11 
1 12 
1 13 
1 14 
1 15 
1 16 
1 17 
1 18 
1 19 
1 20 
1 21 
1 22 
1 23 
1 24 
1 25 
1 26 
1 27 
1 28 
1 29 
1 30 
1 31 
1 32 
1 33 
1 34 
1 35 
1 36 
1 37 
1 38 
1 39 
1 40 
1 41 
1 42 
1 43 
1 44 
1 45 
1 46 
1 47 
1 48 
1 49 
1 50 
1 51 
1 52 
1 53 
1 54 
1 55 
1 56 
1 57 
1 58 
1 59 
1 60 
1 61 
1 62 
1 63 
1 64 
1 65 
1 66 
1 67 
1 68 
1 69 
1 70 
1 71 
1 72 
1 73 
1 74 
1 75 
1 76 
1 77 
1 78 
1 79 
1 80 
1 81 
1 82 
1 83 
1 84 
1 85 
1 86 
1 87 
1 88 
1 89 
1 90 
1 91 
1 92 
1 93 
1 94 
1 95 
1 96 
1 97 
1 98 
1 99 
1 100 
1 101 
1 102 
1 103 
1 104 
1 105 
1 106 
1 107 
1 108 
1 109 
1 110 
1 111 
1 112 
1 113 
1 114 
1 115 
1 116 
1 117 
1 118 
1 119 
1 120 
1 121 
1 122 
1 123 
1 124 
1 125 
1 126 
1 127 
1 128 
1 129 
1 130 
1 131 
1 132 
1 133 
1 134 
1 135 
1 136 
1 137 
1 138 
1 139 
1 140 
1 141 
1 142 
1 143 
1 144 
1 145 
1 146 
1 147 
1 148 
1 149 
1 150 
1 151 
1 152 
1 153 
1 154 
1 155 
1 156 
1 157 
1 158 
1 159 
1 160 
1 161 
1 162 
1 163 
1 164 
1 165 
1 166 
1 167 
1 168 
1 169 
1 170 
1 171 
1 172 
1 173 
1 174 
CELL_TYPES 175 
1 
1 
1 
1 
1 
1 
1 
1 
1 
1 
1 
1 
1 
1 
1 
1 
1 
1 
1 
1 
1 
1 
1 
1 
1 
1 
1 
1 
1 
1 
1 
1 
1 
1 
1 
1 
1 
1 
1 
1 
1 
1 
1 
1 
1 
1 
1 
1 
1 
1 
1 
1 
1 
1 
1 
1 
1 
1 
1 
1 
1 
1 
1 
1 
1 
1 
1 
1 
1 
1 
1 
1 
1 
1 
1 
1 
1 
1 
1 
1 
1 
1 
1 
1 
1 
1 
1 
1 
1 
1 
1 
1 
1 
1 
1 
1 
1 
1 
1 
1 
1 
1 
1 
1 
1 
1 
1 
1 
1 
1 
1 
1 
1 
1 
1 
1 
1 
1 
1 
1 
1 
1 
1 
1 
1 
1 
1 
1 
1 
1 
1 
1 
1 
1 
1 
1 
1 
1 
1 
1 
1 
1 
1 
1 
1 
1 
1 
1 
1 
1 
1 
1 
1 
1 
1 
1 
1 
1 
1 
1 
1 
1 
1 
1 
1 
1 
1 
1 
1 
1 
1 
1 
1 
1 
1 
POINT_DATA 175 
VECTORS X_GC float 
-0.026061 -0.453570 0.000000 
-0.106992 -0.385514 0.000000 
-0.054870 -0.393747 0.000000 
-0.028809 -0.347863 0.000000 
-0.186430 -0.321439 0.000000 
-0.137056 -0.323965 0.000000 
-0.114311 -0.270318 0.000000 
-0.058186 -0.285983 0.000000 
-0.029377 -0.245806 0.000000 
-0.265318 -0.258283 0.000000 
-0.217198 -0.259083 0.000000 
-0.196633 -0.201786 0.000000 
-0.143120 -0.210495 0.000000 
-0.116563 -0.163226 0.000000 
-0.058945 -0.182872 0.000000 
-0.029568 -0.144752 0.000000 
-0.344206 -0.195127 0.000000 
-0.296791 -0.195120 0.000000 
-0.278030 -0.135177 0.000000 
-0.225992 -0.141043 0.000000 
-0.201664 -0.088926 0.000000 
-0.145749 -0.102400 0.000000 
-0.117890 -0.058058 0.000000 
-0.059328 -0.080764 0.000000 
-0.029759 -0.043698 0.000000 
-0.058559 -0.494320 0.000000 
-0.162226 -0.515163 0.000000 
-0.123292 -0.479545 0.000000 
-0.142917 -0.430562 0.000000 
-0.261851 -0.537319 0.000000 
-0.229092 -0.500292 0.000000 
-0.256854 -0.449061 0.000000 
-0.209613 -0.414948 0.000000 
-0.223062 -0.367374 0.000000 
-0.360414 -0.559620 0.000000 
-0.329787 -0.522497 0.000000 
-0.361761 -0.470695 0.000000 
-0.321587 -0.434286 0.000000 
-0.341985 -0.384052 0.000000 
-0.290702 -0.351253 0.000000 
-0.302189 -0.304518 0.000000 
-0.458977 -0.581920 0.000000 
-0.429420 -0.544845 0.000000 
-0.464588 -0.492803 0.000000 
-0.427556 -0.455776 0.000000 
-0.453135 -0.404261 0.000000 
-0.407738 -0.368946 0.000000 
-0.425037 -0.319518 0.000000 
-0.370772 -0.287888 0.000000 
-0.381315 -0.241661 0.000000 
-0.046960 -0.545136 0.000000 
-0.095301 -0.639181 0.000000 
-0.098873 -0.586534 0.000000 
-0.149405 -0.571337 0.000000 
-0.140093 -0.730885 0.000000 
-0.148617 -0.682187 0.000000 
-0.205981 -0.671950 0.000000 
-0.203197 -0.613747 0.000000 
-0.248777 -0.594600 0.000000 
-0.184111 -0.821849 0.000000 
-0.194039 -0.774758 0.000000 
-0.254475 -0.767458 0.000000 
-0.257893 -0.713349 0.000000 
-0.309886 -0.697976 0.000000 
-0.303554 -0.637431 0.000000 
-0.347255 -0.617273 0.000000 
-0.228129 -0.912813 0.000000 
-0.238687 -0.866588 0.000000 
-0.301302 -0.861636 0.000000 
-0.307162 -0.809597 0.000000 
-0.363386 -0.797477 0.000000 
-0.362692 -0.739965 0.000000 
-0.412122 -0.722672 0.000000 
-0.403017 -0.660525 0.000000 
-0.445733 -0.639946 0.000000 
-0.000000 -0.567751 0.000000 
0.043388 -0.664181 0.000000 
-0.000000 -0.634149 0.000000 
-0.043388 -0.664181 0.000000 
0.087158 -0.756378 0.000000 
0.043769 -0.732679 0.000000 
-0.000000 -0.771145 0.000000 
-0.043769 -0.732679 0.000000 
-0.087158 -0.756378 0.000000 
0.130831 -0.847507 0.000000 
0.087824 -0.825909 0.000000 
0.044436 -0.868608 0.000000 
-0.000000 -0.837543 0.000000 
-0.044436 -0.868608 0.000000 
-0.087824 -0.825909 0.000000 
-0.130831 -0.847507 0.000000 
0.174505 -0.938637 0.000000 
0.131782 -0.918071 0.000000 
0.088871 -0.963938 0.000000 
0.044532 -0.936074 0.000000 
-0.000000 -0.972474 0.000000 
-0.044532 -0.936074 0.000000 
-0.088871 -0.963938 0.000000 
-0.131782 -0.918071 0.000000 
-0.174505 -0.938637 0.000000 
0.046960 -0.545136 0.000000 
0.149405 -0.571337 0.000000 
0.098873 -0.586534 0.000000 
0.095301 -0.639181 0.000000 
0.248777 -0.594600 0.000000 
0.203197 -0.613747 0.000000 
0.205981 -0.671950 0.000000 
0.148617 -0.682187 0.000000 
0.140093 -0.730885 0.000000 
0.347255 -0.617273 0.000000 
0.303554 -0.637431 0.000000 
0.309886 -0.697976 0.000000 
0.257893 -0.713349 0.000000 
0.254475 -0.767458 0.000000 
0.194039 -0.774758 0.000000 
0.184111 -0.821849 0.000000 
0.445733 -0.639946 0.000000 
0.403017 -0.660525 0.000000 
0.412122 -0.722672 0.000000 
0.362692 -0.739965 0.000000 
0.363386 -0.797477 0.000000 
0.307162 -0.809597 0.000000 
0.301302 -0.861636 0.000000 
0.238687 -0.866588 0.000000 
0.228129 -0.912813 0.000000 
0.058559 -0.494320 0.000000 
0.142917 -0.430562 0.000000 
0.123292 -0.479545 0.000000 
0.162226 -0.515163 0.000000 
0.223062 -0.367374 0.000000 
0.209613 -0.414948 0.000000 
0.256854 -0.449061 0.000000 
0.229092 -0.500292 0.000000 
0.261851 -0.537319 0.000000 
0.302189 -0.304518 0.000000 
0.290702 -0.351253 0.000000 
0.341985 -0.384052 0.000000 
0.321587 -0.434286 0.000000 
0.361761 -0.470695 0.000000 
0.329787 -0.522497 0.000000 
0.360414 -0.559620 0.000000 
0.381315 -0.241661 0.000000 
0.370772 -0.287888 0.000000 
0.425037 -0.319518 0.000000 
0.407738 -0.368946 0.000000 
0.453135 -0.404261 0.000000 
0.427556 -0.455776 0.000000 
0.464588 -0.492803 0.000000 
0.429420 -0.544845 0.000000 
0.458977 -0.581920 0.000000 
0.026061 -0.453570 0.000000 
0.028809 -0.347863 0.000000 
0.054870 -0.393747 0.000000 
0.106992 -0.385514 0.000000 
0.029377 -0.245806 0.000000 
0.058186 -0.285983 0.000000 
0.114311 -0.270318 0.000000 
0.137056 -0.323965 0.000000 
0.186430 -0.321439 0.000000 
0.029568 -0.144752 0.000000 
0.058945 -0.182872 0.000000 
0.116563 -0.163226 0.000000 
0.143120 -0.210495 0.000000 
0.196633 -0.201786 0.000000 
0.217198 -0.259083 0.000000 
0.265318 -0.258283 0.000000 
0.029759 -0.043698 0.000000 
0.059328 -0.080764 0.000000 
0.117890 -0.058058 0.000000 
0.145749 -0.102400 0.000000 
0.201664 -0.088926 0.000000 
0.225992 -0.141043 0.000000 
0.278030 -0.135177 0.000000 
0.296791 -0.195120 0.000000 
0.344206 -0.195127 0.000000 
VECTORS X_EC float 
0.338794 0.623190 0.000000 
-0.609100 -0.295559 0.000000 
0.713312 -0.184418 0.000000 
0.374519 -0.803848 0.000000 
0.423588 0.839422 0.000000 
-0.218274 0.873525 0.000000 
-0.513962 0.149287 0.000000 
0.756418 0.360773 0.000000 
0.381900 -0.181620 0.000000 
-0.550868 -0.013181 0.000000 
0.823577 -0.002386 0.000000 
0.556234 -0.775890 0.000000 
-0.139443 -0.658321 0.000000 
-0.484677 0.703554 0.000000 
0.766286 0.968770 0.000000 
0.384386 0.454149 0.000000 
0.474677 -0.865784 0.000000 
-0.141715 -0.865881 0.000000 
-0.385608 0.324891 0.000000 
0.937896 0.404086 0.000000 
0.621631 -0.299494 0.000000 
-0.105264 -0.117594 0.000000 
-0.467428 -0.716221 0.000000 
0.771260 -0.409692 0.000000 
0.386873 -0.910082 0.000000 
0.761262 -0.826676 0.000000 
0.108942 -0.545299 0.000000 
-0.397202 0.973861 0.000000 
-0.142083 0.312586 0.000000 
-0.595936 -0.246189 0.000000 
0.978194 -0.746055 0.000000 
-0.660903 0.562320 0.000000 
0.724964 0.101800 0.000000 
0.899809 -0.540448 0.000000 
0.685384 0.054864 0.000000 
0.287229 -0.446295 0.000000 
0.702895 0.854377 0.000000 
0.180633 0.362858 0.000000 
0.445811 -0.315302 0.000000 
-0.220880 -0.758088 0.000000 
-0.071546 0.610987 0.000000 
-0.033296 0.355916 0.000000 
-0.417537 -0.144594 0.000000 
0.039645 -0.847156 0.000000 
-0.441768 0.652972 0.000000 
-0.109248 -0.042478 0.000000 
-0.699407 -0.519234 0.000000 
-0.474522 0.813487 0.000000 
0.820030 0.386494 0.000000 
0.957100 -0.237578 0.000000 
0.610485 -0.140670 0.000000 
-0.761092 -0.871050 0.000000 
-0.714655 0.418212 0.000000 
-0.057734 0.213045 0.000000 
-0.178789 0.366954 0.000000 
-0.067979 -0.290472 0.000000 
0.677748 -0.428676 0.000000 
0.641556 0.785579 0.000000 
-0.765897 0.527101 0.000000 
0.393446 -0.405037 0.000000 
0.522510 0.959233 0.000000 
-0.691820 0.860689 0.000000 
-0.647393 0.130206 0.000000 
0.028512 -0.077320 0.000000 
-0.053800 -0.894681 0.000000 
0.514316 0.833188 0.000000 
0.965681 0.822972 0.000000 
-0.897068 0.198943 0.000000 
-0.083078 0.132090 0.000000 
-0.006893 -0.570434 0.000000 
0.724017 -0.734067 0.000000 
0.714996 0.489529 0.000000 
-0.642413 0.256072 0.000000 
-0.760780 -0.582909 0.000000 
-0.205471 -0.860724 0.000000 
0.000000 0.164632 0.000000 
-0.564049 -0.533555 0.000000 
0.000000 -0.938991 0.000000 
0.564049 -0.533555 0.000000 
0.866949 0.711100 0.000000 
-0.569003 0.391169 0.000000 
0.000000 0.910457 0.000000 
0.569003 0.391169 0.000000 
-0.866949 0.711100 0.000000 
0.299194 -0.058650 0.000000 
0.858290 -0.350234 0.000000 
-0.577662 0.226212 0.000000 
0.000000 -0.193166 0.000000 
0.577662 0.226212 0.000000 
-0.858290 -0.350234 0.000000 
-0.299194 -0.058650 0.000000 
-0.268560 -0.828400 0.000000 
0.286830 0.893959 0.000000 
0.844677 -0.486843 0.000000 
-0.578910 -0.863006 0.000000 
0.000000 -0.371602 0.000000 
0.578910 -0.863006 0.000000 
-0.844677 -0.486843 0.000000 
-0.286830 0.893959 0.000000 
0.268560 -0.828400 0.000000 
-0.610485 -0.140670 0.000000 
0.057734 0.213045 0.000000 
0.714655 0.418212 0.000000 
0.761092 -0.871050 0.000000 
0.765897 0.527101 0.000000 
-0.641556 0.785579 0.000000 
-0.677748 -0.428676 0.000000 
0.067979 -0.290472 0.000000 
0.178789 0.366954 0.000000 
-0.514316 0.833188 0.000000 
0.053800 -0.894681 0.000000 
-0.028512 -0.077320 0.000000 
0.647393 0.130206 0.000000 
0.691820 0.860689 0.000000 
-0.522510 0.959233 0.000000 
-0.393446 -0.405037 0.000000 
0.205471 -0.860724 0.000000 
0.760780 -0.582909 0.000000 
0.642413 0.256072 0.000000 
-0.714996 0.489529 0.000000 
-0.724017 -0.734067 0.000000 
0.006894 -0.570434 0.000000 
0.083078 0.132090 0.000000 
0.897068 0.198943 0.000000 
-0.965681 0.822972 0.000000 
-0.761262 -0.826676 0.000000 
0.142083 0.312586 0.000000 
0.397202 0.973861 0.000000 
-0.108942 -0.545299 0.000000 
-0.899809 -0.540448 0.000000 
-0.724964 0.101800 0.000000 
0.660903 0.562320 0.000000 
-0.978194 -0.746055 0.000000 
0.595936 -0.246189 0.000000 
0.071546 0.610987 0.000000 
0.220880 -0.758088 0.000000 
-0.445811 -0.315302 0.000000 
-0.180633 0.362858 0.000000 
-0.702895 0.854377 0.000000 
-0.287229 -0.446295 0.000000 
-0.685384 0.054864 0.000000 
-0.957100 -0.237578 0.000000 
-0.820030 0.386494 0.000000 
0.474522 0.813487 0.000000 
0.699407 -0.519234 0.000000 
0.109248 -0.042478 0.000000 
0.441768 0.652972 0.000000 
-0.039645 -0.847156 0.000000 
0.417537 -0.144594 0.000000 
0.033296 0.355916 0.000000 
-0.338794 0.623190 0.000000 
-0.374519 -0.803848 0.000000 
-0.713312 -0.184418 0.000000 
0.609100 -0.295559 0.000000 
-0.381900 -0.181620 0.000000 
-0.756418 0.360773 0.000000 
0.513962 0.149287 0.000000 
0.218274 0.873525 0.000000 
-0.423588 0.839422 0.000000 
-0.384386 0.454149 0.000000 
-0.766286 0.968770 0.000000 
0.484677 0.703554 0.000000 
0.139443 -0.658321 0.000000 
-0.556234 -0.775890 0.000000 
-0.823577 -0.002386 0.000000 
0.550868 -0.013181 0.000000 
-0.386873 -0.910082 0.000000 
-0.771260 -0.409692 0.000000 
0.467428 -0.716221 0.000000 
0.105264 -0.117594 0.000000 
-0.621631 -0.299494 0.000000 
-0.937896 0.404087 0.000000 
0.385608 0.324891 0.000000 
0.141715 -0.865881 0.000000 
-0.474677 -0.865784 0.000000 
CELL_DATA 175 
SCALARS MASS float 
LOOKUP_TABLE default 
0.078183 
0.086427 
0.094672 
0.086427 
0.088131 
0.092111 
0.085854 
0.092111 
0.088131 
0.088705 
0.091000 
0.086983 
0.091556 
0.086983 
0.091000 
0.088705 
0.089278 
0.091574 
0.089278 
0.092722 
0.089278 
0.092722 
0.089278 
0.091574 
0.089278 
0.078183 
0.086427 
0.094672 
0.086427 
0.088131 
0.092111 
0.085854 
0.092111 
0.088131 
0.088705 
0.091000 
0.086983 
0.091556 
0.086983 
0.091000 
0.088705 
0.089278 
0.091574 
0.089278 
0.092722 
0.089278 
0.092722 
0.089278 
0.091574 
0.089278 
0.078183 
0.086427 
0.094672 
0.086427 
0.088131 
0.092111 
0.085854 
0.092111 
0.088131 
0.088705 
0.091000 
0.086983 
0.091556 
0.086983 
0.091000 
0.088705 
0.089278 
0.091574 
0.089278 
0.092722 
0.089278 
0.092722 
0.089278 
0.091574 
0.089278 
0.078183 
0.086427 
0.094672 
0.086427 
0.088131 
0.092111 
0.085854 
0.092111 
0.088131 
0.088705 
0.091000 
0.086983 
0.091556 
0.086983 
0.091000 
0.088705 
0.089278 
0.091574 
0.089278 
0.092722 
0.089278 
0.092722 
0.089278 
0.091574 
0.089278 
0.078183 
0.086427 
0.094672 
0.086427 
0.088131 
0.092111 
0.085854 
0.092111 
0.088131 
0.088705 
0.091000 
0.086983 
0.091556 
0.086983 
0.091000 
0.088705 
0.089278 
0.091574 
0.089278 
0.092722 
0.089278 
0.092722 
0.089278 
0.091574 
0.089278 
0.078183 
0.086427 
0.094672 
0.086427 
0.088131 
0.092111 
0.085854 
0.092111 
0.088131 
0.088705 
0.091000 
0.086983 
0.091556 
0.086983 
0.091000 
0.088705 
0.089278 
0.091574 
0.089278 
0.092722 
0.089278 
0.092722 
0.089278 
0.091574 
0.089278 
0.078183 
0.086427 
0.094672 
0.086427 
0.088131 
0.092111 
0.085854 
0.092111 
0.088131 
0.088705 
0.091000 
0.086983 
0.091556 
0.086983 
0.091000 
0.088705 
0.089278 
0.091574 
0.089278 
0.092722 
0.089278 
0.092722 
0.089278 
0.091574 
0.089278 
SCALARS MASS float 
LOOKUP_TABLE default 
0.078183 
0.086427 
0.094672 
0.086427 
0.088131 
0.092111 
0.085854 
0.092111 
0.088131 
0.088705 
0.091000 
0.086983 
0.091556 
0.086983 
0.091000 
0.088705 
0.089278 
0.091574 
0.089278 
0.092722 
0.089278 
0.092722 
0.089278 
0.091574 
0.089278 
0.078183 
0.086427 
0.094672 
0.086427 
0.088131 
0.092111 
0.085854 
0.092111 
0.088131 
0.088705 
0.091000 
0.086983 
0.091556 
0.086983 
0.091000 
0.088705 
0.089278 
0.091574 
0.089278 
0.092722 
0.089278 
0.092722 
0.089278 
0.091574 
0.089278 
0.078183 
0.086427 
0.094672 
0.086427 
0.088131 
0.092111 
0.085854 
0.092111 
0.088131 
0.088705 
0.091000 
0.086983 
0.091556 
0.086983 
0.091000 
0.088705 
0.089278 
0.091574 
0.089278 
0.092722 
0.089278 
0.092722 
0.089278 
0.091574 
0.089278 
0.078183 
0.086427 
0.094672 
0.086427 
0.088131 
0.092111 
0.085854 
0.092111 
0.088131 
0.088705 
0.091000 
0.086983 
0.091556 
0.086983 
0.091000 
0.088705 
0.089278 
0.091574 
0.089278 
0.092722 
0.089278 
0.092722 
0.089278 
0.091574 
0.089278 
0.078183 
0.086427 
0.094672 
0.086427 
0.088131 
0.092111 
0.085854 
0.092111 
0.088131 
0.088705 
0.091000 
0.086983 
0.091556 
0.086983 
0.091000 
0.088705 
0.089278 
0.091574 
0.089278 
0.092722 
0.089278 
0.092722 
0.089278 
0.091574 
0.089278 
0.078183 
0.086427 
0.094672 
0.086427 
0.088131 
0.092111 
0.085854 
0.092111 
0.088131 
0.088705 
0.091000 
0.086983 
0.091556 
0.086983 
0.091000 
0.088705 
0.089278 
0.091574 
0.089278 
0.092722 
0.089278 
0.092722 
0.089278 
0.091574 
0.089278 
0.078183 
0.086427 
0.094672 
0.086427 
0.088131 
0.092111 
0.085854 
0.092111 
0.088131 
0.088705 
0.091000 
0.086983 
0.091556 
0.086983 
0.091000 
0.088705 
0.089278 
0.091574 
0.089278 
0.092722 
0.089278 
0.092722 
0.089278 
0.091574 
0.089278 
SCALARS DENSITY float 
LOOKUP_TABLE default 
20.000000 
20.000000 
20.000000 
20.000000 
20.000000 
20.000000 
20.000000 
20.000000 
20.000000 
20.000000 
20.000000 
20.000000 
20.000000 
20.000000 
20.000000 
20.000000 
20.000000 
20.000000 
20.000000 
20.000000 
20.000000 
20.000000 
20.000000 
20.000000 
20.000000 
20.000000 
20.000000 
20.000000 
20.000000 
20.000000 
20.000000 
20.000000 
20.000000 
20.000000 
20.000000 
20.000000 
20.000000 
20.000000 
20.000000 
20.000000 
20.000000 
20.000000 
20.000000 
20.000000 
20.000000 
20.000000 
20.000000 
20.000000 
20.000000 
20.000000 
20.000000 
20.000000 
20.000000 
20.000000 
20.000000 
20.000000 
20.000000 
20.000000 
20.000000 
20.000000 
20.000000 
20.000000 
20.000000 
20.000000 
20.000000 
20.000000 
20.000000 
20.000000 
20.000000 
20.000000 
20.000000 
20.000000 
20.000000 
20.000000 
20.000000 
20.000000 
20.000000 
20.000000 
20.000000 
20.000000 
20.000000 
20.000000 
20.000000 
20.000000 
20.000000 
20.000000 
20.000000 
20.000000 
20.000000 
20.000000 
20.000000 
20.000000 
20.000000 
20.000000 
20.000000 
20.000000 
20.000000 
20.000000 
20.000000 
20.000000 
20.000000 
20.000000 
20.000000 
20.000000 
20.000000 
20.000000 
20.000000 
20.000000 
20.000000 
20.000000 
20.000000 
20.000000 
20.000000 
20.000000 
20.000000 
20.000000 
20.000000 
20.000000 
20.000000 
20.000000 
20.000000 
20.000000 
20.000000 
20.000000 
20.000000 
20.000000 
20.000000 
20.000000 
20.000000 
20.000000 
20.000000 
20.000000 
20.000000 
20.000000 
20.000000 
20.000000 
20.000000 
20.000000 
20.000000 
20.000000 
20.000000 
20.000000 
20.000000 
20.000000 
20.000000 
20.000000 
20.000000 
20.000000 
20.000000 
20.000000 
20.000000 
20.000000 
20.000000 
20.000000 
20.000000 
20.000000 
20.000000 
20.000000 
20.000000 
20.000000 
20.000000 
20.000000 
20.000000 
20.000000 
20.000000 
20.000000 
20.000000 
20.000000 
20.000000 
20.000000 
20.000000 
20.000000 
20.000000 
20.000000 
20.000000 
SCALARS ELEM_i float 
LOOKUP_TABLE default 
179 
206 
179 
179 
207 
207 
207 
180 
180 
234 
207 
207 
207 
208 
181 
181 
234 
234 
235 
208 
208 
208 
208 
181 
181 
178 
205 
206 
206 
232 
205 
233 
206 
206 
232 
232 
233 
233 
233 
233 
234 
259 
259 
259 
260 
260 
260 
261 
234 
234 
178 
204 
205 
205 
204 
204 
204 
205 
232 
203 
204 
231 
231 
231 
231 
232 
203 
230 
230 
230 
230 
231 
258 
258 
258 
178 
177 
177 
177 
150 
177 
177 
177 
204 
149 
149 
176 
176 
176 
203 
203 
148 
149 
148 
175 
175 
175 
202 
203 
202 
178 
151 
151 
150 
124 
151 
150 
150 
150 
124 
123 
123 
123 
123 
150 
149 
96 
96 
96 
123 
122 
122 
122 
122 
149 
178 
152 
152 
151 
152 
152 
125 
151 
124 
126 
125 
125 
125 
125 
124 
124 
126 
126 
99 
98 
98 
98 
97 
97 
97 
179 
179 
179 
152 
180 
180 
153 
153 
153 
181 
181 
154 
153 
153 
153 
126 
181 
181 
154 
154 
154 
154 
127 
126 
126 
VECTORS VELOCITY float 
-0.000000 -3.155681 0.000000 
-0.000000 -3.155681 0.000000 
-0.000000 -3.155681 0.000000 
-0.000000 -3.155681 0.000000 
0.000000 -3.155681 0.000000 
-0.000000 -3.155681 0.000000 
-0.000000 -3.155681 0.000000 
-0.000000 -3.155681 0.000000 
-0.000000 -3.155681 0.000000 
0.000000 -3.155681 0.000000 
0.000000 -3.155681 0.000000 
0.000000 -3.155681 0.000000 
-0.000000 -3.155681 0.000000 
0.000000 -3.155681 0.000000 
0.000000 -3.155681 0.000000 
0.000000 -3.155681 0.000000 
0.000000 -3.155681 0.000000 
0.000000 -3.155681 0.000000 
-0.000000 -3.155681 0.000000 
-0.000000 -3.155681 0.000000 
-0.000000 -3.155681 0.000000 
-0.000000 -3.155681 0.000000 
0.000000 -3.155681 0.000000 
0.000000 -3.155681 0.000000 
0.000000 -3.155681 0.000000 
-0.000000 -3.155681 0.000000 
0.000000 -3.155681 0.000000 
-0.000000 -3.155681 0.000000 
-0.000000 -3.155681 0.000000 
0.000000 -3.155681 0.000000 
0.000000 -3.155681 0.000000 
-0.000000 -3.155681 0.000000 
-0.000000 -3.155681 0.000000 
-0.000000 -3.155681 0.000000 
-0.000000 -3.155681 0.000000 
-0.000000 -3.155681 0.000000 
-0.000000 -3.155681 0.000000 
-0.000000 -3.155681 0.000000 
-0.000000 -3.155681 0.000000 
-0.000000 -3.155681 0.000000 
-0.000000 -3.155681 0.000000 
0.000000 -3.155681 0.000000 
-0.000000 -3.155681 0.000000 
-0.000000 -3.155681 0.000000 
-0.000000 -3.155681 0.000000 
-0.000000 -3.155681 0.000000 
-0.000000 -3.155681 0.000000 
-0.000000 -3.155681 0.000000 
-0.000000 -3.155681 0.000000 
-0.000000 -3.155681 0.000000 
-0.000000 -3.155681 0.000000 
-0.000000 -3.155681 0.000000 
-0.000000 -3.155681 0.000000 
0.000000 -3.155681 0.000000 
-0.000000 -3.155681 0.000000 
-0.000000 -3.155681 0.000000 
0.000000 -3.155681 0.000000 
0.000000 -3.155681 0.000000 
0.000000 -3.155681 0.000000 
-0.000000 -3.155681 0.000000 
-0.000000 -3.155681 0.000000 
0.000000 -3.155681 0.000000 
0.000000 -3.155681 0.000000 
0.000000 -3.155681 0.000000 
0.000000 -3.155681 0.000000 
0.000000 -3.155681 0.000000 
-0.000000 -3.155681 0.000000 
-0.000000 -3.155681 0.000000 
0.000000 -3.155681 0.000000 
-0.000000 -3.155681 0.000000 
0.000000 -3.155681 0.000000 
0.000000 -3.155681 0.000000 
-0.000000 -3.155681 0.000000 
0.000000 -3.155681 0.000000 
0.000000 -3.155681 0.000000 
0.000000 -3.155681 0.000000 
-0.000000 -3.155681 0.000000 
-0.000000 -3.155681 0.000000 
-0.000000 -3.155681 0.000000 
-0.000000 -3.155681 0.000000 
-0.000000 -3.155681 0.000000 
-0.000000 -3.155681 0.000000 
-0.000000 -3.155681 0.000000 
-0.000000 -3.155681 0.000000 
-0.000000 -3.155681 0.000000 
-0.000000 -3.155681 0.000000 
-0.000000 -3.155681 0.000000 
-0.000000 -3.155681 0.000000 
0.000000 -3.155681 0.000000 
0.000000 -3.155681 0.000000 
0.000000 -3.155681 0.000000 
0.000000 -3.155681 0.000000 
-0.000000 -3.155681 0.000000 
-0.000000 -3.155681 0.000000 
-0.000000 -3.155681 0.000000 
-0.000000 -3.155681 0.000000 
0.000000 -3.155681 0.000000 
-0.000000 -3.155681 0.000000 
0.000000 -3.155681 0.000000 
0.000000 -3.155681 0.000000 
-0.000000 -3.155681 0.000000 
-0.000000 -3.155681 0.000000 
-0.000000 -3.155681 0.000000 
-0.000000 -3.155681 0.000000 
-0.000000 -3.155681 0.000000 
-0.000000 -3.155681 0.000000 
-0.000000 -3.155681 0.000000 
-0.000000 -3.155681 0.000000 
0.000000 -3.155681 0.000000 
0.000000 -3.155681 0.000000 
-0.000000 -3.155681 0.000000 
-0.000000 -3.155681 0.000000 
0.000000 -3.155681 0.000000 
0.000000 -3.155681 0.000000 
0.000000 -3.155681 0.000000 
-0.000000 -3.155681 0.000000 
0.000000 -3.155681 0.000000 
0.000000 -3.155681 0.000000 
0.000000 -3.155681 0.000000 
-0.000000 -3.155681 0.000000 
-0.000000 -3.155681 0.000000 
-0.000000 -3.155681 0.000000 
0.000000 -3.155681 0.000000 
-0.000000 -3.155681 0.000000 
0.000000 -3.155681 0.000000 
-0.000000 -3.155681 0.000000 
-0.000000 -3.155681 0.000000 
-0.000000 -3.155681 0.000000 
-0.000000 -3.155681 0.000000 
-0.000000 -3.155681 0.000000 
-0.000000 -3.155681 0.000000 
0.000000 -3.155681 0.000000 
0.000000 -3.155681 0.000000 
-0.000000 -3.155681 0.000000 
0.000000 -3.155681 0.000000 
-0.000000 -3.155681 0.000000 
0.000000 -3.155681 0.000000 
0.000000 -3.155681 0.000000 
0.000000 -3.155681 0.000000 
0.000000 -3.155681 0.000000 
0.000000 -3.155681 0.000000 
0.000000 -3.155681 0.000000 
0.000000 -3.155681 0.000000 
-0.000000 -3.155681 0.000000 
0.000000 -3.155681 0.000000 
0.000000 -3.155681 0.000000 
0.000000 -3.155681 0.000000 
-0.000000 -3.155681 0.000000 
-0.000000 -3.155681 0.000000 
0.000000 -3.155681 0.000000 
-0.000000 -3.155681 0.000000 
0.000000 -3.155681 0.000000 
0.000000 -3.155681 0.000000 
-0.000000 -3.155681 0.000000 
-0.000000 -3.155681 0.000000 
0.000000 -3.155681 0.000000 
0.000000 -3.155681 0.000000 
0.000000 -3.155681 0.000000 
0.000000 -3.155681 0.000000 
0.000000 -3.155681 0.000000 
-0.000000 -3.155681 0.000000 
-0.000000 -3.155681 0.000000 
0.000000 -3.155681 0.000000 
0.000000 -3.155681 0.000000 
0.000000 -3.155681 0.000000 
0.000000 -3.155681 0.000000 
0.000000 -3.155681 0.000000 
-0.000000 -3.155681 0.000000 
-0.000000 -3.155681 0.000000 
-0.000000 -3.155681 0.000000 
-0.000000 -3.155681 0.000000 
-0.000000 -3.155681 0.000000 
0.000000 -3.155681 0.000000 
0.000000 -3.155681 0.000000 
0.000000 -3.155681 0.000000 
TENSORS STRESS float 
0.000000 -0.000000 0.000000 
0.000000 -0.000000 0.000000 
0.000000 0.000000 0.000000 

-0.000000 -0.000000 0.000000 
0.000000 0.000000 0.000000 
0.000000 0.000000 0.000000 

0.000000 0.000000 0.000000 
0.000000 -0.000000 0.000000 
0.000000 0.000000 0.000000 

0.000000 0.000000 0.000000 
0.000000 -0.000000 0.000000 
0.000000 0.000000 0.000000 

-0.000000 -0.000000 0.000000 
0.000000 -0.000000 0.000000 
0.000000 0.000000 0.000000 

-0.000000 -0.000000 0.000000 
0.000000 0.000000 0.000000 
0.000000 0.000000 0.000000 

-0.000000 0.000000 0.000000 
0.000000 -0.000000 0.000000 
0.000000 0.000000 0.000000 

0.000000 0.000000 0.000000 
0.000000 0.000000 0.000000 
0.000000 0.000000 0.000000 

0.000000 -0.000000 0.000000 
0.000000 0.000000 0.000000 
0.000000 0.000000 0.000000 

-0.000000 -0.000000 0.000000 
0.000000 -0.000000 0.000000 
0.000000 0.000000 0.000000 

-0.000000 -0.000000 0.000000 
0.000000 -0.000000 0.000000 
0.000000 0.000000 0.000000 

-0.000000 0.000000 0.000000 
0.000000 0.000000 0.000000 
0.000000 0.000000 0.000000 

0.000000 -0.000000 0.000000 
0.000000 0.000000 0.000000 
0.000000 0.000000 0.000000 

0.000000 0.000000 0.000000 
0.000000 0.000000 0.000000 
0.000000 0.000000 0.000000 

0.000000 0.000000 0.000000 
0.000000 0.000000 0.000000 
0.000000 0.000000 0.000000 

0.000000 0.000000 0.000000 
0.000000 0.000000 0.000000 
0.000000 0.000000 0.000000 

-0.000000 0.000000 0.000000 
0.000000 0.000000 0.000000 
0.000000 0.000000 0.000000 

-0.000000 0.000000 0.000000 
0.000000 -0.000000 0.000000 
0.000000 0.000000 0.000000 

-0.000000 0.000000 0.000000 
0.000000 -0.000000 0.000000 
0.000000 0.000000 0.000000 

0.000000 0.000000 0.000000 
0.000000 0.000000 0.000000 
0.000000 0.000000 0.000000 

0.000000 0.000000 0.000000 
0.000000 -0.000000 0.000000 
0.000000 0.000000 0.000000 

0.000000 -0.000000 0.000000 
0.000000 0.000000 0.000000 
0.000000 0.000000 0.000000 

0.000000 -0.000000 0.000000 
0.000000 0.000000 0.000000 
0.000000 0.000000 0.000000 

-0.000000 -0.000000 0.000000 
0.000000 -0.000000 0.000000 
0.000000 0.000000 0.000000 

0.000000 0.000000 0.000000 
0.000000 0.000000 0.000000 
0.000000 0.000000 0.000000 

0.000000 -0.000000 0.000000 
0.000000 0.000000 0.000000 
0.000000 0.000000 0.000000 

0.000000 0.000000 0.000000 
0.000000 0.000000 0.000000 
0.000000 0.000000 0.000000 

-0.000000 -0.000000 0.000000 
0.000000 -0.000000 0.000000 
0.000000 0.000000 0.000000 

-0.000000 -0.000000 0.000000 
0.000000 -0.000000 0.000000 
0.000000 0.000000 0.000000 

0.000000 -0.000000 0.000000 
0.000000 -0.000000 0.000000 
0.000000 0.000000 0.000000 

-0.000000 -0.000000 0.000000 
0.000000 -0.000000 0.000000 
0.000000 0.000000 0.000000 

-0.000000 -0.000000 0.000000 
0.000000 -0.000000 0.000000 
0.000000 0.000000 0.000000 

-0.000000 -0.000000 0.000000 
0.000000 0.000000 0.000000 
0.000000 0.000000 0.000000 

-0.000000 -0.000000 0.000000 
0.000000 -0.000000 0.000000 
0.000000 0.000000 0.000000 

0.000000 -0.000000 0.000000 
0.000000 -0.000000 0.000000 
0.000000 0.000000 0.000000 

0.000000 0.000000 0.000000 
0.000000 0.000000 0.000000 
0.000000 0.000000 0.000000 

-0.000000 -0.000000 0.000000 
0.000000 -0.000000 0.000000 
0.000000 0.000000 0.000000 

-0.000000 0.000000 0.000000 
0.000000 0.000000 0.000000 
0.000000 0.000000 0.000000 

0.000000 -0.000000 0.000000 
0.000000 0.000000 0.000000 
0.000000 0.000000 0.000000 

0.000000 -0.000000 0.000000 
0.000000 0.000000 0.000000 
0.000000 0.000000 0.000000 

0.000000 -0.000000 0.000000 
0.000000 0.000000 0.000000 
0.000000 0.000000 0.000000 

0.000000 0.000000 0.000000 
0.000000 -0.000000 0.000000 
0.000000 0.000000 0.000000 

0.000000 0.000000 0.000000 
0.000000 0.000000 0.000000 
0.000000 0.000000 0.000000 

0.000000 0.000000 0.000000 
0.000000 0.000000 0.000000 
0.000000 0.000000 0.000000 

0.000000 0.000000 0.000000 
0.000000 0.000000 0.000000 
0.000000 0.000000 0.000000 

-0.000000 -0.000000 0.000000 
0.000000 -0.000000 0.000000 
0.000000 0.000000 0.000000 

-0.000000 -0.000000 0.000000 
0.000000 -0.000000 0.000000 
0.000000 0.000000 0.000000 

0.000000 0.000000 0.000000 
0.000000 -0.000000 0.000000 
0.000000 0.000000 0.000000 

0.000000 0.000000 0.000000 
0.000000 0.000000 0.000000 
0.000000 0.000000 0.000000 

-0.000000 -0.000000 0.000000 
0.000000 -0.000000 0.000000 
0.000000 0.000000 0.000000 

0.000000 -0.000000 0.000000 
0.000000 0.000000 0.000000 
0.000000 0.000000 0.000000 

0.000000 0.000000 0.000000 
0.000000 0.000000 0.000000 
0.000000 0.000000 0.000000 

0.000000 -0.000000 0.000000 
0.000000 0.000000 0.000000 
0.000000 0.000000 0.000000 

0.000000 0.000000 0.000000 
0.000000 0.000000 0.000000 
0.000000 0.000000 0.000000 

0.000000 0.000000 0.000000 
0.000000 -0.000000 0.000000 
0.000000 0.000000 0.000000 

0.000000 0.000000 0.000000 
0.000000 -0.000000 0.000000 
0.000000 0.000000 0.000000 

0.000000 0.000000 0.000000 
0.000000 0.000000 0.000000 
0.000000 0.000000 0.000000 

0.000000 -0.000000 0.000000 
0.000000 0.000000 0.000000 
0.000000 0.000000 0.000000 

0.000000 0.000000 0.000000 
0.000000 -0.000000 0.000000 
0.000000 0.000000 0.000000 

0.000000 0.000000 0.000000 
0.000000 0.000000 0.000000 
0.000000 0.000000 0.000000 

0.000000 0.000000 0.000000 
0.000000 0.000000 0.000000 
0.000000 0.000000 0.000000 

-0.000000 0.000000 0.000000 
0.000000 -0.000000 0.000000 
0.000000 0.000000 0.000000 

0.000000 0.000000 0.000000 
0.000000 -0.000000 0.000000 
0.000000 0.000000 0.000000 

0.000000 0.000000 0.000000 
0.000000 -0.000000 0.000000 
0.000000 0.000000 0.000000 

0.000000 0.000000 0.000000 
0.000000 0.000000 0.000000 
0.000000 0.000000 0.000000 

0.000000 0.000000 0.000000 
0.000000 0.000000 0.000000 
0.000000 0.000000 0.000000 

-0.000000 -0.000000 0.000000 
0.000000 -0.000000 0.000000 
0.000000 0.000000 0.000000 

0.000000 0.000000 0.000000 
0.000000 0.000000 0.000000 
0.000000 0.000000 0.000000 

0.000000 0.000000 0.000000 
0.000000 0.000000 0.000000 
0.000000 0.000000 0.000000 

0.000000 -0.000000 0.000000 
0.000000 0.000000 0.000000 
0.000000 0.000000 0.000000 

0.000000 -0.000000 0.000000 
0.000000 0.000000 0.000000 
0.000000 0.000000 0.000000 

-0.000000 0.000000 0.000000 
0.000000 -0.000000 0.000000 
0.000000 0.000000 0.000000 

0.000000 -0.000000 0.000000 
0.000000 0.000000 0.000000 
0.000000 0.000000 0.000000 

0.000000 0.000000 0.000000 
0.000000 -0.000000 0.000000 
0.000000 0.000000 0.000000 

0.000000 -0.000000 0.000000 
0.000000 -0.000000 0.000000 
0.000000 0.000000 0.000000 

-0.000000 0.000000 0.000000 
0.000000 -0.000000 0.000000 
0.000000 0.000000 0.000000 

-0.000000 -0.000000 0.000000 
0.000000 -0.000000 0.000000 
0.000000 0.000000 0.000000 

-0.000000 0.000000 0.000000 
0.000000 0.000000 0.000000 
0.000000 0.000000 0.000000 

-0.000000 -0.000000 0.000000 
0.000000 0.000000 0.000000 
0.000000 0.000000 0.000000 

-0.000000 -0.000000 0.000000 
0.000000 -0.000000 0.000000 
0.000000 0.000000 0.000000 

-0.000000 0.000000 0.000000 
0.000000 -0.000000 0.000000 
0.000000 0.000000 0.000000 

-0.000000 0.000000 0.000000 
0.000000 -0.000000 0.000000 
0.000000 0.000000 0.000000 

-0.000000 0.000000 0.000000 
0.000000 -0.000000 0.000000 
0.000000 0.000000 0.000000 

0.000000 0.000000 0.000000 
0.000000 0.000000 0.000000 
0.000000 0.000000 0.000000 

0.000000 0.000000 0.000000 
0.000000 0.000000 0.000000 
0.000000 0.000000 0.000000 

0.000000 0.000000 0.000000 
0.000000 0.000000 0.000000 
0.000000 0.000000 0.000000 

0.000000 -0.000000 0.000000 
0.000000 0.000000 0.000000 
0.000000 0.000000 0.000000 

0.000000 -0.000000 0.000000 
0.000000 -0.000000 0.000000 
0.000000 0.000000 0.000000 

0.000000 -0.000000 0.000000 
0.000000 -0.000000 0.000000 
0.000000 0.000000 0.000000 

0.000000 0.000000 0.000000 
0.000000 -0.000000 0.000000 
0.000000 0.000000 0.000000 

-0.000000 -0.000000 0.000000 
0.000000 -0.000000 0.000000 
0.000000 0.000000 0.000000 

-0.000000 -0.000000 0.000000 
0.000000 -0.000000 0.000000 
0.000000 0.000000 0.000000 

0.000000 0.000000 0.000000 
0.000000 -0.000000 0.000000 
0.000000 0.000000 0.000000 

0.000000 0.000000 0.000000 
0.000000 0.000000 0.000000 
0.000000 0.000000 0.000000 

0.000000 -0.000000 0.000000 
0.000000 0.000000 0.000000 
0.000000 0.000000 0.000000 

0.000000 0.000000 0.000000 
0.000000 0.000000 0.000000 
0.000000 0.000000 0.000000 

0.000000 0.000000 0.000000 
0.000000 0.000000 0.000000 
0.000000 0.000000 0.000000 

-0.000000 0.000000 0.000000 
0.000000 0.000000 0.000000 
0.000000 0.000000 0.000000 

-0.000000 -0.000000 0.000000 
0.000000 -0.000000 0.000000 
0.000000 0.000000 0.000000 

-0.000000 0.000000 0.000000 
0.000000 -0.000000 0.000000 
0.000000 0.000000 0.000000 

-0.000000 0.000000 0.000000 
0.000000 -0.000000 0.000000 
0.000000 0.000000 0.000000 

-0.000000 -0.000000 0.000000 
0.000000 -0.000000 0.000000 
0.000000 0.000000 0.000000 

0.000000 0.000000 0.000000 
0.000000 0.000000 0.000000 
0.000000 0.000000 0.000000 

0.000000 0.000000 0.000000 
0.000000 0.000000 0.000000 
0.000000 0.000000 0.000000 

-0.000000 -0.000000 0.000000 
0.000000 -0.000000 0.000000 
0.000000 0.000000 0.000000 

-0.000000 -0.000000 0.000000 
0.000000 -0.000000 0.000000 
0.000000 0.000000 0.000000 

0.000000 0.000000 0.000000 
0.000000 0.000000 0.000000 
0.000000 0.000000 0.000000 

0.000000 0.000000 0.000000 
0.000000 0.000000 0.000000 
0.000000 0.000000 0.000000 

0.000000 -0.000000 0.000000 
0.000000 0.000000 0.000000 
0.000000 0.000000 0.000000 

-0.000000 0.000000 0.000000 
0.000000 -0.000000 0.000000 
0.000000 0.000000 0.000000 

-0.000000 -0.000000 0.000000 
0.000000 -0.000000 0.000000 
0.000000 0.000000 0.000000 

-0.000000 0.000000 0.000000 
0.000000 -0.000000 0.000000 
0.000000 0.000000 0.000000 

0.000000 0.000000 0.000000 
0.000000 0.000000 0.000000 
0.000000 0.000000 0.000000 

0.000000 0.000000 0.000000 
0.000000 -0.000000 0.000000 
0.000000 0.000000 0.000000 

0.000000 0.000000 0.000000 
0.000000 0.000000 0.000000 
0.000000 0.000000 0.000000 

-0.000000 -0.000000 0.000000 
0.000000 -0.000000 0.000000 
0.000000 0.000000 0.000000 

-0.000000 0.000000 0.000000 
0.000000 0.000000 0.000000 
0.000000 0.000000 0.000000 

-0.000000 0.000000 0.000000 
0.000000 0.000000 0.000000 
0.000000 0.000000 0.000000 

0.000000 -0.000000 0.000000 
0.000000 0.000000 0.000000 
0.000000 0.000000 0.000000 

-0.000000 -0.000000 0.000000 
0.000000 -0.000000 0.000000 
0.000000 0.000000 0.000000 

0.000000 -0.000000 0.000000 
0.000000 0.000000 0.000000 
0.000000 0.000000 0.000000 

0.000000 -0.000000 0.000000 
0.000000 0.000000 0.000000 
0.000000 0.000000 0.000000 

0.000000 0.000000 0.000000 
0.000000 0.000000 0.000000 
0.000000 0.000000 0.000000 

0.000000 -0.000000 0.000000 
0.000000 -0.000000 0.000000 
0.000000 0.000000 0.000000 

-0.000000 -0.000000 0.000000 
0.000000 -0.000000 0.000000 
0.000000 0.000000 0.000000 

0.000000 -0.000000 0.000000 
0.000000 -0.000000 0.000000 
0.000000 0.000000 0.000000 

-0.000000 0.000000 0.000000 
0.000000 -0.000000 0.000000 
0.000000 0.000000 0.000000 

-0.000000 -0.000000 0.000000 
0.000000 -0.000000 0.000000 
0.000000 0.000000 0.000000 

-0.000000 -0.000000 0.000000 
0.000000 0.000000 0.000000 
0.000000 0.000000 0.000000 

0.000000 0.000000 0.000000 
0.000000 0.000000 0.000000 
0.000000 0.000000 0.000000 

0.000000 0.000000 0.000000 
0.000000 0.000000 0.000000 
0.000000 0.000000 0.000000 

-0.000000 0.000000 0.000000 
0.000000 -0.000000 0.000000 
0.000000 0.000000 0.000000 

-0.000000 -0.000000 0.000000 
0.000000 0.000000 0.000000 
0.000000 0.000000 0.000000 

0.000000 0.000000 0.000000 
0.000000 0.000000 0.000000 
0.000000 0.000000 0.000000 

0.000000 -0.000000 0.000000 
0.000000 0.000000 0.000000 
0.000000 0.000000 0.000000 

-0.000000 0.000000 0.000000 
0.000000 -0.000000 0.000000 
0.000000 0.000000 0.000000 

-0.000000 -0.000000 0.000000 
0.000000 -0.000000 0.000000 
0.000000 0.000000 0.000000 

-0.000000 0.000000 0.000000 
0.000000 0.000000 0.000000 
0.000000 0.000000 0.000000 

-0.000000 0.000000 0.000000 
0.000000 -0.000000 0.000000 
0.000000 0.000000 0.000000 

-0.000000 0.000000 0.000000 
0.000000 -0.000000 0.000000 
0.000000 0.000000 0.000000 

0.000000 -0.000000 0.000000 
0.000000 0.000000 0.000000 
0.000000 0.000000 0.000000 

0.000000 0.000000 0.000000 
0.000000 0.000000 0.000000 
0.000000 0.000000 0.000000 

0.000000 0.000000 0.000000 
0.000000 -0.000000 0.000000 
0.000000 0.000000 0.000000 

0.000000 0.000000 0.000000 
0.000000 0.000000 0.000000 
0.000000 0.000000 0.000000 

0.000000 -0.000000 0.000000 
0.000000 0.000000 0.000000 
0.000000 0.000000 0.000000 

0.000000 -0.000000 0.000000 
0.000000 0.000000 0.000000 
0.000000 0.000000 0.000000 

0.000000 0.000000 0.000000 
0.000000 0.000000 0.000000 
0.000000 0.000000 0.000000 

-0.000000 -0.000000 0.000000 
0.000000 -0.000000 0.000000 
0.000000 0.000000 0.000000 

-0.000000 -0.000000 0.000000 
0.000000 -0.000000 0.000000 
0.000000 0.000000 0.000000 

-0.000000 -0.000000 0.000000 
0.000000 -0.000000 0.000000 
0.000000 0.000000 0.000000 

0.000000 -0.000000 0.000000 
0.000000 0.000000 0.000000 
0.000000 0.000000 0.000000 

0.000000 0.000000 0.000000 
0.000000 0.000000 0.000000 
0.000000 0.000000 0.000000 

0.000000 0.000000 0.000000 
0.000000 0.000000 0.000000 
0.000000 0.000000 0.000000 

0.000000 -0.000000 0.000000 
0.000000 -0.000000 0.000000 
0.000000 0.000000 0.000000 

0.000000 -0.000000 0.000000 
0.000000 -0.000000 0.000000 
0.000000 0.000000 0.000000 

0.000000 0.000000 0.000000 
0.000000 0.000000 0.000000 
0.000000 0.000000 0.000000 

0.000000 0.000000 0.000000 
0.000000 0.000000 0.000000 
0.000000 0.000000 0.000000 

0.000000 -0.000000 0.000000 
0.000000 -0.000000 0.000000 
0.000000 0.000000 0.000000 

0.000000 0.000000 0.000000 
0.000000 0.000000 0.000000 
0.000000 0.000000 0.000000 

0.000000 0.000000 0.000000 
0.000000 -0.000000 0.000000 
0.000000 0.000000 0.000000 

0.000000 0.000000 0.000000 
0.000000 -0.000000 0.000000 
0.000000 0.000000 0.000000 

-0.000000 -0.000000 0.000000 
0.000000 -0.000000 0.000000 
0.000000 0.000000 0.000000 

0.000000 -0.000000 0.000000 
0.000000 0.000000 0.000000 
0.000000 0.000000 0.000000 

0.000000 0.000000 0.000000 
0.000000 0.000000 0.000000 
0.000000 0.000000 0.000000 

0.000000 -0.000000 0.000000 
0.000000 0.000000 0.000000 
0.000000 0.000000 0.000000 

0.000000 -0.000000 0.000000 
0.000000 0.000000 0.000000 
0.000000 0.000000 0.000000 

-0.000000 -0.000000 0.000000 
0.000000 -0.000000 0.000000 
0.000000 0.000000 0.000000 

-0.000000 -0.000000 0.000000 
0.000000 -0.000000 0.000000 
0.000000 0.000000 0.000000 

-0.000000 0.000000 0.000000 
0.000000 -0.000000 0.000000 
0.000000 0.000000 0.000000 

-0.000000 0.000000 0.000000 
0.000000 -0.000000 0.000000 
0.000000 0.000000 0.000000 

0.000000 -0.000000 0.000000 
0.000000 0.000000 0.000000 
0.000000 0.000000 0.000000 

-0.000000 0.000000 0.000000 
0.000000 -0.000000 0.000000 
0.000000 0.000000 0.000000 

-0.000000 0.000000 0.000000 
0.000000 -0.000000 0.000000 
0.000000 0.000000 0.000000 

0.000000 0.000000 0.000000 
0.000000 -0.000000 0.000000 
0.000000 0.000000 0.000000 

0.000000 -0.000000 0.000000 
0.000000 0.000000 0.000000 
0.000000 0.000000 0.000000 

TENSORS STRAIN float 
0.000000 -0.000000 0.000000 
0.000000 -0.000000 0.000000 
0.000000 0.000000 0.000000 

-0.000000 -0.000000 0.000000 
0.000000 0.000000 0.000000 
0.000000 0.000000 0.000000 

0.000000 0.000000 0.000000 
0.000000 -0.000000 0.000000 
0.000000 0.000000 0.000000 

0.000000 0.000000 0.000000 
0.000000 -0.000000 0.000000 
0.000000 0.000000 0.000000 

-0.000000 -0.000000 0.000000 
0.000000 -0.000000 0.000000 
0.000000 0.000000 0.000000 

-0.000000 -0.000000 0.000000 
0.000000 0.000000 0.000000 
0.000000 0.000000 0.000000 

-0.000000 0.000000 0.000000 
0.000000 -0.000000 0.000000 
0.000000 0.000000 0.000000 

0.000000 0.000000 0.000000 
0.000000 0.000000 0.000000 
0.000000 0.000000 0.000000 

0.000000 -0.000000 0.000000 
0.000000 0.000000 0.000000 
0.000000 0.000000 0.000000 

-0.000000 -0.000000 0.000000 
0.000000 -0.000000 0.000000 
0.000000 0.000000 0.000000 

-0.000000 -0.000000 0.000000 
0.000000 -0.000000 0.000000 
0.000000 0.000000 0.000000 

-0.000000 0.000000 0.000000 
0.000000 0.000000 0.000000 
0.000000 0.000000 0.000000 

-0.000000 -0.000000 0.000000 
0.000000 0.000000 0.000000 
0.000000 0.000000 0.000000 

-0.000000 0.000000 0.000000 
0.000000 0.000000 0.000000 
0.000000 0.000000 0.000000 

0.000000 0.000000 0.000000 
0.000000 0.000000 0.000000 
0.000000 0.000000 0.000000 

0.000000 0.000000 0.000000 
0.000000 0.000000 0.000000 
0.000000 0.000000 0.000000 

-0.000000 0.000000 0.000000 
0.000000 0.000000 0.000000 
0.000000 0.000000 0.000000 

-0.000000 0.000000 0.000000 
0.000000 0.000000 0.000000 
0.000000 0.000000 0.000000 

-0.000000 0.000000 0.000000 
0.000000 -0.000000 0.000000 
0.000000 0.000000 0.000000 

-0.000000 0.000000 0.000000 
0.000000 0.000000 0.000000 
0.000000 0.000000 0.000000 

0.000000 0.000000 0.000000 
0.000000 -0.000000 0.000000 
0.000000 0.000000 0.000000 

0.000000 -0.000000 0.000000 
0.000000 0.000000 0.000000 
0.000000 0.000000 0.000000 

0.000000 -0.000000 0.000000 
0.000000 0.000000 0.000000 
0.000000 0.000000 0.000000 

0.000000 -0.000000 0.000000 
0.000000 -0.000000 0.000000 
0.000000 0.000000 0.000000 

-0.000000 0.000000 0.000000 
0.000000 0.000000 0.000000 
0.000000 0.000000 0.000000 

0.000000 -0.000000 0.000000 
0.000000 0.000000 0.000000 
0.000000 0.000000 0.000000 

0.000000 0.000000 0.000000 
0.000000 0.000000 0.000000 
0.000000 0.000000 0.000000 

0.000000 -0.000000 0.000000 
0.000000 -0.000000 0.000000 
0.000000 0.000000 0.000000 

-0.000000 -0.000000 0.000000 
0.000000 -0.000000 0.000000 
0.000000 0.000000 0.000000 

0.000000 -0.000000 0.000000 
0.000000 -0.000000 0.000000 
0.000000 0.000000 0.000000 

0.000000 -0.000000 0.000000 
0.000000 -0.000000 0.000000 
0.000000 0.000000 0.000000 

-0.000000 -0.000000 0.000000 
0.000000 -0.000000 0.000000 
0.000000 0.000000 0.000000 

-0.000000 -0.000000 0.000000 
0.000000 0.000000 0.000000 
0.000000 0.000000 0.000000 

-0.000000 -0.000000 0.000000 
0.000000 -0.000000 0.000000 
0.000000 0.000000 0.000000 

0.000000 -0.000000 0.000000 
0.000000 -0.000000 0.000000 
0.000000 0.000000 0.000000 

0.000000 0.000000 0.000000 
0.000000 -0.000000 0.000000 
0.000000 0.000000 0.000000 

0.000000 -0.000000 0.000000 
0.000000 -0.000000 0.000000 
0.000000 0.000000 0.000000 

-0.000000 0.000000 0.000000 
0.000000 0.000000 0.000000 
0.000000 0.000000 0.000000 

-0.000000 -0.000000 0.000000 
0.000000 0.000000 0.000000 
0.000000 0.000000 0.000000 

0.000000 -0.000000 0.000000 
0.000000 0.000000 0.000000 
0.000000 0.000000 0.000000 

0.000000 -0.000000 0.000000 
0.000000 0.000000 0.000000 
0.000000 0.000000 0.000000 

0.000000 0.000000 0.000000 
0.000000 -0.000000 0.000000 
0.000000 0.000000 0.000000 

0.000000 0.000000 0.000000 
0.000000 0.000000 0.000000 
0.000000 0.000000 0.000000 

0.000000 0.000000 0.000000 
0.000000 0.000000 0.000000 
0.000000 0.000000 0.000000 

0.000000 0.000000 0.000000 
0.000000 0.000000 0.000000 
0.000000 0.000000 0.000000 

-0.000000 -0.000000 0.000000 
0.000000 -0.000000 0.000000 
0.000000 0.000000 0.000000 

-0.000000 -0.000000 0.000000 
0.000000 -0.000000 0.000000 
0.000000 0.000000 0.000000 

0.000000 0.000000 0.000000 
0.000000 -0.000000 0.000000 
0.000000 0.000000 0.000000 

0.000000 0.000000 0.000000 
0.000000 0.000000 0.000000 
0.000000 0.000000 0.000000 

-0.000000 -0.000000 0.000000 
0.000000 -0.000000 0.000000 
0.000000 0.000000 0.000000 

-0.000000 -0.000000 0.000000 
0.000000 0.000000 0.000000 
0.000000 0.000000 0.000000 

0.000000 0.000000 0.000000 
0.000000 -0.000000 0.000000 
0.000000 0.000000 0.000000 

0.000000 -0.000000 0.000000 
0.000000 0.000000 0.000000 
0.000000 0.000000 0.000000 

0.000000 0.000000 0.000000 
0.000000 0.000000 0.000000 
0.000000 0.000000 0.000000 

0.000000 0.000000 0.000000 
0.000000 -0.000000 0.000000 
0.000000 0.000000 0.000000 

0.000000 0.000000 0.000000 
0.000000 -0.000000 0.000000 
0.000000 0.000000 0.000000 

0.000000 0.000000 0.000000 
0.000000 0.000000 0.000000 
0.000000 0.000000 0.000000 

0.000000 -0.000000 0.000000 
0.000000 -0.000000 0.000000 
0.000000 0.000000 0.000000 

0.000000 0.000000 0.000000 
0.000000 -0.000000 0.000000 
0.000000 0.000000 0.000000 

0.000000 0.000000 0.000000 
0.000000 0.000000 0.000000 
0.000000 0.000000 0.000000 

0.000000 0.000000 0.000000 
0.000000 0.000000 0.000000 
0.000000 0.000000 0.000000 

0.000000 0.000000 0.000000 
0.000000 -0.000000 0.000000 
0.000000 0.000000 0.000000 

0.000000 0.000000 0.000000 
0.000000 -0.000000 0.000000 
0.000000 0.000000 0.000000 

0.000000 0.000000 0.000000 
0.000000 -0.000000 0.000000 
0.000000 0.000000 0.000000 

0.000000 0.000000 0.000000 
0.000000 0.000000 0.000000 
0.000000 0.000000 0.000000 

0.000000 0.000000 0.000000 
0.000000 0.000000 0.000000 
0.000000 0.000000 0.000000 

-0.000000 -0.000000 0.000000 
0.000000 -0.000000 0.000000 
0.000000 0.000000 0.000000 

-0.000000 0.000000 0.000000 
0.000000 0.000000 0.000000 
0.000000 0.000000 0.000000 

-0.000000 0.000000 0.000000 
0.000000 0.000000 0.000000 
0.000000 0.000000 0.000000 

0.000000 -0.000000 0.000000 
0.000000 0.000000 0.000000 
0.000000 0.000000 0.000000 

0.000000 -0.000000 0.000000 
0.000000 0.000000 0.000000 
0.000000 0.000000 0.000000 

0.000000 0.000000 0.000000 
0.000000 -0.000000 0.000000 
0.000000 0.000000 0.000000 

0.000000 -0.000000 0.000000 
0.000000 0.000000 0.000000 
0.000000 0.000000 0.000000 

0.000000 0.000000 0.000000 
0.000000 -0.000000 0.000000 
0.000000 0.000000 0.000000 

0.000000 -0.000000 0.000000 
0.000000 -0.000000 0.000000 
0.000000 0.000000 0.000000 

-0.000000 0.000000 0.000000 
0.000000 0.000000 0.000000 
0.000000 0.000000 0.000000 

-0.000000 -0.000000 0.000000 
0.000000 0.000000 0.000000 
0.000000 0.000000 0.000000 

-0.000000 0.000000 0.000000 
0.000000 0.000000 0.000000 
0.000000 0.000000 0.000000 

-0.000000 -0.000000 0.000000 
0.000000 0.000000 0.000000 
0.000000 0.000000 0.000000 

0.000000 -0.000000 0.000000 
0.000000 -0.000000 0.000000 
0.000000 0.000000 0.000000 

-0.000000 0.000000 0.000000 
0.000000 -0.000000 0.000000 
0.000000 0.000000 0.000000 

-0.000000 0.000000 0.000000 
0.000000 -0.000000 0.000000 
0.000000 0.000000 0.000000 

-0.000000 0.000000 0.000000 
0.000000 -0.000000 0.000000 
0.000000 0.000000 0.000000 

0.000000 0.000000 0.000000 
0.000000 -0.000000 0.000000 
0.000000 0.000000 0.000000 

-0.000000 0.000000 0.000000 
0.000000 0.000000 0.000000 
0.000000 0.000000 0.000000 

-0.000000 0.000000 0.000000 
0.000000 0.000000 0.000000 
0.000000 0.000000 0.000000 

0.000000 -0.000000 0.000000 
0.000000 0.000000 0.000000 
0.000000 0.000000 0.000000 

0.000000 -0.000000 0.000000 
0.000000 -0.000000 0.000000 
0.000000 0.000000 0.000000 

0.000000 -0.000000 0.000000 
0.000000 -0.000000 0.000000 
0.000000 0.000000 0.000000 

0.000000 0.000000 0.000000 
0.000000 -0.000000 0.000000 
0.000000 0.000000 0.000000 

0.000000 -0.000000 0.000000 
0.000000 -0.000000 0.000000 
0.000000 0.000000 0.000000 

0.000000 -0.000000 0.000000 
0.000000 -0.000000 0.000000 
0.000000 0.000000 0.000000 

0.000000 0.000000 0.000000 
0.000000 -0.000000 0.000000 
0.000000 0.000000 0.000000 

0.000000 0.000000 0.000000 
0.000000 0.000000 0.000000 
0.000000 0.000000 0.000000 

0.000000 -0.000000 0.000000 
0.000000 0.000000 0.000000 
0.000000 0.000000 0.000000 

0.000000 0.000000 0.000000 
0.000000 0.000000 0.000000 
0.000000 0.000000 0.000000 

0.000000 0.000000 0.000000 
0.000000 0.000000 0.000000 
0.000000 0.000000 0.000000 

-0.000000 0.000000 0.000000 
0.000000 0.000000 0.000000 
0.000000 0.000000 0.000000 

-0.000000 -0.000000 0.000000 
0.000000 -0.000000 0.000000 
0.000000 0.000000 0.000000 

-0.000000 0.000000 0.000000 
0.000000 -0.000000 0.000000 
0.000000 0.000000 0.000000 

-0.000000 0.000000 0.000000 
0.000000 -0.000000 0.000000 
0.000000 0.000000 0.000000 

-0.000000 -0.000000 0.000000 
0.000000 -0.000000 0.000000 
0.000000 0.000000 0.000000 

-0.000000 0.000000 0.000000 
0.000000 0.000000 0.000000 
0.000000 0.000000 0.000000 

0.000000 0.000000 0.000000 
0.000000 0.000000 0.000000 
0.000000 0.000000 0.000000 

0.000000 -0.000000 0.000000 
0.000000 -0.000000 0.000000 
0.000000 0.000000 0.000000 

0.000000 -0.000000 0.000000 
0.000000 -0.000000 0.000000 
0.000000 0.000000 0.000000 

0.000000 0.000000 0.000000 
0.000000 0.000000 0.000000 
0.000000 0.000000 0.000000 

0.000000 0.000000 0.000000 
0.000000 0.000000 0.000000 
0.000000 0.000000 0.000000 

0.000000 -0.000000 0.000000 
0.000000 0.000000 0.000000 
0.000000 0.000000 0.000000 

0.000000 0.000000 0.000000 
0.000000 -0.000000 0.000000 
0.000000 0.000000 0.000000 

-0.000000 -0.000000 0.000000 
0.000000 0.000000 0.000000 
0.000000 0.000000 0.000000 

-0.000000 0.000000 0.000000 
0.000000 0.000000 0.000000 
0.000000 0.000000 0.000000 

-0.000000 0.000000 0.000000 
0.000000 0.000000 0.000000 
0.000000 0.000000 0.000000 

0.000000 0.000000 0.000000 
0.000000 -0.000000 0.000000 
0.000000 0.000000 0.000000 

-0.000000 0.000000 0.000000 
0.000000 0.000000 0.000000 
0.000000 0.000000 0.000000 

-0.000000 -0.000000 0.000000 
0.000000 -0.000000 0.000000 
0.000000 0.000000 0.000000 

-0.000000 0.000000 0.000000 
0.000000 0.000000 0.000000 
0.000000 0.000000 0.000000 

-0.000000 0.000000 0.000000 
0.000000 0.000000 0.000000 
0.000000 0.000000 0.000000 

0.000000 -0.000000 0.000000 
0.000000 -0.000000 0.000000 
0.000000 0.000000 0.000000 

-0.000000 -0.000000 0.000000 
0.000000 -0.000000 0.000000 
0.000000 0.000000 0.000000 

0.000000 -0.000000 0.000000 
0.000000 -0.000000 0.000000 
0.000000 0.000000 0.000000 

0.000000 -0.000000 0.000000 
0.000000 0.000000 0.000000 
0.000000 0.000000 0.000000 

0.000000 0.000000 0.000000 
0.000000 -0.000000 0.000000 
0.000000 0.000000 0.000000 

0.000000 -0.000000 0.000000 
0.000000 -0.000000 0.000000 
0.000000 0.000000 0.000000 

0.000000 -0.000000 0.000000 
0.000000 -0.000000 0.000000 
0.000000 0.000000 0.000000 

0.000000 -0.000000 0.000000 
0.000000 -0.000000 0.000000 
0.000000 0.000000 0.000000 

-0.000000 0.000000 0.000000 
0.000000 -0.000000 0.000000 
0.000000 0.000000 0.000000 

-0.000000 -0.000000 0.000000 
0.000000 0.000000 0.000000 
0.000000 0.000000 0.000000 

-0.000000 -0.000000 0.000000 
0.000000 0.000000 0.000000 
0.000000 0.000000 0.000000 

0.000000 0.000000 0.000000 
0.000000 0.000000 0.000000 
0.000000 0.000000 0.000000 

0.000000 0.000000 0.000000 
0.000000 0.000000 0.000000 
0.000000 0.000000 0.000000 

-0.000000 0.000000 0.000000 
0.000000 -0.000000 0.000000 
0.000000 0.000000 0.000000 

-0.000000 -0.000000 0.000000 
0.000000 0.000000 0.000000 
0.000000 0.000000 0.000000 

0.000000 0.000000 0.000000 
0.000000 0.000000 0.000000 
0.000000 0.000000 0.000000 

-0.000000 -0.000000 0.000000 
0.000000 0.000000 0.000000 
0.000000 0.000000 0.000000 

-0.000000 0.000000 0.000000 
0.000000 0.000000 0.000000 
0.000000 0.000000 0.000000 

-0.000000 -0.000000 0.000000 
0.000000 -0.000000 0.000000 
0.000000 0.000000 0.000000 

-0.000000 0.000000 0.000000 
0.000000 0.000000 0.000000 
0.000000 0.000000 0.000000 

0.000000 0.000000 0.000000 
0.000000 -0.000000 0.000000 
0.000000 0.000000 0.000000 

0.000000 0.000000 0.000000 
0.000000 -0.000000 0.000000 
0.000000 0.000000 0.000000 

0.000000 -0.000000 0.000000 
0.000000 0.000000 0.000000 
0.000000 0.000000 0.000000 

0.000000 0.000000 0.000000 
0.000000 0.000000 0.000000 
0.000000 0.000000 0.000000 

0.000000 0.000000 0.000000 
0.000000 -0.000000 0.000000 
0.000000 0.000000 0.000000 

0.000000 0.000000 0.000000 
0.000000 0.000000 0.000000 
0.000000 0.000000 0.000000 

0.000000 -0.000000 0.000000 
0.000000 0.000000 0.000000 
0.000000 0.000000 0.000000 

0.000000 -0.000000 0.000000 
0.000000 0.000000 0.000000 
0.000000 0.000000 0.000000 

0.000000 0.000000 0.000000 
0.000000 0.000000 0.000000 
0.000000 0.000000 0.000000 

0.000000 -0.000000 0.000000 
0.000000 -0.000000 0.000000 
0.000000 0.000000 0.000000 

-0.000000 -0.000000 0.000000 
0.000000 -0.000000 0.000000 
0.000000 0.000000 0.000000 

-0.000000 -0.000000 0.000000 
0.000000 -0.000000 0.000000 
0.000000 0.000000 0.000000 

0.000000 -0.000000 0.000000 
0.000000 0.000000 0.000000 
0.000000 0.000000 0.000000 

0.000000 0.000000 0.000000 
0.000000 0.000000 0.000000 
0.000000 0.000000 0.000000 

0.000000 0.000000 0.000000 
0.000000 0.000000 0.000000 
0.000000 0.000000 0.000000 

0.000000 -0.000000 0.000000 
0.000000 -0.000000 0.000000 
0.000000 0.000000 0.000000 

0.000000 -0.000000 0.000000 
0.000000 -0.000000 0.000000 
0.000000 0.000000 0.000000 

0.000000 0.000000 0.000000 
0.000000 0.000000 0.000000 
0.000000 0.000000 0.000000 

0.000000 0.000000 0.000000 
0.000000 -0.000000 0.000000 
0.000000 0.000000 0.000000 

0.000000 -0.000000 0.000000 
0.000000 -0.000000 0.000000 
0.000000 0.000000 0.000000 

0.000000 0.000000 0.000000 
0.000000 -0.000000 0.000000 
0.000000 0.000000 0.000000 

0.000000 0.000000 0.000000 
0.000000 -0.000000 0.000000 
0.000000 0.000000 0.000000 

0.000000 0.000000 0.000000 
0.000000 -0.000000 0.000000 
0.000000 0.000000 0.000000 

0.000000 -0.000000 0.000000 
0.000000 -0.000000 0.000000 
0.000000 0.000000 0.000000 

0.000000 -0.000000 0.000000 
0.000000 0.000000 0.000000 
0.000000 0.000000 0.000000 

0.000000 0.000000 0.000000 
0.000000 -0.000000 0.000000 
0.000000 0.000000 0.000000 

0.000000 -0.000000 0.000000 
0.000000 0.000000 0.000000 
0.000000 0.000000 0.000000 

0.000000 -0.000000 0.000000 
0.000000 0.000000 0.000000 
0.000000 0.000000 0.000000 

-0.000000 -0.000000 0.000000 
0.000000 -0.000000 0.000000 
0.000000 0.000000 0.000000 

0.000000 -0.000000 0.000000 
0.000000 -0.000000 0.000000 
0.000000 0.000000 0.000000 

0.000000 0.000000 0.000000 
0.000000 -0.000000 0.000000 
0.000000 0.000000 0.000000 

0.000000 0.000000 0.000000 
0.000000 -0.000000 0.000000 
0.000000 0.000000 0.000000 

0.000000 -0.000000 0.000000 
0.000000 -0.000000 0.000000 
0.000000 0.000000 0.000000 

0.000000 0.000000 0.000000 
0.000000 -0.000000 0.000000 
0.000000 0.000000 0.000000 

-0.000000 0.000000 0.000000 
0.000000 -0.000000 0.000000 
0.000000 0.000000 0.000000 

0.000000 0.000000 0.000000 
0.000000 -0.000000 0.000000 
0.000000 0.000000 0.000000 

0.000000 -0.000000 0.000000 
0.000000 0.000000 0.000000 
0.000000 0.000000 0.000000 

