# vtk DataFile Version 3.0 
vtk output 
ASCII 
DATASET UNSTRUCTURED_GRID 
POINTS 175 float 
-0.026061 -0.553495 0.000000 
-0.106992 -0.485439 0.000000 
-0.054870 -0.493672 0.000000 
-0.028809 -0.447788 0.000000 
-0.186430 -0.421364 0.000000 
-0.137056 -0.423890 0.000000 
-0.114311 -0.370243 0.000000 
-0.058186 -0.385908 0.000000 
-0.029377 -0.345731 0.000000 
-0.265318 -0.358208 0.000000 
-0.217198 -0.359008 0.000000 
-0.196633 -0.301711 0.000000 
-0.143120 -0.310420 0.000000 
-0.116563 -0.263151 0.000000 
-0.058945 -0.282797 0.000000 
-0.029568 -0.244677 0.000000 
-0.344206 -0.295052 0.000000 
-0.296791 -0.295045 0.000000 
-0.278030 -0.235102 0.000000 
-0.225992 -0.240969 0.000000 
-0.201664 -0.188851 0.000000 
-0.145749 -0.202325 0.000000 
-0.117890 -0.157983 0.000000 
-0.059328 -0.180689 0.000000 
-0.029759 -0.143623 0.000000 
-0.058559 -0.594245 0.000000 
-0.162226 -0.615088 0.000000 
-0.123292 -0.579470 0.000000 
-0.142917 -0.530487 0.000000 
-0.261851 -0.637244 0.000000 
-0.229092 -0.600217 0.000000 
-0.256854 -0.548986 0.000000 
-0.209613 -0.514873 0.000000 
-0.223062 -0.467299 0.000000 
-0.360414 -0.659545 0.000000 
-0.329787 -0.622422 0.000000 
-0.361761 -0.570620 0.000000 
-0.321587 -0.534211 0.000000 
-0.341985 -0.483977 0.000000 
-0.290702 -0.451178 0.000000 
-0.302189 -0.404443 0.000000 
-0.458977 -0.681845 0.000000 
-0.429420 -0.644770 0.000000 
-0.464588 -0.592728 0.000000 
-0.427556 -0.555701 0.000000 
-0.453135 -0.504186 0.000000 
-0.407738 -0.468871 0.000000 
-0.425037 -0.419443 0.000000 
-0.370772 -0.387813 0.000000 
-0.381315 -0.341586 0.000000 
-0.046960 -0.645061 0.000000 
-0.095301 -0.739107 0.000000 
-0.098873 -0.686459 0.000000 
-0.149405 -0.671262 0.000000 
-0.140093 -0.830811 0.000000 
-0.148617 -0.782112 0.000000 
-0.205981 -0.771875 0.000000 
-0.203197 -0.713672 0.000000 
-0.248777 -0.694525 0.000000 
-0.184111 -0.921774 0.000000 
-0.194039 -0.874683 0.000000 
-0.254475 -0.867384 0.000000 
-0.257893 -0.813274 0.000000 
-0.309886 -0.797901 0.000000 
-0.303554 -0.737356 0.000000 
-0.347255 -0.717198 0.000000 
-0.228129 -1.012738 0.000000 
-0.238687 -0.966513 0.000000 
-0.301302 -0.961561 0.000000 
-0.307162 -0.909523 0.000000 
-0.363386 -0.897402 0.000000 
-0.362692 -0.839890 0.000000 
-0.412122 -0.822597 0.000000 
-0.403017 -0.760450 0.000000 
-0.445733 -0.739871 0.000000 
-0.000000 -0.667676 0.000000 
0.043388 -0.764106 0.000000 
-0.000000 -0.734074 0.000000 
-0.043388 -0.764106 0.000000 
0.087158 -0.856303 0.000000 
0.043769 -0.832604 0.000000 
-0.000000 -0.871070 0.000000 
-0.043769 -0.832604 0.000000 
-0.087158 -0.856303 0.000000 
0.130831 -0.947432 0.000000 
0.087824 -0.925834 0.000000 
0.044436 -0.968533 0.000000 
-0.000000 -0.937468 0.000000 
-0.044436 -0.968533 0.000000 
-0.087824 -0.925834 0.000000 
-0.130831 -0.947432 0.000000 
0.174505 -1.038562 0.000000 
0.131782 -1.017996 0.000000 
0.088871 -1.063863 0.000000 
0.044532 -1.035999 0.000000 
-0.000000 -1.072399 0.000000 
-0.044532 -1.035999 0.000000 
-0.088871 -1.063863 0.000000 
-0.131782 -1.017996 0.000000 
-0.174505 -1.038562 0.000000 
0.046960 -0.645061 0.000000 
0.149405 -0.671262 0.000000 
0.098873 -0.686459 0.000000 
0.095301 -0.739107 0.000000 
0.248777 -0.694525 0.000000 
0.203197 -0.713672 0.000000 
0.205981 -0.771875 0.000000 
0.148617 -0.782112 0.000000 
0.140093 -0.830811 0.000000 
0.347255 -0.717198 0.000000 
0.303554 -0.737356 0.000000 
0.309886 -0.797901 0.000000 
0.257893 -0.813274 0.000000 
0.254475 -0.867384 0.000000 
0.194039 -0.874683 0.000000 
0.184111 -0.921774 0.000000 
0.445733 -0.739871 0.000000 
0.403017 -0.760450 0.000000 
0.412122 -0.822597 0.000000 
0.362692 -0.839890 0.000000 
0.363386 -0.897402 0.000000 
0.307162 -0.909523 0.000000 
0.301302 -0.961561 0.000000 
0.238687 -0.966513 0.000000 
0.228129 -1.012738 0.000000 
0.058559 -0.594245 0.000000 
0.142917 -0.530487 0.000000 
0.123292 -0.579470 0.000000 
0.162226 -0.615088 0.000000 
0.223062 -0.467299 0.000000 
0.209613 -0.514873 0.000000 
0.256854 -0.548986 0.000000 
0.229092 -0.600217 0.000000 
0.261851 -0.637244 0.000000 
0.302189 -0.404443 0.000000 
0.290702 -0.451178 0.000000 
0.341985 -0.483977 0.000000 
0.321587 -0.534211 0.000000 
0.361761 -0.570620 0.000000 
0.329787 -0.622422 0.000000 
0.360414 -0.659545 0.000000 
0.381315 -0.341586 0.000000 
0.370772 -0.387813 0.000000 
0.425037 -0.419443 0.000000 
0.407738 -0.468871 0.000000 
0.453135 -0.504186 0.000000 
0.427556 -0.555701 0.000000 
0.464588 -0.592728 0.000000 
0.429420 -0.644770 0.000000 
0.458977 -0.681845 0.000000 
0.026061 -0.553495 0.000000 
0.028809 -0.447788 0.000000 
0.054870 -0.493672 0.000000 
0.106992 -0.485439 0.000000 
0.029377 -0.345731 0.000000 
0.058186 -0.385908 0.000000 
0.114311 -0.370243 0.000000 
0.137056 -0.423890 0.000000 
0.186430 -0.421364 0.000000 
0.029568 -0.244677 0.000000 
0.058945 -0.282797 0.000000 
0.116563 -0.263151 0.000000 
0.143120 -0.310420 0.000000 
0.196633 -0.301711 0.000000 
0.217198 -0.359008 0.000000 
0.265318 -0.358208 0.000000 
0.029759 -0.143623 0.000000 
0.059328 -0.180689 0.000000 
0.117890 -0.157983 0.000000 
0.145749 -0.202325 0.000000 
0.201664 -0.188851 0.000000 
0.225992 -0.240969 0.000000 
0.278030 -0.235102 0.000000 
0.296791 -0.295045 0.000000 
0.344206 -0.295052 0.000000 
CELLS 175 350 
1 0 
1 1 
1 2 
1 3 
1 4 
1 5 
1 6 
1 7 
1 8 
1 9 
1 10 
1 11 
1 12 
1 13 
1 14 
1 15 
1 16 
1 17 
1 18 
1 19 
1 20 
1 21 
1 22 
1 23 
1 24 
1 25 
1 26 
1 27 
1 28 
1 29 
1 30 
1 31 
1 32 
1 33 
1 34 
1 35 
1 36 
1 37 
1 38 
1 39 
1 40 
1 41 
1 42 
1 43 
1 44 
1 45 
1 46 
1 47 
1 48 
1 49 
1 50 
1 51 
1 52 
1 53 
1 54 
1 55 
1 56 
1 57 
1 58 
1 59 
1 60 
1 61 
1 62 
1 63 
1 64 
1 65 
1 66 
1 67 
1 68 
1 69 
1 70 
1 71 
1 72 
1 73 
1 74 
1 75 
1 76 
1 77 
1 78 
1 79 
1 80 
1 81 
1 82 
1 83 
1 84 
1 85 
1 86 
1 87 
1 88 
1 89 
1 90 
1 91 
1 92 
1 93 
1 94 
1 95 
1 96 
1 97 
1 98 
1 99 
1 100 
1 101 
1 102 
1 103 
1 104 
1 105 
1 106 
1 107 
1 108 
1 109 
1 110 
1 111 
1 112 
1 113 
1 114 
1 115 
1 116 
1 117 
1 118 
1 119 
1 120 
1 121 
1 122 
1 123 
1 124 
1 125 
1 126 
1 127 
1 128 
1 129 
1 130 
1 131 
1 132 
1 133 
1 134 
1 135 
1 136 
1 137 
1 138 
1 139 
1 140 
1 141 
1 142 
1 143 
1 144 
1 145 
1 146 
1 147 
1 148 
1 149 
1 150 
1 151 
1 152 
1 153 
1 154 
1 155 
1 156 
1 157 
1 158 
1 159 
1 160 
1 161 
1 162 
1 163 
1 164 
1 165 
1 166 
1 167 
1 168 
1 169 
1 170 
1 171 
1 172 
1 173 
1 174 
CELL_TYPES 175 
1 
1 
1 
1 
1 
1 
1 
1 
1 
1 
1 
1 
1 
1 
1 
1 
1 
1 
1 
1 
1 
1 
1 
1 
1 
1 
1 
1 
1 
1 
1 
1 
1 
1 
1 
1 
1 
1 
1 
1 
1 
1 
1 
1 
1 
1 
1 
1 
1 
1 
1 
1 
1 
1 
1 
1 
1 
1 
1 
1 
1 
1 
1 
1 
1 
1 
1 
1 
1 
1 
1 
1 
1 
1 
1 
1 
1 
1 
1 
1 
1 
1 
1 
1 
1 
1 
1 
1 
1 
1 
1 
1 
1 
1 
1 
1 
1 
1 
1 
1 
1 
1 
1 
1 
1 
1 
1 
1 
1 
1 
1 
1 
1 
1 
1 
1 
1 
1 
1 
1 
1 
1 
1 
1 
1 
1 
1 
1 
1 
1 
1 
1 
1 
1 
1 
1 
1 
1 
1 
1 
1 
1 
1 
1 
1 
1 
1 
1 
1 
1 
1 
1 
1 
1 
1 
1 
1 
1 
1 
1 
1 
1 
1 
1 
1 
1 
1 
1 
1 
1 
1 
1 
1 
1 
1 
POINT_DATA 175 
VECTORS X_GC float 
-0.026061 -0.553495 0.000000 
-0.106992 -0.485439 0.000000 
-0.054870 -0.493672 0.000000 
-0.028809 -0.447788 0.000000 
-0.186430 -0.421364 0.000000 
-0.137056 -0.423890 0.000000 
-0.114311 -0.370243 0.000000 
-0.058186 -0.385908 0.000000 
-0.029377 -0.345731 0.000000 
-0.265318 -0.358208 0.000000 
-0.217198 -0.359008 0.000000 
-0.196633 -0.301711 0.000000 
-0.143120 -0.310420 0.000000 
-0.116563 -0.263151 0.000000 
-0.058945 -0.282797 0.000000 
-0.029568 -0.244677 0.000000 
-0.344206 -0.295052 0.000000 
-0.296791 -0.295045 0.000000 
-0.278030 -0.235102 0.000000 
-0.225992 -0.240969 0.000000 
-0.201664 -0.188851 0.000000 
-0.145749 -0.202325 0.000000 
-0.117890 -0.157983 0.000000 
-0.059328 -0.180689 0.000000 
-0.029759 -0.143623 0.000000 
-0.058559 -0.594245 0.000000 
-0.162226 -0.615088 0.000000 
-0.123292 -0.579470 0.000000 
-0.142917 -0.530487 0.000000 
-0.261851 -0.637244 0.000000 
-0.229092 -0.600217 0.000000 
-0.256854 -0.548986 0.000000 
-0.209613 -0.514873 0.000000 
-0.223062 -0.467299 0.000000 
-0.360414 -0.659545 0.000000 
-0.329787 -0.622422 0.000000 
-0.361761 -0.570620 0.000000 
-0.321587 -0.534211 0.000000 
-0.341985 -0.483977 0.000000 
-0.290702 -0.451178 0.000000 
-0.302189 -0.404443 0.000000 
-0.458977 -0.681845 0.000000 
-0.429420 -0.644770 0.000000 
-0.464588 -0.592728 0.000000 
-0.427556 -0.555701 0.000000 
-0.453135 -0.504186 0.000000 
-0.407738 -0.468871 0.000000 
-0.425037 -0.419443 0.000000 
-0.370772 -0.387813 0.000000 
-0.381315 -0.341586 0.000000 
-0.046960 -0.645061 0.000000 
-0.095301 -0.739107 0.000000 
-0.098873 -0.686459 0.000000 
-0.149405 -0.671262 0.000000 
-0.140093 -0.830811 0.000000 
-0.148617 -0.782112 0.000000 
-0.205981 -0.771875 0.000000 
-0.203197 -0.713672 0.000000 
-0.248777 -0.694525 0.000000 
-0.184111 -0.921774 0.000000 
-0.194039 -0.874683 0.000000 
-0.254475 -0.867384 0.000000 
-0.257893 -0.813274 0.000000 
-0.309886 -0.797901 0.000000 
-0.303554 -0.737356 0.000000 
-0.347255 -0.717198 0.000000 
-0.228129 -1.012738 0.000000 
-0.238687 -0.966513 0.000000 
-0.301302 -0.961561 0.000000 
-0.307162 -0.909523 0.000000 
-0.363386 -0.897402 0.000000 
-0.362692 -0.839890 0.000000 
-0.412122 -0.822597 0.000000 
-0.403017 -0.760450 0.000000 
-0.445733 -0.739871 0.000000 
-0.000000 -0.667676 0.000000 
0.043388 -0.764106 0.000000 
-0.000000 -0.734074 0.000000 
-0.043388 -0.764106 0.000000 
0.087158 -0.856303 0.000000 
0.043769 -0.832604 0.000000 
-0.000000 -0.871070 0.000000 
-0.043769 -0.832604 0.000000 
-0.087158 -0.856303 0.000000 
0.130831 -0.947432 0.000000 
0.087824 -0.925834 0.000000 
0.044436 -0.968533 0.000000 
-0.000000 -0.937468 0.000000 
-0.044436 -0.968533 0.000000 
-0.087824 -0.925834 0.000000 
-0.130831 -0.947432 0.000000 
0.174505 -1.038562 0.000000 
0.131782 -1.017996 0.000000 
0.088871 -1.063863 0.000000 
0.044532 -1.035999 0.000000 
-0.000000 -1.072399 0.000000 
-0.044532 -1.035999 0.000000 
-0.088871 -1.063863 0.000000 
-0.131782 -1.017996 0.000000 
-0.174505 -1.038562 0.000000 
0.046960 -0.645061 0.000000 
0.149405 -0.671262 0.000000 
0.098873 -0.686459 0.000000 
0.095301 -0.739107 0.000000 
0.248777 -0.694525 0.000000 
0.203197 -0.713672 0.000000 
0.205981 -0.771875 0.000000 
0.148617 -0.782112 0.000000 
0.140093 -0.830811 0.000000 
0.347255 -0.717198 0.000000 
0.303554 -0.737356 0.000000 
0.309886 -0.797901 0.000000 
0.257893 -0.813274 0.000000 
0.254475 -0.867384 0.000000 
0.194039 -0.874683 0.000000 
0.184111 -0.921774 0.000000 
0.445733 -0.739871 0.000000 
0.403017 -0.760450 0.000000 
0.412122 -0.822597 0.000000 
0.362692 -0.839890 0.000000 
0.363386 -0.897402 0.000000 
0.307162 -0.909523 0.000000 
0.301302 -0.961561 0.000000 
0.238687 -0.966513 0.000000 
0.228129 -1.012738 0.000000 
0.058559 -0.594245 0.000000 
0.142917 -0.530487 0.000000 
0.123292 -0.579470 0.000000 
0.162226 -0.615088 0.000000 
0.223062 -0.467299 0.000000 
0.209613 -0.514873 0.000000 
0.256854 -0.548986 0.000000 
0.229092 -0.600217 0.000000 
0.261851 -0.637244 0.000000 
0.302189 -0.404443 0.000000 
0.290702 -0.451178 0.000000 
0.341985 -0.483977 0.000000 
0.321587 -0.534211 0.000000 
0.361761 -0.570620 0.000000 
0.329787 -0.622422 0.000000 
0.360414 -0.659545 0.000000 
0.381315 -0.341586 0.000000 
0.370772 -0.387813 0.000000 
0.425037 -0.419443 0.000000 
0.407738 -0.468871 0.000000 
0.453135 -0.504186 0.000000 
0.427556 -0.555701 0.000000 
0.464588 -0.592728 0.000000 
0.429420 -0.644770 0.000000 
0.458977 -0.681845 0.000000 
0.026061 -0.553495 0.000000 
0.028809 -0.447788 0.000000 
0.054870 -0.493672 0.000000 
0.106992 -0.485439 0.000000 
0.029377 -0.345731 0.000000 
0.058186 -0.385908 0.000000 
0.114311 -0.370243 0.000000 
0.137056 -0.423890 0.000000 
0.186430 -0.421364 0.000000 
0.029568 -0.244677 0.000000 
0.058945 -0.282797 0.000000 
0.116563 -0.263151 0.000000 
0.143120 -0.310420 0.000000 
0.196633 -0.301711 0.000000 
0.217198 -0.359008 0.000000 
0.265318 -0.358208 0.000000 
0.029759 -0.143623 0.000000 
0.059328 -0.180689 0.000000 
0.117890 -0.157983 0.000000 
0.145749 -0.202325 0.000000 
0.201664 -0.188851 0.000000 
0.225992 -0.240969 0.000000 
0.278030 -0.235102 0.000000 
0.296791 -0.295045 0.000000 
0.344206 -0.295052 0.000000 
VECTORS X_EC float 
0.338794 -0.027822 0.000000 
-0.609100 -0.946570 0.000000 
0.713312 -0.835430 0.000000 
0.374519 0.545141 0.000000 
0.423588 0.188410 0.000000 
-0.218274 0.222514 0.000000 
-0.513962 -0.501725 0.000000 
0.756418 -0.290239 0.000000 
0.381900 -0.832631 0.000000 
-0.550868 -0.664193 0.000000 
0.823577 -0.653397 0.000000 
0.556234 0.573099 0.000000 
-0.139443 0.690667 0.000000 
-0.484677 0.052543 0.000000 
0.766286 0.317758 0.000000 
0.384386 -0.196862 0.000000 
0.474677 0.483204 0.000000 
-0.141715 0.483108 0.000000 
-0.385608 -0.326121 0.000000 
0.937896 -0.246925 0.000000 
0.621631 -0.950505 0.000000 
-0.105264 -0.768606 0.000000 
-0.467428 0.632768 0.000000 
0.771260 0.939296 0.000000 
0.386873 0.438907 0.000000 
0.761262 0.522312 0.000000 
0.108942 0.803689 0.000000 
-0.397202 0.322850 0.000000 
-0.142083 -0.338425 0.000000 
-0.595936 -0.897200 0.000000 
0.978194 0.602934 0.000000 
-0.660903 -0.088691 0.000000 
0.724964 -0.549211 0.000000 
0.899809 0.808540 0.000000 
0.685384 -0.596148 0.000000 
0.287229 0.902693 0.000000 
0.702895 0.203365 0.000000 
0.180633 -0.288154 0.000000 
0.445811 -0.966313 0.000000 
-0.220880 0.590901 0.000000 
-0.071546 -0.040025 0.000000 
-0.033296 -0.295096 0.000000 
-0.417537 -0.795605 0.000000 
0.039645 0.501832 0.000000 
-0.441768 0.001961 0.000000 
-0.109248 -0.693490 0.000000 
-0.699407 0.829755 0.000000 
-0.474522 0.162475 0.000000 
0.820030 -0.264518 0.000000 
0.957100 -0.888590 0.000000 
0.610485 -0.791681 0.000000 
-0.761092 0.477938 0.000000 
-0.714655 -0.232799 0.000000 
-0.057734 -0.437966 0.000000 
-0.178789 -0.284058 0.000000 
-0.067979 -0.941484 0.000000 
0.677748 0.920313 0.000000 
0.641556 0.134568 0.000000 
-0.765897 -0.123911 0.000000 
0.393446 0.943951 0.000000 
0.522510 0.308222 0.000000 
-0.691820 0.209677 0.000000 
-0.647393 -0.520805 0.000000 
0.028512 -0.728332 0.000000 
-0.053800 0.454308 0.000000 
0.514316 0.182177 0.000000 
0.965681 0.171961 0.000000 
-0.897068 -0.452068 0.000000 
-0.083078 -0.518921 0.000000 
-0.006893 0.778554 0.000000 
0.724017 0.614921 0.000000 
0.714996 -0.161482 0.000000 
-0.642413 -0.394940 0.000000 
-0.760780 0.766080 0.000000 
-0.205471 0.488265 0.000000 
0.000000 -0.486380 0.000000 
-0.564049 0.815433 0.000000 
0.000000 0.409997 0.000000 
0.564049 0.815433 0.000000 
0.866949 0.060089 0.000000 
-0.569003 -0.259843 0.000000 
0.000000 0.259446 0.000000 
0.569003 -0.259843 0.000000 
-0.866949 0.060089 0.000000 
0.299194 -0.709661 0.000000 
0.858290 0.998755 0.000000 
-0.577662 -0.424799 0.000000 
0.000000 -0.844178 0.000000 
0.577662 -0.424799 0.000000 
-0.858290 0.998755 0.000000 
-0.299194 -0.709661 0.000000 
-0.268560 0.520589 0.000000 
0.286830 0.242947 0.000000 
0.844677 0.862145 0.000000 
-0.578910 0.485983 0.000000 
0.000000 0.977387 0.000000 
0.578910 0.485983 0.000000 
-0.844677 0.862145 0.000000 
-0.286830 0.242947 0.000000 
0.268560 0.520589 0.000000 
-0.610485 -0.791681 0.000000 
0.057734 -0.437966 0.000000 
0.714655 -0.232799 0.000000 
0.761092 0.477938 0.000000 
0.765897 -0.123911 0.000000 
-0.641556 0.134568 0.000000 
-0.677748 0.920313 0.000000 
0.067979 -0.941484 0.000000 
0.178789 -0.284058 0.000000 
-0.514316 0.182177 0.000000 
0.053800 0.454308 0.000000 
-0.028512 -0.728332 0.000000 
0.647393 -0.520805 0.000000 
0.691820 0.209677 0.000000 
-0.522510 0.308222 0.000000 
-0.393446 0.943952 0.000000 
0.205471 0.488265 0.000000 
0.760780 0.766080 0.000000 
0.642413 -0.394940 0.000000 
-0.714996 -0.161482 0.000000 
-0.724017 0.614921 0.000000 
0.006894 0.778554 0.000000 
0.083078 -0.518921 0.000000 
0.897068 -0.452068 0.000000 
-0.965681 0.171961 0.000000 
-0.761262 0.522312 0.000000 
0.142083 -0.338425 0.000000 
0.397202 0.322850 0.000000 
-0.108942 0.803689 0.000000 
-0.899809 0.808540 0.000000 
-0.724964 -0.549211 0.000000 
0.660903 -0.088691 0.000000 
-0.978194 0.602934 0.000000 
0.595936 -0.897200 0.000000 
0.071546 -0.040025 0.000000 
0.220880 0.590901 0.000000 
-0.445811 -0.966313 0.000000 
-0.180633 -0.288154 0.000000 
-0.702895 0.203365 0.000000 
-0.287229 0.902693 0.000000 
-0.685384 -0.596148 0.000000 
-0.957100 -0.888590 0.000000 
-0.820030 -0.264518 0.000000 
0.474522 0.162475 0.000000 
0.699407 0.829755 0.000000 
0.109248 -0.693490 0.000000 
0.441768 0.001961 0.000000 
-0.039645 0.501832 0.000000 
0.417537 -0.795605 0.000000 
0.033296 -0.295096 0.000000 
-0.338794 -0.027822 0.000000 
-0.374519 0.545141 0.000000 
-0.713312 -0.835430 0.000000 
0.609100 -0.946570 0.000000 
-0.381900 -0.832631 0.000000 
-0.756418 -0.290239 0.000000 
0.513962 -0.501725 0.000000 
0.218274 0.222514 0.000000 
-0.423588 0.188410 0.000000 
-0.384386 -0.196862 0.000000 
-0.766286 0.317758 0.000000 
0.484677 0.052543 0.000000 
0.139443 0.690667 0.000000 
-0.556234 0.573099 0.000000 
-0.823577 -0.653397 0.000000 
0.550868 -0.664193 0.000000 
-0.386873 0.438907 0.000000 
-0.771260 0.939296 0.000000 
0.467428 0.632768 0.000000 
0.105264 -0.768606 0.000000 
-0.621631 -0.950505 0.000000 
-0.937896 -0.246925 0.000000 
0.385608 -0.326121 0.000000 
0.141715 0.483108 0.000000 
-0.474677 0.483204 0.000000 
CELL_DATA 175 
SCALARS MASS float 
LOOKUP_TABLE default 
0.078183 
0.086427 
0.094672 
0.086427 
0.088131 
0.092111 
0.085854 
0.092111 
0.088131 
0.088705 
0.091000 
0.086983 
0.091556 
0.086983 
0.091000 
0.088705 
0.089278 
0.091574 
0.089278 
0.092722 
0.089278 
0.092722 
0.089278 
0.091574 
0.089278 
0.078183 
0.086427 
0.094672 
0.086427 
0.088131 
0.092111 
0.085854 
0.092111 
0.088131 
0.088705 
0.091000 
0.086983 
0.091556 
0.086983 
0.091000 
0.088705 
0.089278 
0.091574 
0.089278 
0.092722 
0.089278 
0.092722 
0.089278 
0.091574 
0.089278 
0.078183 
0.086427 
0.094672 
0.086427 
0.088131 
0.092111 
0.085854 
0.092111 
0.088131 
0.088705 
0.091000 
0.086983 
0.091556 
0.086983 
0.091000 
0.088705 
0.089278 
0.091574 
0.089278 
0.092722 
0.089278 
0.092722 
0.089278 
0.091574 
0.089278 
0.078183 
0.086427 
0.094672 
0.086427 
0.088131 
0.092111 
0.085854 
0.092111 
0.088131 
0.088705 
0.091000 
0.086983 
0.091556 
0.086983 
0.091000 
0.088705 
0.089278 
0.091574 
0.089278 
0.092722 
0.089278 
0.092722 
0.089278 
0.091574 
0.089278 
0.078183 
0.086427 
0.094672 
0.086427 
0.088131 
0.092111 
0.085854 
0.092111 
0.088131 
0.088705 
0.091000 
0.086983 
0.091556 
0.086983 
0.091000 
0.088705 
0.089278 
0.091574 
0.089278 
0.092722 
0.089278 
0.092722 
0.089278 
0.091574 
0.089278 
0.078183 
0.086427 
0.094672 
0.086427 
0.088131 
0.092111 
0.085854 
0.092111 
0.088131 
0.088705 
0.091000 
0.086983 
0.091556 
0.086983 
0.091000 
0.088705 
0.089278 
0.091574 
0.089278 
0.092722 
0.089278 
0.092722 
0.089278 
0.091574 
0.089278 
0.078183 
0.086427 
0.094672 
0.086427 
0.088131 
0.092111 
0.085854 
0.092111 
0.088131 
0.088705 
0.091000 
0.086983 
0.091556 
0.086983 
0.091000 
0.088705 
0.089278 
0.091574 
0.089278 
0.092722 
0.089278 
0.092722 
0.089278 
0.091574 
0.089278 
SCALARS MASS float 
LOOKUP_TABLE default 
0.078183 
0.086427 
0.094672 
0.086427 
0.088131 
0.092111 
0.085854 
0.092111 
0.088131 
0.088705 
0.091000 
0.086983 
0.091556 
0.086983 
0.091000 
0.088705 
0.089278 
0.091574 
0.089278 
0.092722 
0.089278 
0.092722 
0.089278 
0.091574 
0.089278 
0.078183 
0.086427 
0.094672 
0.086427 
0.088131 
0.092111 
0.085854 
0.092111 
0.088131 
0.088705 
0.091000 
0.086983 
0.091556 
0.086983 
0.091000 
0.088705 
0.089278 
0.091574 
0.089278 
0.092722 
0.089278 
0.092722 
0.089278 
0.091574 
0.089278 
0.078183 
0.086427 
0.094672 
0.086427 
0.088131 
0.092111 
0.085854 
0.092111 
0.088131 
0.088705 
0.091000 
0.086983 
0.091556 
0.086983 
0.091000 
0.088705 
0.089278 
0.091574 
0.089278 
0.092722 
0.089278 
0.092722 
0.089278 
0.091574 
0.089278 
0.078183 
0.086427 
0.094672 
0.086427 
0.088131 
0.092111 
0.085854 
0.092111 
0.088131 
0.088705 
0.091000 
0.086983 
0.091556 
0.086983 
0.091000 
0.088705 
0.089278 
0.091574 
0.089278 
0.092722 
0.089278 
0.092722 
0.089278 
0.091574 
0.089278 
0.078183 
0.086427 
0.094672 
0.086427 
0.088131 
0.092111 
0.085854 
0.092111 
0.088131 
0.088705 
0.091000 
0.086983 
0.091556 
0.086983 
0.091000 
0.088705 
0.089278 
0.091574 
0.089278 
0.092722 
0.089278 
0.092722 
0.089278 
0.091574 
0.089278 
0.078183 
0.086427 
0.094672 
0.086427 
0.088131 
0.092111 
0.085854 
0.092111 
0.088131 
0.088705 
0.091000 
0.086983 
0.091556 
0.086983 
0.091000 
0.088705 
0.089278 
0.091574 
0.089278 
0.092722 
0.089278 
0.092722 
0.089278 
0.091574 
0.089278 
0.078183 
0.086427 
0.094672 
0.086427 
0.088131 
0.092111 
0.085854 
0.092111 
0.088131 
0.088705 
0.091000 
0.086983 
0.091556 
0.086983 
0.091000 
0.088705 
0.089278 
0.091574 
0.089278 
0.092722 
0.089278 
0.092722 
0.089278 
0.091574 
0.089278 
SCALARS DENSITY float 
LOOKUP_TABLE default 
20.000000 
20.000000 
20.000000 
20.000000 
20.000000 
20.000000 
20.000000 
20.000000 
20.000000 
20.000000 
20.000000 
20.000000 
20.000000 
20.000000 
20.000000 
20.000000 
20.000000 
20.000000 
20.000000 
20.000000 
20.000000 
20.000000 
20.000000 
20.000000 
20.000000 
20.000000 
20.000000 
20.000000 
20.000000 
20.000000 
20.000000 
20.000000 
20.000000 
20.000000 
20.000000 
20.000000 
20.000000 
20.000000 
20.000000 
20.000000 
20.000000 
20.000000 
20.000000 
20.000000 
20.000000 
20.000000 
20.000000 
20.000000 
20.000000 
20.000000 
20.000000 
20.000000 
20.000000 
20.000000 
20.000000 
20.000000 
20.000000 
20.000000 
20.000000 
20.000000 
20.000000 
20.000000 
20.000000 
20.000000 
20.000000 
20.000000 
20.000000 
20.000000 
20.000000 
20.000000 
20.000000 
20.000000 
20.000000 
20.000000 
20.000000 
20.000000 
20.000000 
20.000000 
20.000000 
20.000000 
20.000000 
20.000000 
20.000000 
20.000000 
20.000000 
20.000000 
20.000000 
20.000000 
20.000000 
20.000000 
20.000000 
20.000000 
20.000000 
20.000000 
20.000000 
20.000000 
20.000000 
20.000000 
20.000000 
20.000000 
20.000000 
20.000000 
20.000000 
20.000000 
20.000000 
20.000000 
20.000000 
20.000000 
20.000000 
20.000000 
20.000000 
20.000000 
20.000000 
20.000000 
20.000000 
20.000000 
20.000000 
20.000000 
20.000000 
20.000000 
20.000000 
20.000000 
20.000000 
20.000000 
20.000000 
20.000000 
20.000000 
20.000000 
20.000000 
20.000000 
20.000000 
20.000000 
20.000000 
20.000000 
20.000000 
20.000000 
20.000000 
20.000000 
20.000000 
20.000000 
20.000000 
20.000000 
20.000000 
20.000000 
20.000000 
20.000000 
20.000000 
20.000000 
20.000000 
20.000000 
20.000000 
20.000000 
20.000000 
20.000000 
20.000000 
20.000000 
20.000000 
20.000000 
20.000000 
20.000000 
20.000000 
20.000000 
20.000000 
20.000000 
20.000000 
20.000000 
20.000000 
20.000000 
20.000000 
20.000000 
20.000000 
20.000000 
20.000000 
20.000000 
20.000000 
SCALARS ELEM_i float 
LOOKUP_TABLE default 
178 
205 
178 
179 
206 
206 
206 
179 
179 
233 
206 
207 
207 
207 
180 
180 
234 
234 
234 
207 
207 
207 
208 
181 
181 
178 
205 
205 
205 
231 
205 
232 
205 
206 
231 
232 
232 
232 
232 
233 
233 
258 
258 
259 
259 
259 
260 
260 
233 
233 
177 
204 
204 
204 
203 
203 
204 
204 
231 
203 
203 
230 
230 
230 
231 
231 
202 
229 
229 
230 
230 
230 
257 
258 
258 
177 
177 
177 
177 
149 
176 
176 
176 
203 
148 
149 
175 
175 
175 
203 
202 
148 
148 
148 
175 
175 
175 
202 
202 
202 
177 
150 
150 
150 
123 
150 
150 
149 
149 
123 
123 
122 
122 
122 
149 
149 
96 
96 
95 
122 
122 
122 
121 
121 
148 
178 
151 
151 
151 
152 
151 
124 
151 
123 
125 
125 
124 
124 
124 
124 
123 
125 
125 
98 
98 
97 
97 
97 
96 
96 
178 
179 
178 
151 
179 
179 
152 
152 
152 
180 
180 
153 
153 
153 
152 
125 
181 
181 
154 
153 
153 
153 
126 
126 
126 
VECTORS VELOCITY float 
-0.000000 -3.452335 0.000000 
-0.000000 -3.452335 0.000000 
-0.000000 -3.452335 0.000000 
-0.000000 -3.452335 0.000000 
0.000000 -3.452335 0.000000 
0.000000 -3.452335 0.000000 
0.000000 -3.452335 0.000000 
0.000000 -3.452335 0.000000 
0.000000 -3.452335 0.000000 
0.000000 -3.452335 0.000000 
0.000000 -3.452335 0.000000 
0.000000 -3.452335 0.000000 
0.000000 -3.452335 0.000000 
0.000000 -3.452335 0.000000 
0.000000 -3.452335 0.000000 
0.000000 -3.452335 0.000000 
-0.000000 -3.452335 0.000000 
-0.000000 -3.452335 0.000000 
-0.000000 -3.452335 0.000000 
0.000000 -3.452335 0.000000 
0.000000 -3.452335 0.000000 
0.000000 -3.452335 0.000000 
-0.000000 -3.452335 0.000000 
-0.000000 -3.452335 0.000000 
0.000000 -3.452335 0.000000 
-0.000000 -3.452335 0.000000 
0.000000 -3.452335 0.000000 
0.000000 -3.452335 0.000000 
-0.000000 -3.452335 0.000000 
0.000000 -3.452335 0.000000 
0.000000 -3.452335 0.000000 
0.000000 -3.452335 0.000000 
-0.000000 -3.452335 0.000000 
-0.000000 -3.452335 0.000000 
0.000000 -3.452335 0.000000 
0.000000 -3.452335 0.000000 
0.000000 -3.452335 0.000000 
0.000000 -3.452335 0.000000 
-0.000000 -3.452335 0.000000 
0.000000 -3.452335 0.000000 
0.000000 -3.452335 0.000000 
0.000000 -3.452335 0.000000 
0.000000 -3.452335 0.000000 
0.000000 -3.452335 0.000000 
0.000000 -3.452335 0.000000 
-0.000000 -3.452335 0.000000 
0.000000 -3.452335 0.000000 
0.000000 -3.452335 0.000000 
0.000000 -3.452335 0.000000 
-0.000000 -3.452335 0.000000 
-0.000000 -3.452335 0.000000 
-0.000000 -3.452335 0.000000 
-0.000000 -3.452335 0.000000 
0.000000 -3.452335 0.000000 
-0.000000 -3.452335 0.000000 
-0.000000 -3.452335 0.000000 
-0.000000 -3.452335 0.000000 
-0.000000 -3.452335 0.000000 
0.000000 -3.452335 0.000000 
-0.000000 -3.452335 0.000000 
-0.000000 -3.452335 0.000000 
-0.000000 -3.452335 0.000000 
-0.000000 -3.452335 0.000000 
0.000000 -3.452335 0.000000 
0.000000 -3.452335 0.000000 
0.000000 -3.452335 0.000000 
-0.000000 -3.452335 0.000000 
-0.000000 -3.452335 0.000000 
0.000000 -3.452335 0.000000 
0.000000 -3.452335 0.000000 
0.000000 -3.452335 0.000000 
0.000000 -3.452335 0.000000 
-0.000000 -3.452335 0.000000 
0.000000 -3.452335 0.000000 
-0.000000 -3.452335 0.000000 
-0.000000 -3.452335 0.000000 
-0.000000 -3.452335 0.000000 
-0.000000 -3.452335 0.000000 
-0.000000 -3.452335 0.000000 
-0.000000 -3.452335 0.000000 
-0.000000 -3.452335 0.000000 
-0.000000 -3.452335 0.000000 
-0.000000 -3.452335 0.000000 
-0.000000 -3.452335 0.000000 
-0.000000 -3.452335 0.000000 
0.000000 -3.452335 0.000000 
-0.000000 -3.452335 0.000000 
0.000000 -3.452335 0.000000 
0.000000 -3.452335 0.000000 
0.000000 -3.452335 0.000000 
0.000000 -3.452335 0.000000 
-0.000000 -3.452335 0.000000 
0.000000 -3.452335 0.000000 
0.000000 -3.452335 0.000000 
-0.000000 -3.452335 0.000000 
0.000000 -3.452335 0.000000 
-0.000000 -3.452335 0.000000 
-0.000000 -3.452335 0.000000 
-0.000000 -3.452335 0.000000 
-0.000000 -3.452335 0.000000 
-0.000000 -3.452335 0.000000 
-0.000000 -3.452335 0.000000 
-0.000000 -3.452335 0.000000 
-0.000000 -3.452335 0.000000 
-0.000000 -3.452335 0.000000 
-0.000000 -3.452335 0.000000 
0.000000 -3.452335 0.000000 
0.000000 -3.452335 0.000000 
0.000000 -3.452335 0.000000 
-0.000000 -3.452335 0.000000 
-0.000000 -3.452335 0.000000 
0.000000 -3.452335 0.000000 
0.000000 -3.452335 0.000000 
0.000000 -3.452335 0.000000 
0.000000 -3.452335 0.000000 
-0.000000 -3.452335 0.000000 
0.000000 -3.452335 0.000000 
-0.000000 -3.452335 0.000000 
-0.000000 -3.452335 0.000000 
-0.000000 -3.452335 0.000000 
0.000000 -3.452335 0.000000 
-0.000000 -3.452335 0.000000 
0.000000 -3.452335 0.000000 
-0.000000 -3.452335 0.000000 
-0.000000 -3.452335 0.000000 
-0.000000 -3.452335 0.000000 
-0.000000 -3.452335 0.000000 
-0.000000 -3.452335 0.000000 
-0.000000 -3.452335 0.000000 
0.000000 -3.452335 0.000000 
-0.000000 -3.452335 0.000000 
-0.000000 -3.452335 0.000000 
-0.000000 -3.452335 0.000000 
-0.000000 -3.452335 0.000000 
0.000000 -3.452335 0.000000 
-0.000000 -3.452335 0.000000 
-0.000000 -3.452335 0.000000 
-0.000000 -3.452335 0.000000 
-0.000000 -3.452335 0.000000 
-0.000000 -3.452335 0.000000 
-0.000000 -3.452335 0.000000 
0.000000 -3.452335 0.000000 
-0.000000 -3.452335 0.000000 
-0.000000 -3.452335 0.000000 
0.000000 -3.452335 0.000000 
0.000000 -3.452335 0.000000 
0.000000 -3.452335 0.000000 
0.000000 -3.452335 0.000000 
0.000000 -3.452335 0.000000 
0.000000 -3.452335 0.000000 
-0.000000 -3.452335 0.000000 
0.000000 -3.452335 0.000000 
0.000000 -3.452335 0.000000 
-0.000000 -3.452335 0.000000 
-0.000000 -3.452335 0.000000 
-0.000000 -3.452335 0.000000 
0.000000 -3.452335 0.000000 
0.000000 -3.452335 0.000000 
0.000000 -3.452335 0.000000 
0.000000 -3.452335 0.000000 
-0.000000 -3.452335 0.000000 
-0.000000 -3.452335 0.000000 
0.000000 -3.452335 0.000000 
0.000000 -3.452335 0.000000 
0.000000 -3.452335 0.000000 
0.000000 -3.452335 0.000000 
0.000000 -3.452335 0.000000 
-0.000000 -3.452335 0.000000 
0.000000 -3.452335 0.000000 
-0.000000 -3.452335 0.000000 
-0.000000 -3.452335 0.000000 
-0.000000 -3.452335 0.000000 
0.000000 -3.452335 0.000000 
0.000000 -3.452335 0.000000 
-0.000000 -3.452335 0.000000 
TENSORS STRESS float 
-0.000000 -0.000000 0.000000 
0.000000 -0.000000 0.000000 
0.000000 0.000000 0.000000 

0.000000 0.000000 0.000000 
0.000000 0.000000 0.000000 
0.000000 0.000000 0.000000 

-0.000000 -0.000000 0.000000 
0.000000 -0.000000 0.000000 
0.000000 0.000000 0.000000 

-0.000000 0.000000 0.000000 
0.000000 -0.000000 0.000000 
0.000000 0.000000 0.000000 

-0.000000 0.000000 0.000000 
0.000000 -0.000000 0.000000 
0.000000 0.000000 0.000000 

-0.000000 0.000000 0.000000 
0.000000 0.000000 0.000000 
0.000000 0.000000 0.000000 

-0.000000 0.000000 0.000000 
0.000000 -0.000000 0.000000 
0.000000 0.000000 0.000000 

-0.000000 -0.000000 0.000000 
0.000000 -0.000000 0.000000 
0.000000 0.000000 0.000000 

-0.000000 -0.000000 0.000000 
0.000000 -0.000000 0.000000 
0.000000 0.000000 0.000000 

0.000000 0.000000 0.000000 
0.000000 0.000000 0.000000 
0.000000 0.000000 0.000000 

-0.000000 -0.000000 0.000000 
0.000000 -0.000000 0.000000 
0.000000 0.000000 0.000000 

-0.000000 -0.000000 0.000000 
0.000000 -0.000000 0.000000 
0.000000 0.000000 0.000000 

0.000000 -0.000000 0.000000 
0.000000 0.000000 0.000000 
0.000000 0.000000 0.000000 

0.000000 0.000000 0.000000 
0.000000 0.000000 0.000000 
0.000000 0.000000 0.000000 

0.000000 0.000000 0.000000 
0.000000 -0.000000 0.000000 
0.000000 0.000000 0.000000 

0.000000 0.000000 0.000000 
0.000000 -0.000000 0.000000 
0.000000 0.000000 0.000000 

0.000000 0.000000 0.000000 
0.000000 0.000000 0.000000 
0.000000 0.000000 0.000000 

0.000000 0.000000 0.000000 
0.000000 0.000000 0.000000 
0.000000 0.000000 0.000000 

0.000000 -0.000000 0.000000 
0.000000 0.000000 0.000000 
0.000000 0.000000 0.000000 

0.000000 -0.000000 0.000000 
0.000000 0.000000 0.000000 
0.000000 0.000000 0.000000 

0.000000 0.000000 0.000000 
0.000000 -0.000000 0.000000 
0.000000 0.000000 0.000000 

0.000000 0.000000 0.000000 
0.000000 0.000000 0.000000 
0.000000 0.000000 0.000000 

0.000000 -0.000000 0.000000 
0.000000 0.000000 0.000000 
0.000000 0.000000 0.000000 

-0.000000 0.000000 0.000000 
0.000000 -0.000000 0.000000 
0.000000 0.000000 0.000000 

0.000000 0.000000 0.000000 
0.000000 0.000000 0.000000 
0.000000 0.000000 0.000000 

-0.000000 0.000000 0.000000 
0.000000 0.000000 0.000000 
0.000000 0.000000 0.000000 

-0.000000 0.000000 0.000000 
0.000000 0.000000 0.000000 
0.000000 0.000000 0.000000 

-0.000000 0.000000 0.000000 
0.000000 -0.000000 0.000000 
0.000000 0.000000 0.000000 

-0.000000 -0.000000 0.000000 
0.000000 -0.000000 0.000000 
0.000000 0.000000 0.000000 

-0.000000 -0.000000 0.000000 
0.000000 0.000000 0.000000 
0.000000 0.000000 0.000000 

-0.000000 -0.000000 0.000000 
0.000000 -0.000000 0.000000 
0.000000 0.000000 0.000000 

-0.000000 -0.000000 0.000000 
0.000000 -0.000000 0.000000 
0.000000 0.000000 0.000000 

0.000000 -0.000000 0.000000 
0.000000 0.000000 0.000000 
0.000000 0.000000 0.000000 

-0.000000 0.000000 0.000000 
0.000000 -0.000000 0.000000 
0.000000 0.000000 0.000000 

-0.000000 -0.000000 0.000000 
0.000000 -0.000000 0.000000 
0.000000 0.000000 0.000000 

-0.000000 -0.000000 0.000000 
0.000000 -0.000000 0.000000 
0.000000 0.000000 0.000000 

-0.000000 -0.000000 0.000000 
0.000000 -0.000000 0.000000 
0.000000 0.000000 0.000000 

0.000000 0.000000 0.000000 
0.000000 0.000000 0.000000 
0.000000 0.000000 0.000000 

-0.000000 -0.000000 0.000000 
0.000000 -0.000000 0.000000 
0.000000 0.000000 0.000000 

0.000000 0.000000 0.000000 
0.000000 0.000000 0.000000 
0.000000 0.000000 0.000000 

0.000000 0.000000 0.000000 
0.000000 -0.000000 0.000000 
0.000000 0.000000 0.000000 

-0.000000 -0.000000 0.000000 
0.000000 -0.000000 0.000000 
0.000000 0.000000 0.000000 

0.000000 -0.000000 0.000000 
0.000000 0.000000 0.000000 
0.000000 0.000000 0.000000 

0.000000 -0.000000 0.000000 
0.000000 -0.000000 0.000000 
0.000000 0.000000 0.000000 

0.000000 0.000000 0.000000 
0.000000 0.000000 0.000000 
0.000000 0.000000 0.000000 

0.000000 0.000000 0.000000 
0.000000 0.000000 0.000000 
0.000000 0.000000 0.000000 

-0.000000 0.000000 0.000000 
0.000000 -0.000000 0.000000 
0.000000 0.000000 0.000000 

-0.000000 -0.000000 0.000000 
0.000000 -0.000000 0.000000 
0.000000 0.000000 0.000000 

0.000000 -0.000000 0.000000 
0.000000 0.000000 0.000000 
0.000000 0.000000 0.000000 

-0.000000 -0.000000 0.000000 
0.000000 -0.000000 0.000000 
0.000000 0.000000 0.000000 

0.000000 -0.000000 0.000000 
0.000000 0.000000 0.000000 
0.000000 0.000000 0.000000 

0.000000 0.000000 0.000000 
0.000000 0.000000 0.000000 
0.000000 0.000000 0.000000 

-0.000000 0.000000 0.000000 
0.000000 -0.000000 0.000000 
0.000000 0.000000 0.000000 

-0.000000 0.000000 0.000000 
0.000000 0.000000 0.000000 
0.000000 0.000000 0.000000 

-0.000000 -0.000000 0.000000 
0.000000 -0.000000 0.000000 
0.000000 0.000000 0.000000 

-0.000000 -0.000000 0.000000 
0.000000 -0.000000 0.000000 
0.000000 0.000000 0.000000 

0.000000 0.000000 0.000000 
0.000000 0.000000 0.000000 
0.000000 0.000000 0.000000 

-0.000000 -0.000000 0.000000 
0.000000 0.000000 0.000000 
0.000000 0.000000 0.000000 

-0.000000 0.000000 0.000000 
0.000000 -0.000000 0.000000 
0.000000 0.000000 0.000000 

0.000000 0.000000 0.000000 
0.000000 0.000000 0.000000 
0.000000 0.000000 0.000000 

0.000000 0.000000 0.000000 
0.000000 0.000000 0.000000 
0.000000 0.000000 0.000000 

0.000000 -0.000000 0.000000 
0.000000 -0.000000 0.000000 
0.000000 0.000000 0.000000 

0.000000 0.000000 0.000000 
0.000000 -0.000000 0.000000 
0.000000 0.000000 0.000000 

0.000000 0.000000 0.000000 
0.000000 0.000000 0.000000 
0.000000 0.000000 0.000000 

0.000000 0.000000 0.000000 
0.000000 0.000000 0.000000 
0.000000 0.000000 0.000000 

-0.000000 -0.000000 0.000000 
0.000000 0.000000 0.000000 
0.000000 0.000000 0.000000 

0.000000 0.000000 0.000000 
0.000000 0.000000 0.000000 
0.000000 0.000000 0.000000 

0.000000 -0.000000 0.000000 
0.000000 0.000000 0.000000 
0.000000 0.000000 0.000000 

0.000000 -0.000000 0.000000 
0.000000 0.000000 0.000000 
0.000000 0.000000 0.000000 

0.000000 -0.000000 0.000000 
0.000000 0.000000 0.000000 
0.000000 0.000000 0.000000 

0.000000 -0.000000 0.000000 
0.000000 0.000000 0.000000 
0.000000 0.000000 0.000000 

0.000000 -0.000000 0.000000 
0.000000 0.000000 0.000000 
0.000000 0.000000 0.000000 

0.000000 0.000000 0.000000 
0.000000 0.000000 0.000000 
0.000000 0.000000 0.000000 

-0.000000 0.000000 0.000000 
0.000000 0.000000 0.000000 
0.000000 0.000000 0.000000 

0.000000 -0.000000 0.000000 
0.000000 0.000000 0.000000 
0.000000 0.000000 0.000000 

-0.000000 0.000000 0.000000 
0.000000 -0.000000 0.000000 
0.000000 0.000000 0.000000 

-0.000000 -0.000000 0.000000 
0.000000 -0.000000 0.000000 
0.000000 0.000000 0.000000 

0.000000 -0.000000 0.000000 
0.000000 0.000000 0.000000 
0.000000 0.000000 0.000000 

0.000000 -0.000000 0.000000 
0.000000 0.000000 0.000000 
0.000000 0.000000 0.000000 

-0.000000 -0.000000 0.000000 
0.000000 -0.000000 0.000000 
0.000000 0.000000 0.000000 

-0.000000 0.000000 0.000000 
0.000000 -0.000000 0.000000 
0.000000 0.000000 0.000000 

-0.000000 0.000000 0.000000 
0.000000 -0.000000 0.000000 
0.000000 0.000000 0.000000 

-0.000000 0.000000 0.000000 
0.000000 -0.000000 0.000000 
0.000000 0.000000 0.000000 

0.000000 -0.000000 0.000000 
0.000000 -0.000000 0.000000 
0.000000 0.000000 0.000000 

0.000000 -0.000000 0.000000 
0.000000 0.000000 0.000000 
0.000000 0.000000 0.000000 

0.000000 0.000000 0.000000 
0.000000 0.000000 0.000000 
0.000000 0.000000 0.000000 

-0.000000 0.000000 0.000000 
0.000000 0.000000 0.000000 
0.000000 0.000000 0.000000 

-0.000000 -0.000000 0.000000 
0.000000 0.000000 0.000000 
0.000000 0.000000 0.000000 

-0.000000 0.000000 0.000000 
0.000000 0.000000 0.000000 
0.000000 0.000000 0.000000 

0.000000 0.000000 0.000000 
0.000000 0.000000 0.000000 
0.000000 0.000000 0.000000 

0.000000 0.000000 0.000000 
0.000000 -0.000000 0.000000 
0.000000 0.000000 0.000000 

-0.000000 -0.000000 0.000000 
0.000000 -0.000000 0.000000 
0.000000 0.000000 0.000000 

0.000000 -0.000000 0.000000 
0.000000 0.000000 0.000000 
0.000000 0.000000 0.000000 

-0.000000 -0.000000 0.000000 
0.000000 0.000000 0.000000 
0.000000 0.000000 0.000000 

-0.000000 -0.000000 0.000000 
0.000000 0.000000 0.000000 
0.000000 0.000000 0.000000 

0.000000 0.000000 0.000000 
0.000000 0.000000 0.000000 
0.000000 0.000000 0.000000 

-0.000000 0.000000 0.000000 
0.000000 0.000000 0.000000 
0.000000 0.000000 0.000000 

0.000000 0.000000 0.000000 
0.000000 0.000000 0.000000 
0.000000 0.000000 0.000000 

0.000000 -0.000000 0.000000 
0.000000 0.000000 0.000000 
0.000000 0.000000 0.000000 

-0.000000 0.000000 0.000000 
0.000000 -0.000000 0.000000 
0.000000 0.000000 0.000000 

-0.000000 -0.000000 0.000000 
0.000000 -0.000000 0.000000 
0.000000 0.000000 0.000000 

-0.000000 -0.000000 0.000000 
0.000000 -0.000000 0.000000 
0.000000 0.000000 0.000000 

0.000000 -0.000000 0.000000 
0.000000 0.000000 0.000000 
0.000000 0.000000 0.000000 

0.000000 -0.000000 0.000000 
0.000000 0.000000 0.000000 
0.000000 0.000000 0.000000 

-0.000000 -0.000000 0.000000 
0.000000 -0.000000 0.000000 
0.000000 0.000000 0.000000 

0.000000 0.000000 0.000000 
0.000000 0.000000 0.000000 
0.000000 0.000000 0.000000 

0.000000 -0.000000 0.000000 
0.000000 0.000000 0.000000 
0.000000 0.000000 0.000000 

-0.000000 -0.000000 0.000000 
0.000000 -0.000000 0.000000 
0.000000 0.000000 0.000000 

-0.000000 -0.000000 0.000000 
0.000000 -0.000000 0.000000 
0.000000 0.000000 0.000000 

0.000000 0.000000 0.000000 
0.000000 -0.000000 0.000000 
0.000000 0.000000 0.000000 

0.000000 -0.000000 0.000000 
0.000000 -0.000000 0.000000 
0.000000 0.000000 0.000000 

0.000000 0.000000 0.000000 
0.000000 -0.000000 0.000000 
0.000000 0.000000 0.000000 

0.000000 -0.000000 0.000000 
0.000000 -0.000000 0.000000 
0.000000 0.000000 0.000000 

-0.000000 -0.000000 0.000000 
0.000000 -0.000000 0.000000 
0.000000 0.000000 0.000000 

-0.000000 -0.000000 0.000000 
0.000000 -0.000000 0.000000 
0.000000 0.000000 0.000000 

-0.000000 -0.000000 0.000000 
0.000000 -0.000000 0.000000 
0.000000 0.000000 0.000000 

0.000000 0.000000 0.000000 
0.000000 -0.000000 0.000000 
0.000000 0.000000 0.000000 

0.000000 0.000000 0.000000 
0.000000 0.000000 0.000000 
0.000000 0.000000 0.000000 

0.000000 0.000000 0.000000 
0.000000 -0.000000 0.000000 
0.000000 0.000000 0.000000 

0.000000 -0.000000 0.000000 
0.000000 -0.000000 0.000000 
0.000000 0.000000 0.000000 

0.000000 0.000000 0.000000 
0.000000 0.000000 0.000000 
0.000000 0.000000 0.000000 

0.000000 -0.000000 0.000000 
0.000000 0.000000 0.000000 
0.000000 0.000000 0.000000 

-0.000000 -0.000000 0.000000 
0.000000 -0.000000 0.000000 
0.000000 0.000000 0.000000 

0.000000 -0.000000 0.000000 
0.000000 -0.000000 0.000000 
0.000000 0.000000 0.000000 

0.000000 -0.000000 0.000000 
0.000000 0.000000 0.000000 
0.000000 0.000000 0.000000 

-0.000000 -0.000000 0.000000 
0.000000 -0.000000 0.000000 
0.000000 0.000000 0.000000 

-0.000000 0.000000 0.000000 
0.000000 -0.000000 0.000000 
0.000000 0.000000 0.000000 

-0.000000 -0.000000 0.000000 
0.000000 -0.000000 0.000000 
0.000000 0.000000 0.000000 

-0.000000 -0.000000 0.000000 
0.000000 -0.000000 0.000000 
0.000000 0.000000 0.000000 

0.000000 -0.000000 0.000000 
0.000000 -0.000000 0.000000 
0.000000 0.000000 0.000000 

-0.000000 -0.000000 0.000000 
0.000000 -0.000000 0.000000 
0.000000 0.000000 0.000000 

0.000000 0.000000 0.000000 
0.000000 -0.000000 0.000000 
0.000000 0.000000 0.000000 

-0.000000 -0.000000 0.000000 
0.000000 0.000000 0.000000 
0.000000 0.000000 0.000000 

0.000000 0.000000 0.000000 
0.000000 0.000000 0.000000 
0.000000 0.000000 0.000000 

0.000000 0.000000 0.000000 
0.000000 -0.000000 0.000000 
0.000000 0.000000 0.000000 

0.000000 -0.000000 0.000000 
0.000000 -0.000000 0.000000 
0.000000 0.000000 0.000000 

0.000000 -0.000000 0.000000 
0.000000 -0.000000 0.000000 
0.000000 0.000000 0.000000 

0.000000 0.000000 0.000000 
0.000000 0.000000 0.000000 
0.000000 0.000000 0.000000 

-0.000000 0.000000 0.000000 
0.000000 -0.000000 0.000000 
0.000000 0.000000 0.000000 

0.000000 0.000000 0.000000 
0.000000 -0.000000 0.000000 
0.000000 0.000000 0.000000 

0.000000 0.000000 0.000000 
0.000000 0.000000 0.000000 
0.000000 0.000000 0.000000 

-0.000000 0.000000 0.000000 
0.000000 -0.000000 0.000000 
0.000000 0.000000 0.000000 

0.000000 -0.000000 0.000000 
0.000000 -0.000000 0.000000 
0.000000 0.000000 0.000000 

0.000000 0.000000 0.000000 
0.000000 -0.000000 0.000000 
0.000000 0.000000 0.000000 

-0.000000 -0.000000 0.000000 
0.000000 0.000000 0.000000 
0.000000 0.000000 0.000000 

-0.000000 0.000000 0.000000 
0.000000 -0.000000 0.000000 
0.000000 0.000000 0.000000 

-0.000000 0.000000 0.000000 
0.000000 -0.000000 0.000000 
0.000000 0.000000 0.000000 

-0.000000 -0.000000 0.000000 
0.000000 -0.000000 0.000000 
0.000000 0.000000 0.000000 

-0.000000 0.000000 0.000000 
0.000000 0.000000 0.000000 
0.000000 0.000000 0.000000 

0.000000 -0.000000 0.000000 
0.000000 0.000000 0.000000 
0.000000 0.000000 0.000000 

0.000000 -0.000000 0.000000 
0.000000 0.000000 0.000000 
0.000000 0.000000 0.000000 

0.000000 0.000000 0.000000 
0.000000 0.000000 0.000000 
0.000000 0.000000 0.000000 

0.000000 0.000000 0.000000 
0.000000 0.000000 0.000000 
0.000000 0.000000 0.000000 

-0.000000 -0.000000 0.000000 
0.000000 -0.000000 0.000000 
0.000000 0.000000 0.000000 

-0.000000 -0.000000 0.000000 
0.000000 -0.000000 0.000000 
0.000000 0.000000 0.000000 

0.000000 -0.000000 0.000000 
0.000000 0.000000 0.000000 
0.000000 0.000000 0.000000 

-0.000000 0.000000 0.000000 
0.000000 -0.000000 0.000000 
0.000000 0.000000 0.000000 

-0.000000 -0.000000 0.000000 
0.000000 -0.000000 0.000000 
0.000000 0.000000 0.000000 

0.000000 -0.000000 0.000000 
0.000000 0.000000 0.000000 
0.000000 0.000000 0.000000 

0.000000 0.000000 0.000000 
0.000000 -0.000000 0.000000 
0.000000 0.000000 0.000000 

0.000000 0.000000 0.000000 
0.000000 0.000000 0.000000 
0.000000 0.000000 0.000000 

0.000000 -0.000000 0.000000 
0.000000 0.000000 0.000000 
0.000000 0.000000 0.000000 

0.000000 -0.000000 0.000000 
0.000000 0.000000 0.000000 
0.000000 0.000000 0.000000 

0.000000 0.000000 0.000000 
0.000000 0.000000 0.000000 
0.000000 0.000000 0.000000 

0.000000 -0.000000 0.000000 
0.000000 0.000000 0.000000 
0.000000 0.000000 0.000000 

0.000000 -0.000000 0.000000 
0.000000 0.000000 0.000000 
0.000000 0.000000 0.000000 

-0.000000 0.000000 0.000000 
0.000000 -0.000000 0.000000 
0.000000 0.000000 0.000000 

0.000000 -0.000000 0.000000 
0.000000 0.000000 0.000000 
0.000000 0.000000 0.000000 

-0.000000 -0.000000 0.000000 
0.000000 0.000000 0.000000 
0.000000 0.000000 0.000000 

-0.000000 -0.000000 0.000000 
0.000000 -0.000000 0.000000 
0.000000 0.000000 0.000000 

-0.000000 -0.000000 0.000000 
0.000000 0.000000 0.000000 
0.000000 0.000000 0.000000 

-0.000000 0.000000 0.000000 
0.000000 -0.000000 0.000000 
0.000000 0.000000 0.000000 

-0.000000 0.000000 0.000000 
0.000000 0.000000 0.000000 
0.000000 0.000000 0.000000 

-0.000000 -0.000000 0.000000 
0.000000 -0.000000 0.000000 
0.000000 0.000000 0.000000 

-0.000000 -0.000000 0.000000 
0.000000 0.000000 0.000000 
0.000000 0.000000 0.000000 

TENSORS STRAIN float 
-0.000000 -0.000000 0.000000 
0.000000 -0.000000 0.000000 
0.000000 0.000000 0.000000 

-0.000000 0.000000 0.000000 
0.000000 0.000000 0.000000 
0.000000 0.000000 0.000000 

0.000000 -0.000000 0.000000 
0.000000 -0.000000 0.000000 
0.000000 0.000000 0.000000 

0.000000 0.000000 0.000000 
0.000000 -0.000000 0.000000 
0.000000 0.000000 0.000000 

-0.000000 0.000000 0.000000 
0.000000 -0.000000 0.000000 
0.000000 0.000000 0.000000 

-0.000000 0.000000 0.000000 
0.000000 0.000000 0.000000 
0.000000 0.000000 0.000000 

-0.000000 0.000000 0.000000 
0.000000 -0.000000 0.000000 
0.000000 0.000000 0.000000 

-0.000000 -0.000000 0.000000 
0.000000 -0.000000 0.000000 
0.000000 0.000000 0.000000 

0.000000 -0.000000 0.000000 
0.000000 -0.000000 0.000000 
0.000000 0.000000 0.000000 

0.000000 0.000000 0.000000 
0.000000 -0.000000 0.000000 
0.000000 0.000000 0.000000 

-0.000000 -0.000000 0.000000 
0.000000 -0.000000 0.000000 
0.000000 0.000000 0.000000 

-0.000000 -0.000000 0.000000 
0.000000 -0.000000 0.000000 
0.000000 0.000000 0.000000 

-0.000000 -0.000000 0.000000 
0.000000 0.000000 0.000000 
0.000000 0.000000 0.000000 

0.000000 0.000000 0.000000 
0.000000 0.000000 0.000000 
0.000000 0.000000 0.000000 

0.000000 0.000000 0.000000 
0.000000 -0.000000 0.000000 
0.000000 0.000000 0.000000 

0.000000 0.000000 0.000000 
0.000000 -0.000000 0.000000 
0.000000 0.000000 0.000000 

0.000000 0.000000 0.000000 
0.000000 0.000000 0.000000 
0.000000 0.000000 0.000000 

0.000000 0.000000 0.000000 
0.000000 -0.000000 0.000000 
0.000000 0.000000 0.000000 

0.000000 -0.000000 0.000000 
0.000000 0.000000 0.000000 
0.000000 0.000000 0.000000 

0.000000 -0.000000 0.000000 
0.000000 0.000000 0.000000 
0.000000 0.000000 0.000000 

0.000000 0.000000 0.000000 
0.000000 -0.000000 0.000000 
0.000000 0.000000 0.000000 

0.000000 0.000000 0.000000 
0.000000 0.000000 0.000000 
0.000000 0.000000 0.000000 

0.000000 -0.000000 0.000000 
0.000000 -0.000000 0.000000 
0.000000 0.000000 0.000000 

-0.000000 0.000000 0.000000 
0.000000 -0.000000 0.000000 
0.000000 0.000000 0.000000 

-0.000000 0.000000 0.000000 
0.000000 0.000000 0.000000 
0.000000 0.000000 0.000000 

-0.000000 0.000000 0.000000 
0.000000 0.000000 0.000000 
0.000000 0.000000 0.000000 

-0.000000 0.000000 0.000000 
0.000000 0.000000 0.000000 
0.000000 0.000000 0.000000 

0.000000 0.000000 0.000000 
0.000000 -0.000000 0.000000 
0.000000 0.000000 0.000000 

-0.000000 -0.000000 0.000000 
0.000000 -0.000000 0.000000 
0.000000 0.000000 0.000000 

-0.000000 -0.000000 0.000000 
0.000000 0.000000 0.000000 
0.000000 0.000000 0.000000 

0.000000 -0.000000 0.000000 
0.000000 -0.000000 0.000000 
0.000000 0.000000 0.000000 

0.000000 -0.000000 0.000000 
0.000000 -0.000000 0.000000 
0.000000 0.000000 0.000000 

-0.000000 -0.000000 0.000000 
0.000000 0.000000 0.000000 
0.000000 0.000000 0.000000 

-0.000000 0.000000 0.000000 
0.000000 -0.000000 0.000000 
0.000000 0.000000 0.000000 

-0.000000 -0.000000 0.000000 
0.000000 -0.000000 0.000000 
0.000000 0.000000 0.000000 

-0.000000 -0.000000 0.000000 
0.000000 -0.000000 0.000000 
0.000000 0.000000 0.000000 

0.000000 -0.000000 0.000000 
0.000000 -0.000000 0.000000 
0.000000 0.000000 0.000000 

0.000000 0.000000 0.000000 
0.000000 0.000000 0.000000 
0.000000 0.000000 0.000000 

-0.000000 -0.000000 0.000000 
0.000000 -0.000000 0.000000 
0.000000 0.000000 0.000000 

-0.000000 0.000000 0.000000 
0.000000 0.000000 0.000000 
0.000000 0.000000 0.000000 

0.000000 0.000000 0.000000 
0.000000 -0.000000 0.000000 
0.000000 0.000000 0.000000 

0.000000 -0.000000 0.000000 
0.000000 -0.000000 0.000000 
0.000000 0.000000 0.000000 

0.000000 -0.000000 0.000000 
0.000000 -0.000000 0.000000 
0.000000 0.000000 0.000000 

0.000000 -0.000000 0.000000 
0.000000 -0.000000 0.000000 
0.000000 0.000000 0.000000 

0.000000 0.000000 0.000000 
0.000000 -0.000000 0.000000 
0.000000 0.000000 0.000000 

0.000000 0.000000 0.000000 
0.000000 0.000000 0.000000 
0.000000 0.000000 0.000000 

-0.000000 0.000000 0.000000 
0.000000 -0.000000 0.000000 
0.000000 0.000000 0.000000 

-0.000000 -0.000000 0.000000 
0.000000 -0.000000 0.000000 
0.000000 0.000000 0.000000 

0.000000 -0.000000 0.000000 
0.000000 0.000000 0.000000 
0.000000 0.000000 0.000000 

0.000000 -0.000000 0.000000 
0.000000 -0.000000 0.000000 
0.000000 0.000000 0.000000 

-0.000000 -0.000000 0.000000 
0.000000 0.000000 0.000000 
0.000000 0.000000 0.000000 

-0.000000 0.000000 0.000000 
0.000000 0.000000 0.000000 
0.000000 0.000000 0.000000 

-0.000000 0.000000 0.000000 
0.000000 -0.000000 0.000000 
0.000000 0.000000 0.000000 

-0.000000 0.000000 0.000000 
0.000000 0.000000 0.000000 
0.000000 0.000000 0.000000 

0.000000 -0.000000 0.000000 
0.000000 -0.000000 0.000000 
0.000000 0.000000 0.000000 

0.000000 -0.000000 0.000000 
0.000000 -0.000000 0.000000 
0.000000 0.000000 0.000000 

0.000000 0.000000 0.000000 
0.000000 0.000000 0.000000 
0.000000 0.000000 0.000000 

-0.000000 -0.000000 0.000000 
0.000000 0.000000 0.000000 
0.000000 0.000000 0.000000 

-0.000000 0.000000 0.000000 
0.000000 -0.000000 0.000000 
0.000000 0.000000 0.000000 

0.000000 0.000000 0.000000 
0.000000 0.000000 0.000000 
0.000000 0.000000 0.000000 

0.000000 0.000000 0.000000 
0.000000 0.000000 0.000000 
0.000000 0.000000 0.000000 

0.000000 -0.000000 0.000000 
0.000000 -0.000000 0.000000 
0.000000 0.000000 0.000000 

0.000000 0.000000 0.000000 
0.000000 -0.000000 0.000000 
0.000000 0.000000 0.000000 

0.000000 0.000000 0.000000 
0.000000 0.000000 0.000000 
0.000000 0.000000 0.000000 

-0.000000 0.000000 0.000000 
0.000000 0.000000 0.000000 
0.000000 0.000000 0.000000 

-0.000000 -0.000000 0.000000 
0.000000 0.000000 0.000000 
0.000000 0.000000 0.000000 

0.000000 0.000000 0.000000 
0.000000 -0.000000 0.000000 
0.000000 0.000000 0.000000 

0.000000 -0.000000 0.000000 
0.000000 0.000000 0.000000 
0.000000 0.000000 0.000000 

0.000000 -0.000000 0.000000 
0.000000 -0.000000 0.000000 
0.000000 0.000000 0.000000 

0.000000 -0.000000 0.000000 
0.000000 0.000000 0.000000 
0.000000 0.000000 0.000000 

0.000000 -0.000000 0.000000 
0.000000 0.000000 0.000000 
0.000000 0.000000 0.000000 

0.000000 -0.000000 0.000000 
0.000000 -0.000000 0.000000 
0.000000 0.000000 0.000000 

0.000000 0.000000 0.000000 
0.000000 0.000000 0.000000 
0.000000 0.000000 0.000000 

-0.000000 0.000000 0.000000 
0.000000 0.000000 0.000000 
0.000000 0.000000 0.000000 

-0.000000 -0.000000 0.000000 
0.000000 0.000000 0.000000 
0.000000 0.000000 0.000000 

-0.000000 0.000000 0.000000 
0.000000 -0.000000 0.000000 
0.000000 0.000000 0.000000 

-0.000000 -0.000000 0.000000 
0.000000 -0.000000 0.000000 
0.000000 0.000000 0.000000 

-0.000000 -0.000000 0.000000 
0.000000 0.000000 0.000000 
0.000000 0.000000 0.000000 

-0.000000 -0.000000 0.000000 
0.000000 0.000000 0.000000 
0.000000 0.000000 0.000000 

-0.000000 -0.000000 0.000000 
0.000000 -0.000000 0.000000 
0.000000 0.000000 0.000000 

-0.000000 0.000000 0.000000 
0.000000 -0.000000 0.000000 
0.000000 0.000000 0.000000 

-0.000000 0.000000 0.000000 
0.000000 -0.000000 0.000000 
0.000000 0.000000 0.000000 

-0.000000 0.000000 0.000000 
0.000000 -0.000000 0.000000 
0.000000 0.000000 0.000000 

0.000000 -0.000000 0.000000 
0.000000 -0.000000 0.000000 
0.000000 0.000000 0.000000 

-0.000000 -0.000000 0.000000 
0.000000 0.000000 0.000000 
0.000000 0.000000 0.000000 

0.000000 0.000000 0.000000 
0.000000 0.000000 0.000000 
0.000000 0.000000 0.000000 

-0.000000 0.000000 0.000000 
0.000000 0.000000 0.000000 
0.000000 0.000000 0.000000 

-0.000000 -0.000000 0.000000 
0.000000 0.000000 0.000000 
0.000000 0.000000 0.000000 

-0.000000 0.000000 0.000000 
0.000000 0.000000 0.000000 
0.000000 0.000000 0.000000 

0.000000 0.000000 0.000000 
0.000000 -0.000000 0.000000 
0.000000 0.000000 0.000000 

0.000000 0.000000 0.000000 
0.000000 -0.000000 0.000000 
0.000000 0.000000 0.000000 

-0.000000 -0.000000 0.000000 
0.000000 -0.000000 0.000000 
0.000000 0.000000 0.000000 

0.000000 -0.000000 0.000000 
0.000000 0.000000 0.000000 
0.000000 0.000000 0.000000 

-0.000000 -0.000000 0.000000 
0.000000 0.000000 0.000000 
0.000000 0.000000 0.000000 

-0.000000 -0.000000 0.000000 
0.000000 0.000000 0.000000 
0.000000 0.000000 0.000000 

0.000000 0.000000 0.000000 
0.000000 0.000000 0.000000 
0.000000 0.000000 0.000000 

-0.000000 0.000000 0.000000 
0.000000 0.000000 0.000000 
0.000000 0.000000 0.000000 

0.000000 0.000000 0.000000 
0.000000 0.000000 0.000000 
0.000000 0.000000 0.000000 

0.000000 -0.000000 0.000000 
0.000000 -0.000000 0.000000 
0.000000 0.000000 0.000000 

0.000000 0.000000 0.000000 
0.000000 -0.000000 0.000000 
0.000000 0.000000 0.000000 

-0.000000 -0.000000 0.000000 
0.000000 -0.000000 0.000000 
0.000000 0.000000 0.000000 

0.000000 -0.000000 0.000000 
0.000000 -0.000000 0.000000 
0.000000 0.000000 0.000000 

0.000000 -0.000000 0.000000 
0.000000 0.000000 0.000000 
0.000000 0.000000 0.000000 

0.000000 -0.000000 0.000000 
0.000000 0.000000 0.000000 
0.000000 0.000000 0.000000 

0.000000 -0.000000 0.000000 
0.000000 -0.000000 0.000000 
0.000000 0.000000 0.000000 

0.000000 0.000000 0.000000 
0.000000 0.000000 0.000000 
0.000000 0.000000 0.000000 

-0.000000 -0.000000 0.000000 
0.000000 0.000000 0.000000 
0.000000 0.000000 0.000000 

-0.000000 -0.000000 0.000000 
0.000000 -0.000000 0.000000 
0.000000 0.000000 0.000000 

-0.000000 -0.000000 0.000000 
0.000000 0.000000 0.000000 
0.000000 0.000000 0.000000 

0.000000 0.000000 0.000000 
0.000000 -0.000000 0.000000 
0.000000 0.000000 0.000000 

0.000000 -0.000000 0.000000 
0.000000 -0.000000 0.000000 
0.000000 0.000000 0.000000 

0.000000 0.000000 0.000000 
0.000000 -0.000000 0.000000 
0.000000 0.000000 0.000000 

0.000000 -0.000000 0.000000 
0.000000 -0.000000 0.000000 
0.000000 0.000000 0.000000 

0.000000 -0.000000 0.000000 
0.000000 -0.000000 0.000000 
0.000000 0.000000 0.000000 

-0.000000 -0.000000 0.000000 
0.000000 -0.000000 0.000000 
0.000000 0.000000 0.000000 

-0.000000 -0.000000 0.000000 
0.000000 -0.000000 0.000000 
0.000000 0.000000 0.000000 

0.000000 0.000000 0.000000 
0.000000 -0.000000 0.000000 
0.000000 0.000000 0.000000 

0.000000 0.000000 0.000000 
0.000000 -0.000000 0.000000 
0.000000 0.000000 0.000000 

0.000000 0.000000 0.000000 
0.000000 -0.000000 0.000000 
0.000000 0.000000 0.000000 

0.000000 -0.000000 0.000000 
0.000000 -0.000000 0.000000 
0.000000 0.000000 0.000000 

0.000000 0.000000 0.000000 
0.000000 0.000000 0.000000 
0.000000 0.000000 0.000000 

0.000000 -0.000000 0.000000 
0.000000 0.000000 0.000000 
0.000000 0.000000 0.000000 

0.000000 -0.000000 0.000000 
0.000000 -0.000000 0.000000 
0.000000 0.000000 0.000000 

0.000000 -0.000000 0.000000 
0.000000 -0.000000 0.000000 
0.000000 0.000000 0.000000 

0.000000 -0.000000 0.000000 
0.000000 0.000000 0.000000 
0.000000 0.000000 0.000000 

-0.000000 -0.000000 0.000000 
0.000000 -0.000000 0.000000 
0.000000 0.000000 0.000000 

-0.000000 0.000000 0.000000 
0.000000 -0.000000 0.000000 
0.000000 0.000000 0.000000 

-0.000000 -0.000000 0.000000 
0.000000 -0.000000 0.000000 
0.000000 0.000000 0.000000 

-0.000000 -0.000000 0.000000 
0.000000 -0.000000 0.000000 
0.000000 0.000000 0.000000 

0.000000 -0.000000 0.000000 
0.000000 -0.000000 0.000000 
0.000000 0.000000 0.000000 

0.000000 -0.000000 0.000000 
0.000000 -0.000000 0.000000 
0.000000 0.000000 0.000000 

0.000000 0.000000 0.000000 
0.000000 -0.000000 0.000000 
0.000000 0.000000 0.000000 

-0.000000 -0.000000 0.000000 
0.000000 0.000000 0.000000 
0.000000 0.000000 0.000000 

0.000000 0.000000 0.000000 
0.000000 -0.000000 0.000000 
0.000000 0.000000 0.000000 

0.000000 0.000000 0.000000 
0.000000 -0.000000 0.000000 
0.000000 0.000000 0.000000 

0.000000 -0.000000 0.000000 
0.000000 -0.000000 0.000000 
0.000000 0.000000 0.000000 

0.000000 -0.000000 0.000000 
0.000000 -0.000000 0.000000 
0.000000 0.000000 0.000000 

0.000000 0.000000 0.000000 
0.000000 0.000000 0.000000 
0.000000 0.000000 0.000000 

0.000000 0.000000 0.000000 
0.000000 -0.000000 0.000000 
0.000000 0.000000 0.000000 

0.000000 0.000000 0.000000 
0.000000 -0.000000 0.000000 
0.000000 0.000000 0.000000 

0.000000 0.000000 0.000000 
0.000000 0.000000 0.000000 
0.000000 0.000000 0.000000 

-0.000000 0.000000 0.000000 
0.000000 -0.000000 0.000000 
0.000000 0.000000 0.000000 

0.000000 -0.000000 0.000000 
0.000000 -0.000000 0.000000 
0.000000 0.000000 0.000000 

0.000000 0.000000 0.000000 
0.000000 -0.000000 0.000000 
0.000000 0.000000 0.000000 

-0.000000 -0.000000 0.000000 
0.000000 0.000000 0.000000 
0.000000 0.000000 0.000000 

-0.000000 0.000000 0.000000 
0.000000 -0.000000 0.000000 
0.000000 0.000000 0.000000 

-0.000000 0.000000 0.000000 
0.000000 0.000000 0.000000 
0.000000 0.000000 0.000000 

-0.000000 -0.000000 0.000000 
0.000000 -0.000000 0.000000 
0.000000 0.000000 0.000000 

-0.000000 0.000000 0.000000 
0.000000 0.000000 0.000000 
0.000000 0.000000 0.000000 

0.000000 -0.000000 0.000000 
0.000000 0.000000 0.000000 
0.000000 0.000000 0.000000 

-0.000000 -0.000000 0.000000 
0.000000 0.000000 0.000000 
0.000000 0.000000 0.000000 

0.000000 0.000000 0.000000 
0.000000 0.000000 0.000000 
0.000000 0.000000 0.000000 

0.000000 0.000000 0.000000 
0.000000 0.000000 0.000000 
0.000000 0.000000 0.000000 

0.000000 -0.000000 0.000000 
0.000000 -0.000000 0.000000 
0.000000 0.000000 0.000000 

0.000000 -0.000000 0.000000 
0.000000 -0.000000 0.000000 
0.000000 0.000000 0.000000 

-0.000000 -0.000000 0.000000 
0.000000 0.000000 0.000000 
0.000000 0.000000 0.000000 

-0.000000 0.000000 0.000000 
0.000000 -0.000000 0.000000 
0.000000 0.000000 0.000000 

0.000000 -0.000000 0.000000 
0.000000 -0.000000 0.000000 
0.000000 0.000000 0.000000 

0.000000 -0.000000 0.000000 
0.000000 0.000000 0.000000 
0.000000 0.000000 0.000000 

0.000000 0.000000 0.000000 
0.000000 -0.000000 0.000000 
0.000000 0.000000 0.000000 

0.000000 0.000000 0.000000 
0.000000 0.000000 0.000000 
0.000000 0.000000 0.000000 

-0.000000 -0.000000 0.000000 
0.000000 0.000000 0.000000 
0.000000 0.000000 0.000000 

-0.000000 -0.000000 0.000000 
0.000000 0.000000 0.000000 
0.000000 0.000000 0.000000 

-0.000000 0.000000 0.000000 
0.000000 0.000000 0.000000 
0.000000 0.000000 0.000000 

-0.000000 -0.000000 0.000000 
0.000000 0.000000 0.000000 
0.000000 0.000000 0.000000 

0.000000 -0.000000 0.000000 
0.000000 0.000000 0.000000 
0.000000 0.000000 0.000000 

-0.000000 0.000000 0.000000 
0.000000 -0.000000 0.000000 
0.000000 0.000000 0.000000 

-0.000000 -0.000000 0.000000 
0.000000 0.000000 0.000000 
0.000000 0.000000 0.000000 

-0.000000 -0.000000 0.000000 
0.000000 0.000000 0.000000 
0.000000 0.000000 0.000000 

-0.000000 -0.000000 0.000000 
0.000000 -0.000000 0.000000 
0.000000 0.000000 0.000000 

-0.000000 -0.000000 0.000000 
0.000000 0.000000 0.000000 
0.000000 0.000000 0.000000 

-0.000000 0.000000 0.000000 
0.000000 0.000000 0.000000 
0.000000 0.000000 0.000000 

-0.000000 0.000000 0.000000 
0.000000 0.000000 0.000000 
0.000000 0.000000 0.000000 

-0.000000 -0.000000 0.000000 
0.000000 0.000000 0.000000 
0.000000 0.000000 0.000000 

-0.000000 -0.000000 0.000000 
0.000000 0.000000 0.000000 
0.000000 0.000000 0.000000 

