# vtk DataFile Version 3.0 
vtk output 
ASCII 
DATASET UNSTRUCTURED_GRID 
POINTS 175 float 
-0.026061 -2.214223 0.000000 
-0.106992 -2.146167 0.000000 
-0.054870 -2.154400 0.000000 
-0.028809 -2.108516 0.000000 
-0.186430 -2.082092 0.000000 
-0.137056 -2.084618 0.000000 
-0.114311 -2.030970 0.000000 
-0.058186 -2.046636 0.000000 
-0.029377 -2.006459 0.000000 
-0.265318 -2.018936 0.000000 
-0.217198 -2.019735 0.000000 
-0.196633 -1.962439 0.000000 
-0.143120 -1.971148 0.000000 
-0.116563 -1.923879 0.000000 
-0.058945 -1.943525 0.000000 
-0.029568 -1.905405 0.000000 
-0.344206 -1.955780 0.000000 
-0.296791 -1.955773 0.000000 
-0.278030 -1.895830 0.000000 
-0.225992 -1.901696 0.000000 
-0.201664 -1.849579 0.000000 
-0.145749 -1.863053 0.000000 
-0.117890 -1.818711 0.000000 
-0.059328 -1.841416 0.000000 
-0.029759 -1.804351 0.000000 
-0.058559 -2.254973 0.000000 
-0.162226 -2.275816 0.000000 
-0.123292 -2.240198 0.000000 
-0.142917 -2.191215 0.000000 
-0.261851 -2.297972 0.000000 
-0.229092 -2.260945 0.000000 
-0.256854 -2.209714 0.000000 
-0.209613 -2.175601 0.000000 
-0.223062 -2.128027 0.000000 
-0.360414 -2.320272 0.000000 
-0.329787 -2.283150 0.000000 
-0.361761 -2.231347 0.000000 
-0.321587 -2.194939 0.000000 
-0.341985 -2.144705 0.000000 
-0.290702 -2.111906 0.000000 
-0.302189 -2.065170 0.000000 
-0.458977 -2.342573 0.000000 
-0.429420 -2.305498 0.000000 
-0.464588 -2.253456 0.000000 
-0.427556 -2.216429 0.000000 
-0.453135 -2.164914 0.000000 
-0.407738 -2.129599 0.000000 
-0.425037 -2.080170 0.000000 
-0.370772 -2.048541 0.000000 
-0.381315 -2.002314 0.000000 
-0.046960 -2.305788 0.000000 
-0.095301 -2.399834 0.000000 
-0.098873 -2.347187 0.000000 
-0.149405 -2.331990 0.000000 
-0.140093 -2.491538 0.000000 
-0.148617 -2.442840 0.000000 
-0.205981 -2.432603 0.000000 
-0.203197 -2.374400 0.000000 
-0.248777 -2.355253 0.000000 
-0.184111 -2.582502 0.000000 
-0.194039 -2.535411 0.000000 
-0.254475 -2.528111 0.000000 
-0.257893 -2.474002 0.000000 
-0.309886 -2.458629 0.000000 
-0.303554 -2.398084 0.000000 
-0.347255 -2.377926 0.000000 
-0.228129 -2.673466 0.000000 
-0.238687 -2.627241 0.000000 
-0.301302 -2.622289 0.000000 
-0.307162 -2.570250 0.000000 
-0.363386 -2.558129 0.000000 
-0.362692 -2.500618 0.000000 
-0.412122 -2.483325 0.000000 
-0.403017 -2.421178 0.000000 
-0.445733 -2.400599 0.000000 
-0.000000 -2.328403 0.000000 
0.043388 -2.424834 0.000000 
-0.000000 -2.394802 0.000000 
-0.043388 -2.424834 0.000000 
0.087158 -2.517031 0.000000 
0.043769 -2.493332 0.000000 
-0.000000 -2.531798 0.000000 
-0.043769 -2.493332 0.000000 
-0.087158 -2.517031 0.000000 
0.130831 -2.608160 0.000000 
0.087824 -2.586562 0.000000 
0.044436 -2.629261 0.000000 
-0.000000 -2.598196 0.000000 
-0.044436 -2.629261 0.000000 
-0.087824 -2.586562 0.000000 
-0.130831 -2.608160 0.000000 
0.174505 -2.699290 0.000000 
0.131782 -2.678724 0.000000 
0.088871 -2.724590 0.000000 
0.044532 -2.696727 0.000000 
-0.000000 -2.733127 0.000000 
-0.044532 -2.696727 0.000000 
-0.088871 -2.724590 0.000000 
-0.131782 -2.678724 0.000000 
-0.174505 -2.699290 0.000000 
0.046960 -2.305788 0.000000 
0.149405 -2.331990 0.000000 
0.098873 -2.347187 0.000000 
0.095301 -2.399834 0.000000 
0.248777 -2.355253 0.000000 
0.203197 -2.374400 0.000000 
0.205981 -2.432603 0.000000 
0.148617 -2.442840 0.000000 
0.140093 -2.491538 0.000000 
0.347255 -2.377926 0.000000 
0.303554 -2.398084 0.000000 
0.309886 -2.458629 0.000000 
0.257893 -2.474002 0.000000 
0.254475 -2.528111 0.000000 
0.194039 -2.535411 0.000000 
0.184111 -2.582502 0.000000 
0.445733 -2.400599 0.000000 
0.403017 -2.421178 0.000000 
0.412122 -2.483325 0.000000 
0.362692 -2.500618 0.000000 
0.363386 -2.558129 0.000000 
0.307162 -2.570250 0.000000 
0.301302 -2.622289 0.000000 
0.238687 -2.627241 0.000000 
0.228129 -2.673466 0.000000 
0.058559 -2.254973 0.000000 
0.142917 -2.191215 0.000000 
0.123292 -2.240198 0.000000 
0.162226 -2.275816 0.000000 
0.223062 -2.128027 0.000000 
0.209613 -2.175601 0.000000 
0.256854 -2.209714 0.000000 
0.229092 -2.260945 0.000000 
0.261851 -2.297972 0.000000 
0.302189 -2.065170 0.000000 
0.290702 -2.111906 0.000000 
0.341985 -2.144705 0.000000 
0.321587 -2.194939 0.000000 
0.361761 -2.231347 0.000000 
0.329787 -2.283150 0.000000 
0.360414 -2.320272 0.000000 
0.381315 -2.002314 0.000000 
0.370772 -2.048541 0.000000 
0.425037 -2.080170 0.000000 
0.407738 -2.129599 0.000000 
0.453135 -2.164914 0.000000 
0.427556 -2.216429 0.000000 
0.464588 -2.253456 0.000000 
0.429420 -2.305498 0.000000 
0.458977 -2.342573 0.000000 
0.026061 -2.214223 0.000000 
0.028809 -2.108516 0.000000 
0.054870 -2.154400 0.000000 
0.106992 -2.146167 0.000000 
0.029377 -2.006459 0.000000 
0.058186 -2.046636 0.000000 
0.114311 -2.030970 0.000000 
0.137056 -2.084618 0.000000 
0.186430 -2.082092 0.000000 
0.029568 -1.905405 0.000000 
0.058945 -1.943525 0.000000 
0.116563 -1.923879 0.000000 
0.143120 -1.971148 0.000000 
0.196633 -1.962439 0.000000 
0.217198 -2.019735 0.000000 
0.265318 -2.018936 0.000000 
0.029759 -1.804351 0.000000 
0.059328 -1.841416 0.000000 
0.117890 -1.818711 0.000000 
0.145749 -1.863053 0.000000 
0.201664 -1.849579 0.000000 
0.225992 -1.901696 0.000000 
0.278030 -1.895830 0.000000 
0.296791 -1.955773 0.000000 
0.344206 -1.955780 0.000000 
CELLS 175 350 
1 0 
1 1 
1 2 
1 3 
1 4 
1 5 
1 6 
1 7 
1 8 
1 9 
1 10 
1 11 
1 12 
1 13 
1 14 
1 15 
1 16 
1 17 
1 18 
1 19 
1 20 
1 21 
1 22 
1 23 
1 24 
1 25 
1 26 
1 27 
1 28 
1 29 
1 30 
1 31 
1 32 
1 33 
1 34 
1 35 
1 36 
1 37 
1 38 
1 39 
1 40 
1 41 
1 42 
1 43 
1 44 
1 45 
1 46 
1 47 
1 48 
1 49 
1 50 
1 51 
1 52 
1 53 
1 54 
1 55 
1 56 
1 57 
1 58 
1 59 
1 60 
1 61 
1 62 
1 63 
1 64 
1 65 
1 66 
1 67 
1 68 
1 69 
1 70 
1 71 
1 72 
1 73 
1 74 
1 75 
1 76 
1 77 
1 78 
1 79 
1 80 
1 81 
1 82 
1 83 
1 84 
1 85 
1 86 
1 87 
1 88 
1 89 
1 90 
1 91 
1 92 
1 93 
1 94 
1 95 
1 96 
1 97 
1 98 
1 99 
1 100 
1 101 
1 102 
1 103 
1 104 
1 105 
1 106 
1 107 
1 108 
1 109 
1 110 
1 111 
1 112 
1 113 
1 114 
1 115 
1 116 
1 117 
1 118 
1 119 
1 120 
1 121 
1 122 
1 123 
1 124 
1 125 
1 126 
1 127 
1 128 
1 129 
1 130 
1 131 
1 132 
1 133 
1 134 
1 135 
1 136 
1 137 
1 138 
1 139 
1 140 
1 141 
1 142 
1 143 
1 144 
1 145 
1 146 
1 147 
1 148 
1 149 
1 150 
1 151 
1 152 
1 153 
1 154 
1 155 
1 156 
1 157 
1 158 
1 159 
1 160 
1 161 
1 162 
1 163 
1 164 
1 165 
1 166 
1 167 
1 168 
1 169 
1 170 
1 171 
1 172 
1 173 
1 174 
CELL_TYPES 175 
1 
1 
1 
1 
1 
1 
1 
1 
1 
1 
1 
1 
1 
1 
1 
1 
1 
1 
1 
1 
1 
1 
1 
1 
1 
1 
1 
1 
1 
1 
1 
1 
1 
1 
1 
1 
1 
1 
1 
1 
1 
1 
1 
1 
1 
1 
1 
1 
1 
1 
1 
1 
1 
1 
1 
1 
1 
1 
1 
1 
1 
1 
1 
1 
1 
1 
1 
1 
1 
1 
1 
1 
1 
1 
1 
1 
1 
1 
1 
1 
1 
1 
1 
1 
1 
1 
1 
1 
1 
1 
1 
1 
1 
1 
1 
1 
1 
1 
1 
1 
1 
1 
1 
1 
1 
1 
1 
1 
1 
1 
1 
1 
1 
1 
1 
1 
1 
1 
1 
1 
1 
1 
1 
1 
1 
1 
1 
1 
1 
1 
1 
1 
1 
1 
1 
1 
1 
1 
1 
1 
1 
1 
1 
1 
1 
1 
1 
1 
1 
1 
1 
1 
1 
1 
1 
1 
1 
1 
1 
1 
1 
1 
1 
1 
1 
1 
1 
1 
1 
1 
1 
1 
1 
1 
1 
POINT_DATA 175 
VECTORS X_GC float 
-0.026061 -2.214223 0.000000 
-0.106992 -2.146167 0.000000 
-0.054870 -2.154400 0.000000 
-0.028809 -2.108516 0.000000 
-0.186430 -2.082092 0.000000 
-0.137056 -2.084618 0.000000 
-0.114311 -2.030970 0.000000 
-0.058186 -2.046636 0.000000 
-0.029377 -2.006459 0.000000 
-0.265318 -2.018936 0.000000 
-0.217198 -2.019735 0.000000 
-0.196633 -1.962439 0.000000 
-0.143120 -1.971148 0.000000 
-0.116563 -1.923879 0.000000 
-0.058945 -1.943525 0.000000 
-0.029568 -1.905405 0.000000 
-0.344206 -1.955780 0.000000 
-0.296791 -1.955773 0.000000 
-0.278030 -1.895830 0.000000 
-0.225992 -1.901696 0.000000 
-0.201664 -1.849579 0.000000 
-0.145749 -1.863053 0.000000 
-0.117890 -1.818711 0.000000 
-0.059328 -1.841416 0.000000 
-0.029759 -1.804351 0.000000 
-0.058559 -2.254973 0.000000 
-0.162226 -2.275816 0.000000 
-0.123292 -2.240198 0.000000 
-0.142917 -2.191215 0.000000 
-0.261851 -2.297972 0.000000 
-0.229092 -2.260945 0.000000 
-0.256854 -2.209714 0.000000 
-0.209613 -2.175601 0.000000 
-0.223062 -2.128027 0.000000 
-0.360414 -2.320272 0.000000 
-0.329787 -2.283150 0.000000 
-0.361761 -2.231347 0.000000 
-0.321587 -2.194939 0.000000 
-0.341985 -2.144705 0.000000 
-0.290702 -2.111906 0.000000 
-0.302189 -2.065170 0.000000 
-0.458977 -2.342573 0.000000 
-0.429420 -2.305498 0.000000 
-0.464588 -2.253456 0.000000 
-0.427556 -2.216429 0.000000 
-0.453135 -2.164914 0.000000 
-0.407738 -2.129599 0.000000 
-0.425037 -2.080170 0.000000 
-0.370772 -2.048541 0.000000 
-0.381315 -2.002314 0.000000 
-0.046960 -2.305788 0.000000 
-0.095301 -2.399834 0.000000 
-0.098873 -2.347187 0.000000 
-0.149405 -2.331990 0.000000 
-0.140093 -2.491538 0.000000 
-0.148617 -2.442840 0.000000 
-0.205981 -2.432603 0.000000 
-0.203197 -2.374400 0.000000 
-0.248777 -2.355253 0.000000 
-0.184111 -2.582502 0.000000 
-0.194039 -2.535411 0.000000 
-0.254475 -2.528111 0.000000 
-0.257893 -2.474002 0.000000 
-0.309886 -2.458629 0.000000 
-0.303554 -2.398084 0.000000 
-0.347255 -2.377926 0.000000 
-0.228129 -2.673466 0.000000 
-0.238687 -2.627241 0.000000 
-0.301302 -2.622289 0.000000 
-0.307162 -2.570250 0.000000 
-0.363386 -2.558129 0.000000 
-0.362692 -2.500618 0.000000 
-0.412122 -2.483325 0.000000 
-0.403017 -2.421178 0.000000 
-0.445733 -2.400599 0.000000 
-0.000000 -2.328403 0.000000 
0.043388 -2.424834 0.000000 
-0.000000 -2.394802 0.000000 
-0.043388 -2.424834 0.000000 
0.087158 -2.517031 0.000000 
0.043769 -2.493332 0.000000 
-0.000000 -2.531798 0.000000 
-0.043769 -2.493332 0.000000 
-0.087158 -2.517031 0.000000 
0.130831 -2.608160 0.000000 
0.087824 -2.586562 0.000000 
0.044436 -2.629261 0.000000 
-0.000000 -2.598196 0.000000 
-0.044436 -2.629261 0.000000 
-0.087824 -2.586562 0.000000 
-0.130831 -2.608160 0.000000 
0.174505 -2.699290 0.000000 
0.131782 -2.678724 0.000000 
0.088871 -2.724590 0.000000 
0.044532 -2.696727 0.000000 
-0.000000 -2.733127 0.000000 
-0.044532 -2.696727 0.000000 
-0.088871 -2.724590 0.000000 
-0.131782 -2.678724 0.000000 
-0.174505 -2.699290 0.000000 
0.046960 -2.305788 0.000000 
0.149405 -2.331990 0.000000 
0.098873 -2.347187 0.000000 
0.095301 -2.399834 0.000000 
0.248777 -2.355253 0.000000 
0.203197 -2.374400 0.000000 
0.205981 -2.432603 0.000000 
0.148617 -2.442840 0.000000 
0.140093 -2.491538 0.000000 
0.347255 -2.377926 0.000000 
0.303554 -2.398084 0.000000 
0.309886 -2.458629 0.000000 
0.257893 -2.474002 0.000000 
0.254475 -2.528111 0.000000 
0.194039 -2.535411 0.000000 
0.184111 -2.582502 0.000000 
0.445733 -2.400599 0.000000 
0.403017 -2.421178 0.000000 
0.412122 -2.483325 0.000000 
0.362692 -2.500618 0.000000 
0.363386 -2.558129 0.000000 
0.307162 -2.570250 0.000000 
0.301302 -2.622289 0.000000 
0.238687 -2.627241 0.000000 
0.228129 -2.673466 0.000000 
0.058559 -2.254973 0.000000 
0.142917 -2.191215 0.000000 
0.123292 -2.240198 0.000000 
0.162226 -2.275816 0.000000 
0.223062 -2.128027 0.000000 
0.209613 -2.175601 0.000000 
0.256854 -2.209714 0.000000 
0.229092 -2.260945 0.000000 
0.261851 -2.297972 0.000000 
0.302189 -2.065170 0.000000 
0.290702 -2.111906 0.000000 
0.341985 -2.144705 0.000000 
0.321587 -2.194939 0.000000 
0.361761 -2.231347 0.000000 
0.329787 -2.283150 0.000000 
0.360414 -2.320272 0.000000 
0.381315 -2.002314 0.000000 
0.370772 -2.048541 0.000000 
0.425037 -2.080170 0.000000 
0.407738 -2.129599 0.000000 
0.453135 -2.164914 0.000000 
0.427556 -2.216429 0.000000 
0.464588 -2.253456 0.000000 
0.429420 -2.305498 0.000000 
0.458977 -2.342573 0.000000 
0.026061 -2.214223 0.000000 
0.028809 -2.108516 0.000000 
0.054870 -2.154400 0.000000 
0.106992 -2.146167 0.000000 
0.029377 -2.006459 0.000000 
0.058186 -2.046636 0.000000 
0.114311 -2.030970 0.000000 
0.137056 -2.084618 0.000000 
0.186430 -2.082092 0.000000 
0.029568 -1.905405 0.000000 
0.058945 -1.943525 0.000000 
0.116563 -1.923879 0.000000 
0.143120 -1.971148 0.000000 
0.196633 -1.962439 0.000000 
0.217198 -2.019735 0.000000 
0.265318 -2.018936 0.000000 
0.029759 -1.804351 0.000000 
0.059328 -1.841416 0.000000 
0.117890 -1.818711 0.000000 
0.145749 -1.863053 0.000000 
0.201664 -1.849579 0.000000 
0.225992 -1.901696 0.000000 
0.278030 -1.895830 0.000000 
0.296791 -1.955773 0.000000 
0.344206 -1.955780 0.000000 
VECTORS X_EC float 
0.338794 0.392004 0.000000 
-0.609100 -0.526745 0.000000 
0.713312 -0.415604 0.000000 
0.374519 0.964967 0.000000 
0.423588 0.608236 0.000000 
-0.218274 0.642340 0.000000 
-0.513962 -0.081899 0.000000 
0.756418 0.129587 0.000000 
0.381900 -0.412805 0.000000 
-0.550868 -0.244367 0.000000 
0.823577 -0.233571 0.000000 
0.556234 0.992924 0.000000 
-0.139443 -0.889507 0.000000 
-0.484677 0.472369 0.000000 
0.766286 0.737584 0.000000 
0.384386 0.222964 0.000000 
0.474677 0.903030 0.000000 
-0.141715 0.902933 0.000000 
-0.385608 0.093705 0.000000 
0.937896 0.172901 0.000000 
0.621631 -0.530679 0.000000 
-0.105264 -0.348780 0.000000 
-0.467428 -0.947406 0.000000 
0.771260 -0.640878 0.000000 
0.386873 0.858733 0.000000 
0.761262 0.942138 0.000000 
0.108942 -0.776485 0.000000 
-0.397202 0.742676 0.000000 
-0.142083 0.081400 0.000000 
-0.595936 -0.477374 0.000000 
0.978194 -0.977240 0.000000 
-0.660903 0.331135 0.000000 
0.724964 -0.129385 0.000000 
0.899809 -0.771634 0.000000 
0.685384 -0.176322 0.000000 
0.287229 -0.677481 0.000000 
0.702895 0.623191 0.000000 
0.180633 0.131672 0.000000 
0.445811 -0.546488 0.000000 
-0.220880 -0.989274 0.000000 
-0.071546 0.379801 0.000000 
-0.033296 0.124730 0.000000 
-0.417537 -0.375780 0.000000 
0.039645 0.921658 0.000000 
-0.441768 0.421787 0.000000 
-0.109248 -0.273664 0.000000 
-0.699407 -0.750420 0.000000 
-0.474522 0.582301 0.000000 
0.820030 0.155308 0.000000 
0.957100 -0.468764 0.000000 
0.610485 -0.371855 0.000000 
-0.761092 0.897764 0.000000 
-0.714655 0.187026 0.000000 
-0.057734 -0.018141 0.000000 
-0.178789 0.135768 0.000000 
-0.067979 -0.521658 0.000000 
0.677748 -0.659861 0.000000 
0.641556 0.554393 0.000000 
-0.765897 0.295915 0.000000 
0.393446 -0.636223 0.000000 
0.522510 0.728047 0.000000 
-0.691820 0.629503 0.000000 
-0.647393 -0.100980 0.000000 
0.028512 -0.308506 0.000000 
-0.053800 0.874133 0.000000 
0.514316 0.602003 0.000000 
0.965681 0.591786 0.000000 
-0.897068 -0.032242 0.000000 
-0.083078 -0.099095 0.000000 
-0.006893 -0.801620 0.000000 
0.724017 -0.965253 0.000000 
0.714996 0.258343 0.000000 
-0.642413 0.024886 0.000000 
-0.760780 -0.814094 0.000000 
-0.205471 0.908090 0.000000 
0.000000 -0.066554 0.000000 
-0.564049 -0.764741 0.000000 
0.000000 0.829823 0.000000 
0.564049 -0.764741 0.000000 
0.866949 0.479914 0.000000 
-0.569003 0.159983 0.000000 
0.000000 0.679271 0.000000 
0.569003 0.159983 0.000000 
-0.866949 0.479914 0.000000 
0.299194 -0.289836 0.000000 
0.858290 -0.581419 0.000000 
-0.577662 -0.004974 0.000000 
0.000000 -0.424352 0.000000 
0.577662 -0.004974 0.000000 
-0.858290 -0.581419 0.000000 
-0.299194 -0.289836 0.000000 
-0.268560 0.940415 0.000000 
0.286830 0.662773 0.000000 
0.844677 -0.718029 0.000000 
-0.578910 0.905808 0.000000 
0.000000 -0.602788 0.000000 
0.578910 0.905808 0.000000 
-0.844677 -0.718029 0.000000 
-0.286830 0.662773 0.000000 
0.268560 0.940415 0.000000 
-0.610485 -0.371855 0.000000 
0.057734 -0.018141 0.000000 
0.714655 0.187026 0.000000 
0.761092 0.897764 0.000000 
0.765897 0.295915 0.000000 
-0.641556 0.554393 0.000000 
-0.677748 -0.659861 0.000000 
0.067979 -0.521658 0.000000 
0.178789 0.135768 0.000000 
-0.514316 0.602003 0.000000 
0.053800 0.874133 0.000000 
-0.028512 -0.308506 0.000000 
0.647393 -0.100980 0.000000 
0.691820 0.629503 0.000000 
-0.522510 0.728047 0.000000 
-0.393446 -0.636223 0.000000 
0.205471 0.908090 0.000000 
0.760780 -0.814094 0.000000 
0.642413 0.024886 0.000000 
-0.714996 0.258343 0.000000 
-0.724017 -0.965253 0.000000 
0.006894 -0.801620 0.000000 
0.083078 -0.099095 0.000000 
0.897068 -0.032242 0.000000 
-0.965681 0.591786 0.000000 
-0.761262 0.942138 0.000000 
0.142083 0.081400 0.000000 
0.397202 0.742676 0.000000 
-0.108942 -0.776485 0.000000 
-0.899809 -0.771634 0.000000 
-0.724964 -0.129385 0.000000 
0.660903 0.331135 0.000000 
-0.978194 -0.977240 0.000000 
0.595936 -0.477374 0.000000 
0.071546 0.379801 0.000000 
0.220880 -0.989274 0.000000 
-0.445811 -0.546488 0.000000 
-0.180633 0.131672 0.000000 
-0.702895 0.623191 0.000000 
-0.287229 -0.677481 0.000000 
-0.685384 -0.176322 0.000000 
-0.957100 -0.468764 0.000000 
-0.820030 0.155308 0.000000 
0.474522 0.582301 0.000000 
0.699407 -0.750420 0.000000 
0.109248 -0.273664 0.000000 
0.441768 0.421787 0.000000 
-0.039645 0.921658 0.000000 
0.417537 -0.375780 0.000000 
0.033296 0.124730 0.000000 
-0.338794 0.392004 0.000000 
-0.374519 0.964967 0.000000 
-0.713312 -0.415604 0.000000 
0.609100 -0.526745 0.000000 
-0.381900 -0.412805 0.000000 
-0.756418 0.129587 0.000000 
0.513962 -0.081899 0.000000 
0.218274 0.642340 0.000000 
-0.423588 0.608236 0.000000 
-0.384386 0.222964 0.000000 
-0.766286 0.737584 0.000000 
0.484677 0.472369 0.000000 
0.139443 -0.889507 0.000000 
-0.556234 0.992924 0.000000 
-0.823577 -0.233571 0.000000 
0.550868 -0.244367 0.000000 
-0.386873 0.858733 0.000000 
-0.771260 -0.640878 0.000000 
0.467428 -0.947406 0.000000 
0.105264 -0.348780 0.000000 
-0.621631 -0.530679 0.000000 
-0.937896 0.172901 0.000000 
0.385608 0.093705 0.000000 
0.141715 0.902933 0.000000 
-0.474677 0.903030 0.000000 
CELL_DATA 175 
SCALARS MASS float 
LOOKUP_TABLE default 
0.078183 
0.086427 
0.094672 
0.086427 
0.088131 
0.092111 
0.085854 
0.092111 
0.088131 
0.088705 
0.091000 
0.086983 
0.091556 
0.086983 
0.091000 
0.088705 
0.089278 
0.091574 
0.089278 
0.092722 
0.089278 
0.092722 
0.089278 
0.091574 
0.089278 
0.078183 
0.086427 
0.094672 
0.086427 
0.088131 
0.092111 
0.085854 
0.092111 
0.088131 
0.088705 
0.091000 
0.086983 
0.091556 
0.086983 
0.091000 
0.088705 
0.089278 
0.091574 
0.089278 
0.092722 
0.089278 
0.092722 
0.089278 
0.091574 
0.089278 
0.078183 
0.086427 
0.094672 
0.086427 
0.088131 
0.092111 
0.085854 
0.092111 
0.088131 
0.088705 
0.091000 
0.086983 
0.091556 
0.086983 
0.091000 
0.088705 
0.089278 
0.091574 
0.089278 
0.092722 
0.089278 
0.092722 
0.089278 
0.091574 
0.089278 
0.078183 
0.086427 
0.094672 
0.086427 
0.088131 
0.092111 
0.085854 
0.092111 
0.088131 
0.088705 
0.091000 
0.086983 
0.091556 
0.086983 
0.091000 
0.088705 
0.089278 
0.091574 
0.089278 
0.092722 
0.089278 
0.092722 
0.089278 
0.091574 
0.089278 
0.078183 
0.086427 
0.094672 
0.086427 
0.088131 
0.092111 
0.085854 
0.092111 
0.088131 
0.088705 
0.091000 
0.086983 
0.091556 
0.086983 
0.091000 
0.088705 
0.089278 
0.091574 
0.089278 
0.092722 
0.089278 
0.092722 
0.089278 
0.091574 
0.089278 
0.078183 
0.086427 
0.094672 
0.086427 
0.088131 
0.092111 
0.085854 
0.092111 
0.088131 
0.088705 
0.091000 
0.086983 
0.091556 
0.086983 
0.091000 
0.088705 
0.089278 
0.091574 
0.089278 
0.092722 
0.089278 
0.092722 
0.089278 
0.091574 
0.089278 
0.078183 
0.086427 
0.094672 
0.086427 
0.088131 
0.092111 
0.085854 
0.092111 
0.088131 
0.088705 
0.091000 
0.086983 
0.091556 
0.086983 
0.091000 
0.088705 
0.089278 
0.091574 
0.089278 
0.092722 
0.089278 
0.092722 
0.089278 
0.091574 
0.089278 
SCALARS MASS float 
LOOKUP_TABLE default 
0.078183 
0.086427 
0.094672 
0.086427 
0.088131 
0.092111 
0.085854 
0.092111 
0.088131 
0.088705 
0.091000 
0.086983 
0.091556 
0.086983 
0.091000 
0.088705 
0.089278 
0.091574 
0.089278 
0.092722 
0.089278 
0.092722 
0.089278 
0.091574 
0.089278 
0.078183 
0.086427 
0.094672 
0.086427 
0.088131 
0.092111 
0.085854 
0.092111 
0.088131 
0.088705 
0.091000 
0.086983 
0.091556 
0.086983 
0.091000 
0.088705 
0.089278 
0.091574 
0.089278 
0.092722 
0.089278 
0.092722 
0.089278 
0.091574 
0.089278 
0.078183 
0.086427 
0.094672 
0.086427 
0.088131 
0.092111 
0.085854 
0.092111 
0.088131 
0.088705 
0.091000 
0.086983 
0.091556 
0.086983 
0.091000 
0.088705 
0.089278 
0.091574 
0.089278 
0.092722 
0.089278 
0.092722 
0.089278 
0.091574 
0.089278 
0.078183 
0.086427 
0.094672 
0.086427 
0.088131 
0.092111 
0.085854 
0.092111 
0.088131 
0.088705 
0.091000 
0.086983 
0.091556 
0.086983 
0.091000 
0.088705 
0.089278 
0.091574 
0.089278 
0.092722 
0.089278 
0.092722 
0.089278 
0.091574 
0.089278 
0.078183 
0.086427 
0.094672 
0.086427 
0.088131 
0.092111 
0.085854 
0.092111 
0.088131 
0.088705 
0.091000 
0.086983 
0.091556 
0.086983 
0.091000 
0.088705 
0.089278 
0.091574 
0.089278 
0.092722 
0.089278 
0.092722 
0.089278 
0.091574 
0.089278 
0.078183 
0.086427 
0.094672 
0.086427 
0.088131 
0.092111 
0.085854 
0.092111 
0.088131 
0.088705 
0.091000 
0.086983 
0.091556 
0.086983 
0.091000 
0.088705 
0.089278 
0.091574 
0.089278 
0.092722 
0.089278 
0.092722 
0.089278 
0.091574 
0.089278 
0.078183 
0.086427 
0.094672 
0.086427 
0.088131 
0.092111 
0.085854 
0.092111 
0.088131 
0.088705 
0.091000 
0.086983 
0.091556 
0.086983 
0.091000 
0.088705 
0.089278 
0.091574 
0.089278 
0.092722 
0.089278 
0.092722 
0.089278 
0.091574 
0.089278 
SCALARS DENSITY float 
LOOKUP_TABLE default 
20.000000 
20.000000 
20.000000 
20.000000 
20.000000 
20.000000 
20.000000 
20.000000 
20.000000 
20.000000 
20.000000 
20.000000 
20.000000 
20.000000 
20.000000 
20.000000 
20.000000 
20.000000 
20.000000 
20.000000 
20.000000 
20.000000 
20.000000 
20.000000 
20.000000 
20.000000 
20.000000 
20.000000 
20.000000 
20.000000 
20.000000 
20.000000 
20.000000 
20.000000 
20.000000 
20.000000 
20.000000 
20.000000 
20.000000 
20.000000 
20.000000 
20.000000 
20.000000 
20.000000 
20.000000 
20.000000 
20.000000 
20.000000 
20.000000 
20.000000 
20.000000 
20.000000 
20.000000 
20.000000 
20.000000 
20.000000 
20.000000 
20.000000 
20.000000 
20.000000 
20.000000 
20.000000 
20.000000 
20.000000 
20.000000 
20.000000 
20.000000 
20.000000 
20.000000 
20.000000 
20.000000 
20.000000 
20.000000 
20.000000 
20.000000 
20.000000 
20.000000 
20.000000 
20.000000 
20.000000 
20.000000 
20.000000 
20.000000 
20.000000 
20.000000 
20.000000 
20.000000 
20.000000 
20.000000 
20.000000 
20.000000 
20.000000 
20.000000 
20.000000 
20.000000 
20.000000 
20.000000 
20.000000 
20.000000 
20.000000 
20.000000 
20.000000 
20.000000 
20.000000 
20.000000 
20.000000 
20.000000 
20.000000 
20.000000 
20.000000 
20.000000 
20.000000 
20.000000 
20.000000 
20.000000 
20.000000 
20.000000 
20.000000 
20.000000 
20.000000 
20.000000 
20.000000 
20.000000 
20.000000 
20.000000 
20.000000 
20.000000 
20.000000 
20.000000 
20.000000 
20.000000 
20.000000 
20.000000 
20.000000 
20.000000 
20.000000 
20.000000 
20.000000 
20.000000 
20.000000 
20.000000 
20.000000 
20.000000 
20.000000 
20.000000 
20.000000 
20.000000 
20.000000 
20.000000 
20.000000 
20.000000 
20.000000 
20.000000 
20.000000 
20.000000 
20.000000 
20.000000 
20.000000 
20.000000 
20.000000 
20.000000 
20.000000 
20.000000 
20.000000 
20.000000 
20.000000 
20.000000 
20.000000 
20.000000 
20.000000 
20.000000 
20.000000 
20.000000 
20.000000 
20.000000 
SCALARS ELEM_i float 
LOOKUP_TABLE default 
167 
194 
167 
168 
195 
195 
195 
168 
168 
222 
195 
196 
195 
196 
169 
169 
223 
223 
223 
196 
196 
196 
196 
169 
170 
167 
193 
194 
194 
220 
193 
221 
194 
194 
220 
220 
221 
221 
221 
221 
222 
247 
247 
248 
248 
248 
248 
249 
222 
222 
166 
193 
193 
193 
192 
192 
192 
193 
220 
191 
192 
219 
219 
219 
220 
220 
191 
218 
218 
218 
218 
219 
246 
246 
247 
166 
165 
166 
165 
138 
165 
165 
165 
192 
137 
137 
164 
164 
164 
191 
191 
137 
137 
136 
164 
163 
164 
190 
191 
191 
166 
139 
139 
139 
112 
139 
138 
138 
138 
112 
112 
111 
111 
111 
138 
137 
85 
84 
84 
111 
110 
110 
110 
110 
137 
167 
140 
140 
139 
140 
140 
113 
139 
112 
114 
113 
113 
113 
113 
112 
112 
114 
114 
87 
86 
86 
86 
86 
85 
85 
167 
168 
167 
140 
168 
168 
141 
141 
141 
169 
169 
142 
141 
142 
141 
114 
170 
169 
142 
142 
142 
142 
115 
115 
115 
VECTORS VELOCITY float 
-0.000000 -6.670800 0.000000 
-0.000000 -6.670800 0.000000 
-0.000000 -6.670800 0.000000 
-0.000000 -6.670800 0.000000 
0.000000 -6.670800 0.000000 
0.000000 -6.670800 0.000000 
0.000000 -6.670800 0.000000 
0.000000 -6.670800 0.000000 
0.000000 -6.670800 0.000000 
0.000000 -6.670800 0.000000 
0.000000 -6.670800 0.000000 
-0.000000 -6.670800 0.000000 
0.000000 -6.670800 0.000000 
0.000000 -6.670800 0.000000 
0.000000 -6.670800 0.000000 
0.000000 -6.670800 0.000000 
-0.000000 -6.670800 0.000000 
-0.000000 -6.670800 0.000000 
0.000000 -6.670800 0.000000 
0.000000 -6.670800 0.000000 
-0.000000 -6.670800 0.000000 
-0.000000 -6.670800 0.000000 
0.000000 -6.670800 0.000000 
-0.000000 -6.670800 0.000000 
-0.000000 -6.670800 0.000000 
-0.000000 -6.670800 0.000000 
-0.000000 -6.670800 0.000000 
-0.000000 -6.670800 0.000000 
-0.000000 -6.670800 0.000000 
-0.000000 -6.670800 0.000000 
0.000000 -6.670800 0.000000 
-0.000000 -6.670800 0.000000 
-0.000000 -6.670800 0.000000 
0.000000 -6.670800 0.000000 
-0.000000 -6.670800 0.000000 
-0.000000 -6.670800 0.000000 
0.000000 -6.670800 0.000000 
0.000000 -6.670800 0.000000 
0.000000 -6.670800 0.000000 
0.000000 -6.670800 0.000000 
0.000000 -6.670800 0.000000 
0.000000 -6.670800 0.000000 
0.000000 -6.670800 0.000000 
-0.000000 -6.670800 0.000000 
0.000000 -6.670800 0.000000 
0.000000 -6.670800 0.000000 
0.000000 -6.670800 0.000000 
0.000000 -6.670800 0.000000 
-0.000000 -6.670800 0.000000 
0.000000 -6.670800 0.000000 
-0.000000 -6.670800 0.000000 
-0.000000 -6.670800 0.000000 
-0.000000 -6.670800 0.000000 
0.000000 -6.670800 0.000000 
0.000000 -6.670800 0.000000 
-0.000000 -6.670800 0.000000 
-0.000000 -6.670800 0.000000 
0.000000 -6.670800 0.000000 
-0.000000 -6.670800 0.000000 
0.000000 -6.670800 0.000000 
0.000000 -6.670800 0.000000 
0.000000 -6.670800 0.000000 
0.000000 -6.670800 0.000000 
-0.000000 -6.670800 0.000000 
0.000000 -6.670800 0.000000 
0.000000 -6.670800 0.000000 
0.000000 -6.670800 0.000000 
-0.000000 -6.670800 0.000000 
0.000000 -6.670800 0.000000 
0.000000 -6.670800 0.000000 
0.000000 -6.670800 0.000000 
-0.000000 -6.670800 0.000000 
-0.000000 -6.670800 0.000000 
0.000000 -6.670800 0.000000 
0.000000 -6.670800 0.000000 
0.000000 -6.670800 0.000000 
-0.000000 -6.670800 0.000000 
-0.000000 -6.670800 0.000000 
-0.000000 -6.670800 0.000000 
-0.000000 -6.670800 0.000000 
-0.000000 -6.670800 0.000000 
0.000000 -6.670800 0.000000 
-0.000000 -6.670800 0.000000 
0.000000 -6.670800 0.000000 
0.000000 -6.670800 0.000000 
-0.000000 -6.670800 0.000000 
0.000000 -6.670800 0.000000 
-0.000000 -6.670800 0.000000 
-0.000000 -6.670800 0.000000 
-0.000000 -6.670800 0.000000 
-0.000000 -6.670800 0.000000 
-0.000000 -6.670800 0.000000 
-0.000000 -6.670800 0.000000 
-0.000000 -6.670800 0.000000 
-0.000000 -6.670800 0.000000 
0.000000 -6.670800 0.000000 
0.000000 -6.670800 0.000000 
0.000000 -6.670800 0.000000 
0.000000 -6.670800 0.000000 
0.000000 -6.670800 0.000000 
-0.000000 -6.670800 0.000000 
0.000000 -6.670800 0.000000 
-0.000000 -6.670800 0.000000 
-0.000000 -6.670800 0.000000 
0.000000 -6.670800 0.000000 
-0.000000 -6.670800 0.000000 
-0.000000 -6.670800 0.000000 
-0.000000 -6.670800 0.000000 
-0.000000 -6.670800 0.000000 
0.000000 -6.670800 0.000000 
-0.000000 -6.670800 0.000000 
-0.000000 -6.670800 0.000000 
-0.000000 -6.670800 0.000000 
-0.000000 -6.670800 0.000000 
-0.000000 -6.670800 0.000000 
-0.000000 -6.670800 0.000000 
0.000000 -6.670800 0.000000 
0.000000 -6.670800 0.000000 
-0.000000 -6.670800 0.000000 
0.000000 -6.670800 0.000000 
0.000000 -6.670800 0.000000 
-0.000000 -6.670800 0.000000 
-0.000000 -6.670800 0.000000 
0.000000 -6.670800 0.000000 
-0.000000 -6.670800 0.000000 
-0.000000 -6.670800 0.000000 
0.000000 -6.670800 0.000000 
-0.000000 -6.670800 0.000000 
-0.000000 -6.670800 0.000000 
-0.000000 -6.670800 0.000000 
-0.000000 -6.670800 0.000000 
-0.000000 -6.670800 0.000000 
0.000000 -6.670800 0.000000 
0.000000 -6.670800 0.000000 
0.000000 -6.670800 0.000000 
-0.000000 -6.670800 0.000000 
-0.000000 -6.670800 0.000000 
-0.000000 -6.670800 0.000000 
0.000000 -6.670800 0.000000 
0.000000 -6.670800 0.000000 
0.000000 -6.670800 0.000000 
0.000000 -6.670800 0.000000 
-0.000000 -6.670800 0.000000 
0.000000 -6.670800 0.000000 
-0.000000 -6.670800 0.000000 
-0.000000 -6.670800 0.000000 
-0.000000 -6.670800 0.000000 
0.000000 -6.670800 0.000000 
0.000000 -6.670800 0.000000 
0.000000 -6.670800 0.000000 
-0.000000 -6.670800 0.000000 
-0.000000 -6.670800 0.000000 
0.000000 -6.670800 0.000000 
0.000000 -6.670800 0.000000 
-0.000000 -6.670800 0.000000 
-0.000000 -6.670800 0.000000 
-0.000000 -6.670800 0.000000 
-0.000000 -6.670800 0.000000 
0.000000 -6.670800 0.000000 
-0.000000 -6.670800 0.000000 
0.000000 -6.670800 0.000000 
-0.000000 -6.670800 0.000000 
-0.000000 -6.670800 0.000000 
-0.000000 -6.670800 0.000000 
0.000000 -6.670800 0.000000 
0.000000 -6.670800 0.000000 
-0.000000 -6.670800 0.000000 
0.000000 -6.670800 0.000000 
-0.000000 -6.670800 0.000000 
-0.000000 -6.670800 0.000000 
-0.000000 -6.670800 0.000000 
-0.000000 -6.670800 0.000000 
0.000000 -6.670800 0.000000 
0.000000 -6.670800 0.000000 
0.000000 -6.670800 0.000000 
TENSORS STRESS float 
-0.000000 -0.000000 0.000000 
0.000000 -0.000000 0.000000 
0.000000 0.000000 0.000000 

0.000000 -0.000000 0.000000 
0.000000 0.000000 0.000000 
0.000000 0.000000 0.000000 

-0.000000 0.000000 0.000000 
0.000000 -0.000000 0.000000 
0.000000 0.000000 0.000000 

-0.000000 0.000000 0.000000 
0.000000 -0.000000 0.000000 
0.000000 0.000000 0.000000 

-0.000000 -0.000000 0.000000 
0.000000 -0.000000 0.000000 
0.000000 0.000000 0.000000 

0.000000 -0.000000 0.000000 
0.000000 0.000000 0.000000 
0.000000 0.000000 0.000000 

0.000000 0.000000 0.000000 
0.000000 0.000000 0.000000 
0.000000 0.000000 0.000000 

-0.000000 -0.000000 0.000000 
0.000000 -0.000000 0.000000 
0.000000 0.000000 0.000000 

-0.000000 0.000000 0.000000 
0.000000 -0.000000 0.000000 
0.000000 0.000000 0.000000 

0.000000 -0.000000 0.000000 
0.000000 0.000000 0.000000 
0.000000 0.000000 0.000000 

-0.000000 -0.000000 0.000000 
0.000000 -0.000000 0.000000 
0.000000 0.000000 0.000000 

0.000000 -0.000000 0.000000 
0.000000 0.000000 0.000000 
0.000000 0.000000 0.000000 

0.000000 -0.000000 0.000000 
0.000000 0.000000 0.000000 
0.000000 0.000000 0.000000 

0.000000 -0.000000 0.000000 
0.000000 0.000000 0.000000 
0.000000 0.000000 0.000000 

0.000000 -0.000000 0.000000 
0.000000 0.000000 0.000000 
0.000000 0.000000 0.000000 

0.000000 -0.000000 0.000000 
0.000000 -0.000000 0.000000 
0.000000 0.000000 0.000000 

-0.000000 -0.000000 0.000000 
0.000000 -0.000000 0.000000 
0.000000 0.000000 0.000000 

-0.000000 -0.000000 0.000000 
0.000000 -0.000000 0.000000 
0.000000 0.000000 0.000000 

-0.000000 -0.000000 0.000000 
0.000000 0.000000 0.000000 
0.000000 0.000000 0.000000 

-0.000000 0.000000 0.000000 
0.000000 -0.000000 0.000000 
0.000000 0.000000 0.000000 

0.000000 -0.000000 0.000000 
0.000000 0.000000 0.000000 
0.000000 0.000000 0.000000 

-0.000000 -0.000000 0.000000 
0.000000 -0.000000 0.000000 
0.000000 0.000000 0.000000 

0.000000 0.000000 0.000000 
0.000000 0.000000 0.000000 
0.000000 0.000000 0.000000 

0.000000 0.000000 0.000000 
0.000000 0.000000 0.000000 
0.000000 0.000000 0.000000 

0.000000 -0.000000 0.000000 
0.000000 0.000000 0.000000 
0.000000 0.000000 0.000000 

-0.000000 0.000000 0.000000 
0.000000 0.000000 0.000000 
0.000000 0.000000 0.000000 

0.000000 -0.000000 0.000000 
0.000000 0.000000 0.000000 
0.000000 0.000000 0.000000 

0.000000 -0.000000 0.000000 
0.000000 0.000000 0.000000 
0.000000 0.000000 0.000000 

0.000000 0.000000 0.000000 
0.000000 0.000000 0.000000 
0.000000 0.000000 0.000000 

-0.000000 0.000000 0.000000 
0.000000 0.000000 0.000000 
0.000000 0.000000 0.000000 

0.000000 0.000000 0.000000 
0.000000 0.000000 0.000000 
0.000000 0.000000 0.000000 

-0.000000 0.000000 0.000000 
0.000000 -0.000000 0.000000 
0.000000 0.000000 0.000000 

-0.000000 0.000000 0.000000 
0.000000 -0.000000 0.000000 
0.000000 0.000000 0.000000 

0.000000 -0.000000 0.000000 
0.000000 0.000000 0.000000 
0.000000 0.000000 0.000000 

-0.000000 0.000000 0.000000 
0.000000 -0.000000 0.000000 
0.000000 0.000000 0.000000 

-0.000000 -0.000000 0.000000 
0.000000 -0.000000 0.000000 
0.000000 0.000000 0.000000 

0.000000 0.000000 0.000000 
0.000000 0.000000 0.000000 
0.000000 0.000000 0.000000 

0.000000 0.000000 0.000000 
0.000000 0.000000 0.000000 
0.000000 0.000000 0.000000 

0.000000 -0.000000 0.000000 
0.000000 0.000000 0.000000 
0.000000 0.000000 0.000000 

0.000000 -0.000000 0.000000 
0.000000 -0.000000 0.000000 
0.000000 0.000000 0.000000 

0.000000 -0.000000 0.000000 
0.000000 0.000000 0.000000 
0.000000 0.000000 0.000000 

-0.000000 -0.000000 0.000000 
0.000000 -0.000000 0.000000 
0.000000 0.000000 0.000000 

0.000000 -0.000000 0.000000 
0.000000 0.000000 0.000000 
0.000000 0.000000 0.000000 

0.000000 -0.000000 0.000000 
0.000000 0.000000 0.000000 
0.000000 0.000000 0.000000 

0.000000 0.000000 0.000000 
0.000000 -0.000000 0.000000 
0.000000 0.000000 0.000000 

0.000000 -0.000000 0.000000 
0.000000 0.000000 0.000000 
0.000000 0.000000 0.000000 

0.000000 0.000000 0.000000 
0.000000 0.000000 0.000000 
0.000000 0.000000 0.000000 

0.000000 -0.000000 0.000000 
0.000000 -0.000000 0.000000 
0.000000 0.000000 0.000000 

-0.000000 -0.000000 0.000000 
0.000000 -0.000000 0.000000 
0.000000 0.000000 0.000000 

-0.000000 -0.000000 0.000000 
0.000000 -0.000000 0.000000 
0.000000 0.000000 0.000000 

-0.000000 0.000000 0.000000 
0.000000 0.000000 0.000000 
0.000000 0.000000 0.000000 

0.000000 -0.000000 0.000000 
0.000000 0.000000 0.000000 
0.000000 0.000000 0.000000 

-0.000000 -0.000000 0.000000 
0.000000 -0.000000 0.000000 
0.000000 0.000000 0.000000 

0.000000 -0.000000 0.000000 
0.000000 -0.000000 0.000000 
0.000000 0.000000 0.000000 

-0.000000 0.000000 0.000000 
0.000000 -0.000000 0.000000 
0.000000 0.000000 0.000000 

-0.000000 -0.000000 0.000000 
0.000000 -0.000000 0.000000 
0.000000 0.000000 0.000000 

-0.000000 0.000000 0.000000 
0.000000 -0.000000 0.000000 
0.000000 0.000000 0.000000 

-0.000000 0.000000 0.000000 
0.000000 0.000000 0.000000 
0.000000 0.000000 0.000000 

0.000000 -0.000000 0.000000 
0.000000 0.000000 0.000000 
0.000000 0.000000 0.000000 

0.000000 0.000000 0.000000 
0.000000 -0.000000 0.000000 
0.000000 0.000000 0.000000 

0.000000 0.000000 0.000000 
0.000000 0.000000 0.000000 
0.000000 0.000000 0.000000 

-0.000000 0.000000 0.000000 
0.000000 0.000000 0.000000 
0.000000 0.000000 0.000000 

0.000000 0.000000 0.000000 
0.000000 0.000000 0.000000 
0.000000 0.000000 0.000000 

-0.000000 -0.000000 0.000000 
0.000000 -0.000000 0.000000 
0.000000 0.000000 0.000000 

0.000000 -0.000000 0.000000 
0.000000 -0.000000 0.000000 
0.000000 0.000000 0.000000 

0.000000 0.000000 0.000000 
0.000000 -0.000000 0.000000 
0.000000 0.000000 0.000000 

0.000000 0.000000 0.000000 
0.000000 -0.000000 0.000000 
0.000000 0.000000 0.000000 

0.000000 -0.000000 0.000000 
0.000000 0.000000 0.000000 
0.000000 0.000000 0.000000 

-0.000000 -0.000000 0.000000 
0.000000 0.000000 0.000000 
0.000000 0.000000 0.000000 

-0.000000 0.000000 0.000000 
0.000000 0.000000 0.000000 
0.000000 0.000000 0.000000 

-0.000000 0.000000 0.000000 
0.000000 -0.000000 0.000000 
0.000000 0.000000 0.000000 

-0.000000 -0.000000 0.000000 
0.000000 -0.000000 0.000000 
0.000000 0.000000 0.000000 

0.000000 0.000000 0.000000 
0.000000 -0.000000 0.000000 
0.000000 0.000000 0.000000 

-0.000000 0.000000 0.000000 
0.000000 0.000000 0.000000 
0.000000 0.000000 0.000000 

-0.000000 0.000000 0.000000 
0.000000 -0.000000 0.000000 
0.000000 0.000000 0.000000 

-0.000000 0.000000 0.000000 
0.000000 -0.000000 0.000000 
0.000000 0.000000 0.000000 

-0.000000 0.000000 0.000000 
0.000000 0.000000 0.000000 
0.000000 0.000000 0.000000 

-0.000000 -0.000000 0.000000 
0.000000 -0.000000 0.000000 
0.000000 0.000000 0.000000 

0.000000 0.000000 0.000000 
0.000000 0.000000 0.000000 
0.000000 0.000000 0.000000 

0.000000 0.000000 0.000000 
0.000000 0.000000 0.000000 
0.000000 0.000000 0.000000 

-0.000000 0.000000 0.000000 
0.000000 -0.000000 0.000000 
0.000000 0.000000 0.000000 

-0.000000 0.000000 0.000000 
0.000000 -0.000000 0.000000 
0.000000 0.000000 0.000000 

-0.000000 0.000000 0.000000 
0.000000 -0.000000 0.000000 
0.000000 0.000000 0.000000 

-0.000000 0.000000 0.000000 
0.000000 -0.000000 0.000000 
0.000000 0.000000 0.000000 

-0.000000 -0.000000 0.000000 
0.000000 -0.000000 0.000000 
0.000000 0.000000 0.000000 

0.000000 -0.000000 0.000000 
0.000000 0.000000 0.000000 
0.000000 0.000000 0.000000 

0.000000 -0.000000 0.000000 
0.000000 0.000000 0.000000 
0.000000 0.000000 0.000000 

-0.000000 -0.000000 0.000000 
0.000000 -0.000000 0.000000 
0.000000 0.000000 0.000000 

0.000000 -0.000000 0.000000 
0.000000 0.000000 0.000000 
0.000000 0.000000 0.000000 

0.000000 0.000000 0.000000 
0.000000 0.000000 0.000000 
0.000000 0.000000 0.000000 

0.000000 0.000000 0.000000 
0.000000 0.000000 0.000000 
0.000000 0.000000 0.000000 

-0.000000 0.000000 0.000000 
0.000000 -0.000000 0.000000 
0.000000 0.000000 0.000000 

0.000000 -0.000000 0.000000 
0.000000 0.000000 0.000000 
0.000000 0.000000 0.000000 

-0.000000 0.000000 0.000000 
0.000000 -0.000000 0.000000 
0.000000 0.000000 0.000000 

0.000000 0.000000 0.000000 
0.000000 0.000000 0.000000 
0.000000 0.000000 0.000000 

0.000000 0.000000 0.000000 
0.000000 -0.000000 0.000000 
0.000000 0.000000 0.000000 

0.000000 0.000000 0.000000 
0.000000 0.000000 0.000000 
0.000000 0.000000 0.000000 

0.000000 -0.000000 0.000000 
0.000000 -0.000000 0.000000 
0.000000 0.000000 0.000000 

0.000000 -0.000000 0.000000 
0.000000 -0.000000 0.000000 
0.000000 0.000000 0.000000 

0.000000 0.000000 0.000000 
0.000000 0.000000 0.000000 
0.000000 0.000000 0.000000 

-0.000000 -0.000000 0.000000 
0.000000 -0.000000 0.000000 
0.000000 0.000000 0.000000 

-0.000000 0.000000 0.000000 
0.000000 -0.000000 0.000000 
0.000000 0.000000 0.000000 

0.000000 0.000000 0.000000 
0.000000 0.000000 0.000000 
0.000000 0.000000 0.000000 

-0.000000 -0.000000 0.000000 
0.000000 -0.000000 0.000000 
0.000000 0.000000 0.000000 

-0.000000 0.000000 0.000000 
0.000000 -0.000000 0.000000 
0.000000 0.000000 0.000000 

-0.000000 -0.000000 0.000000 
0.000000 0.000000 0.000000 
0.000000 0.000000 0.000000 

-0.000000 -0.000000 0.000000 
0.000000 -0.000000 0.000000 
0.000000 0.000000 0.000000 

-0.000000 -0.000000 0.000000 
0.000000 -0.000000 0.000000 
0.000000 0.000000 0.000000 

0.000000 -0.000000 0.000000 
0.000000 0.000000 0.000000 
0.000000 0.000000 0.000000 

-0.000000 -0.000000 0.000000 
0.000000 -0.000000 0.000000 
0.000000 0.000000 0.000000 

0.000000 0.000000 0.000000 
0.000000 0.000000 0.000000 
0.000000 0.000000 0.000000 

-0.000000 -0.000000 0.000000 
0.000000 -0.000000 0.000000 
0.000000 0.000000 0.000000 

-0.000000 0.000000 0.000000 
0.000000 -0.000000 0.000000 
0.000000 0.000000 0.000000 

0.000000 0.000000 0.000000 
0.000000 -0.000000 0.000000 
0.000000 0.000000 0.000000 

0.000000 -0.000000 0.000000 
0.000000 -0.000000 0.000000 
0.000000 0.000000 0.000000 

0.000000 -0.000000 0.000000 
0.000000 0.000000 0.000000 
0.000000 0.000000 0.000000 

-0.000000 -0.000000 0.000000 
0.000000 -0.000000 0.000000 
0.000000 0.000000 0.000000 

0.000000 0.000000 0.000000 
0.000000 -0.000000 0.000000 
0.000000 0.000000 0.000000 

0.000000 0.000000 0.000000 
0.000000 0.000000 0.000000 
0.000000 0.000000 0.000000 

0.000000 -0.000000 0.000000 
0.000000 0.000000 0.000000 
0.000000 0.000000 0.000000 

0.000000 0.000000 0.000000 
0.000000 0.000000 0.000000 
0.000000 0.000000 0.000000 

0.000000 -0.000000 0.000000 
0.000000 0.000000 0.000000 
0.000000 0.000000 0.000000 

0.000000 -0.000000 0.000000 
0.000000 -0.000000 0.000000 
0.000000 0.000000 0.000000 

0.000000 0.000000 0.000000 
0.000000 0.000000 0.000000 
0.000000 0.000000 0.000000 

0.000000 0.000000 0.000000 
0.000000 0.000000 0.000000 
0.000000 0.000000 0.000000 

-0.000000 -0.000000 0.000000 
0.000000 -0.000000 0.000000 
0.000000 0.000000 0.000000 

0.000000 0.000000 0.000000 
0.000000 0.000000 0.000000 
0.000000 0.000000 0.000000 

0.000000 0.000000 0.000000 
0.000000 0.000000 0.000000 
0.000000 0.000000 0.000000 

-0.000000 -0.000000 0.000000 
0.000000 0.000000 0.000000 
0.000000 0.000000 0.000000 

-0.000000 0.000000 0.000000 
0.000000 -0.000000 0.000000 
0.000000 0.000000 0.000000 

0.000000 0.000000 0.000000 
0.000000 0.000000 0.000000 
0.000000 0.000000 0.000000 

0.000000 -0.000000 0.000000 
0.000000 0.000000 0.000000 
0.000000 0.000000 0.000000 

-0.000000 -0.000000 0.000000 
0.000000 -0.000000 0.000000 
0.000000 0.000000 0.000000 

0.000000 0.000000 0.000000 
0.000000 -0.000000 0.000000 
0.000000 0.000000 0.000000 

0.000000 0.000000 0.000000 
0.000000 0.000000 0.000000 
0.000000 0.000000 0.000000 

0.000000 0.000000 0.000000 
0.000000 0.000000 0.000000 
0.000000 0.000000 0.000000 

0.000000 0.000000 0.000000 
0.000000 0.000000 0.000000 
0.000000 0.000000 0.000000 

0.000000 0.000000 0.000000 
0.000000 0.000000 0.000000 
0.000000 0.000000 0.000000 

0.000000 0.000000 0.000000 
0.000000 0.000000 0.000000 
0.000000 0.000000 0.000000 

0.000000 -0.000000 0.000000 
0.000000 0.000000 0.000000 
0.000000 0.000000 0.000000 

-0.000000 0.000000 0.000000 
0.000000 -0.000000 0.000000 
0.000000 0.000000 0.000000 

-0.000000 -0.000000 0.000000 
0.000000 -0.000000 0.000000 
0.000000 0.000000 0.000000 

0.000000 0.000000 0.000000 
0.000000 0.000000 0.000000 
0.000000 0.000000 0.000000 

0.000000 0.000000 0.000000 
0.000000 -0.000000 0.000000 
0.000000 0.000000 0.000000 

-0.000000 0.000000 0.000000 
0.000000 -0.000000 0.000000 
0.000000 0.000000 0.000000 

-0.000000 0.000000 0.000000 
0.000000 0.000000 0.000000 
0.000000 0.000000 0.000000 

-0.000000 0.000000 0.000000 
0.000000 -0.000000 0.000000 
0.000000 0.000000 0.000000 

0.000000 -0.000000 0.000000 
0.000000 0.000000 0.000000 
0.000000 0.000000 0.000000 

-0.000000 -0.000000 0.000000 
0.000000 -0.000000 0.000000 
0.000000 0.000000 0.000000 

0.000000 0.000000 0.000000 
0.000000 0.000000 0.000000 
0.000000 0.000000 0.000000 

-0.000000 -0.000000 0.000000 
0.000000 0.000000 0.000000 
0.000000 0.000000 0.000000 

0.000000 0.000000 0.000000 
0.000000 0.000000 0.000000 
0.000000 0.000000 0.000000 

-0.000000 0.000000 0.000000 
0.000000 0.000000 0.000000 
0.000000 0.000000 0.000000 

-0.000000 0.000000 0.000000 
0.000000 0.000000 0.000000 
0.000000 0.000000 0.000000 

-0.000000 0.000000 0.000000 
0.000000 -0.000000 0.000000 
0.000000 0.000000 0.000000 

-0.000000 0.000000 0.000000 
0.000000 -0.000000 0.000000 
0.000000 0.000000 0.000000 

0.000000 0.000000 0.000000 
0.000000 0.000000 0.000000 
0.000000 0.000000 0.000000 

-0.000000 0.000000 0.000000 
0.000000 -0.000000 0.000000 
0.000000 0.000000 0.000000 

0.000000 0.000000 0.000000 
0.000000 0.000000 0.000000 
0.000000 0.000000 0.000000 

0.000000 -0.000000 0.000000 
0.000000 0.000000 0.000000 
0.000000 0.000000 0.000000 

0.000000 -0.000000 0.000000 
0.000000 0.000000 0.000000 
0.000000 0.000000 0.000000 

-0.000000 -0.000000 0.000000 
0.000000 0.000000 0.000000 
0.000000 0.000000 0.000000 

-0.000000 0.000000 0.000000 
0.000000 -0.000000 0.000000 
0.000000 0.000000 0.000000 

-0.000000 -0.000000 0.000000 
0.000000 -0.000000 0.000000 
0.000000 0.000000 0.000000 

0.000000 -0.000000 0.000000 
0.000000 0.000000 0.000000 
0.000000 0.000000 0.000000 

-0.000000 -0.000000 0.000000 
0.000000 -0.000000 0.000000 
0.000000 0.000000 0.000000 

0.000000 0.000000 0.000000 
0.000000 0.000000 0.000000 
0.000000 0.000000 0.000000 

0.000000 -0.000000 0.000000 
0.000000 -0.000000 0.000000 
0.000000 0.000000 0.000000 

-0.000000 0.000000 0.000000 
0.000000 -0.000000 0.000000 
0.000000 0.000000 0.000000 

0.000000 0.000000 0.000000 
0.000000 0.000000 0.000000 
0.000000 0.000000 0.000000 

0.000000 -0.000000 0.000000 
0.000000 0.000000 0.000000 
0.000000 0.000000 0.000000 

-0.000000 0.000000 0.000000 
0.000000 -0.000000 0.000000 
0.000000 0.000000 0.000000 

0.000000 0.000000 0.000000 
0.000000 0.000000 0.000000 
0.000000 0.000000 0.000000 

-0.000000 -0.000000 0.000000 
0.000000 -0.000000 0.000000 
0.000000 0.000000 0.000000 

-0.000000 -0.000000 0.000000 
0.000000 0.000000 0.000000 
0.000000 0.000000 0.000000 

TENSORS STRAIN float 
-0.000000 -0.000000 0.000000 
0.000000 0.000000 0.000000 
0.000000 0.000000 0.000000 

-0.000000 -0.000000 0.000000 
0.000000 0.000000 0.000000 
0.000000 0.000000 0.000000 

-0.000000 0.000000 0.000000 
0.000000 -0.000000 0.000000 
0.000000 0.000000 0.000000 

-0.000000 0.000000 0.000000 
0.000000 -0.000000 0.000000 
0.000000 0.000000 0.000000 

0.000000 -0.000000 0.000000 
0.000000 -0.000000 0.000000 
0.000000 0.000000 0.000000 

0.000000 -0.000000 0.000000 
0.000000 0.000000 0.000000 
0.000000 0.000000 0.000000 

-0.000000 0.000000 0.000000 
0.000000 0.000000 0.000000 
0.000000 0.000000 0.000000 

0.000000 -0.000000 0.000000 
0.000000 -0.000000 0.000000 
0.000000 0.000000 0.000000 

0.000000 0.000000 0.000000 
0.000000 -0.000000 0.000000 
0.000000 0.000000 0.000000 

0.000000 -0.000000 0.000000 
0.000000 -0.000000 0.000000 
0.000000 0.000000 0.000000 

0.000000 -0.000000 0.000000 
0.000000 -0.000000 0.000000 
0.000000 0.000000 0.000000 

-0.000000 -0.000000 0.000000 
0.000000 0.000000 0.000000 
0.000000 0.000000 0.000000 

0.000000 -0.000000 0.000000 
0.000000 0.000000 0.000000 
0.000000 0.000000 0.000000 

-0.000000 -0.000000 0.000000 
0.000000 0.000000 0.000000 
0.000000 0.000000 0.000000 

0.000000 -0.000000 0.000000 
0.000000 0.000000 0.000000 
0.000000 0.000000 0.000000 

0.000000 -0.000000 0.000000 
0.000000 -0.000000 0.000000 
0.000000 0.000000 0.000000 

-0.000000 -0.000000 0.000000 
0.000000 -0.000000 0.000000 
0.000000 0.000000 0.000000 

-0.000000 -0.000000 0.000000 
0.000000 -0.000000 0.000000 
0.000000 0.000000 0.000000 

-0.000000 -0.000000 0.000000 
0.000000 0.000000 0.000000 
0.000000 0.000000 0.000000 

-0.000000 0.000000 0.000000 
0.000000 -0.000000 0.000000 
0.000000 0.000000 0.000000 

-0.000000 -0.000000 0.000000 
0.000000 0.000000 0.000000 
0.000000 0.000000 0.000000 

-0.000000 -0.000000 0.000000 
0.000000 -0.000000 0.000000 
0.000000 0.000000 0.000000 

0.000000 0.000000 0.000000 
0.000000 0.000000 0.000000 
0.000000 0.000000 0.000000 

0.000000 0.000000 0.000000 
0.000000 0.000000 0.000000 
0.000000 0.000000 0.000000 

0.000000 -0.000000 0.000000 
0.000000 0.000000 0.000000 
0.000000 0.000000 0.000000 

-0.000000 0.000000 0.000000 
0.000000 0.000000 0.000000 
0.000000 0.000000 0.000000 

0.000000 -0.000000 0.000000 
0.000000 0.000000 0.000000 
0.000000 0.000000 0.000000 

0.000000 -0.000000 0.000000 
0.000000 -0.000000 0.000000 
0.000000 0.000000 0.000000 

0.000000 0.000000 0.000000 
0.000000 0.000000 0.000000 
0.000000 0.000000 0.000000 

-0.000000 0.000000 0.000000 
0.000000 0.000000 0.000000 
0.000000 0.000000 0.000000 

0.000000 0.000000 0.000000 
0.000000 -0.000000 0.000000 
0.000000 0.000000 0.000000 

0.000000 0.000000 0.000000 
0.000000 -0.000000 0.000000 
0.000000 0.000000 0.000000 

-0.000000 0.000000 0.000000 
0.000000 -0.000000 0.000000 
0.000000 0.000000 0.000000 

-0.000000 -0.000000 0.000000 
0.000000 0.000000 0.000000 
0.000000 0.000000 0.000000 

-0.000000 0.000000 0.000000 
0.000000 -0.000000 0.000000 
0.000000 0.000000 0.000000 

-0.000000 -0.000000 0.000000 
0.000000 -0.000000 0.000000 
0.000000 0.000000 0.000000 

0.000000 0.000000 0.000000 
0.000000 0.000000 0.000000 
0.000000 0.000000 0.000000 

0.000000 0.000000 0.000000 
0.000000 0.000000 0.000000 
0.000000 0.000000 0.000000 

0.000000 -0.000000 0.000000 
0.000000 -0.000000 0.000000 
0.000000 0.000000 0.000000 

0.000000 -0.000000 0.000000 
0.000000 -0.000000 0.000000 
0.000000 0.000000 0.000000 

0.000000 -0.000000 0.000000 
0.000000 0.000000 0.000000 
0.000000 0.000000 0.000000 

-0.000000 -0.000000 0.000000 
0.000000 -0.000000 0.000000 
0.000000 0.000000 0.000000 

0.000000 -0.000000 0.000000 
0.000000 0.000000 0.000000 
0.000000 0.000000 0.000000 

0.000000 -0.000000 0.000000 
0.000000 -0.000000 0.000000 
0.000000 0.000000 0.000000 

0.000000 0.000000 0.000000 
0.000000 -0.000000 0.000000 
0.000000 0.000000 0.000000 

0.000000 -0.000000 0.000000 
0.000000 0.000000 0.000000 
0.000000 0.000000 0.000000 

0.000000 0.000000 0.000000 
0.000000 0.000000 0.000000 
0.000000 0.000000 0.000000 

0.000000 -0.000000 0.000000 
0.000000 -0.000000 0.000000 
0.000000 0.000000 0.000000 

0.000000 -0.000000 0.000000 
0.000000 -0.000000 0.000000 
0.000000 0.000000 0.000000 

-0.000000 -0.000000 0.000000 
0.000000 -0.000000 0.000000 
0.000000 0.000000 0.000000 

-0.000000 0.000000 0.000000 
0.000000 0.000000 0.000000 
0.000000 0.000000 0.000000 

-0.000000 -0.000000 0.000000 
0.000000 0.000000 0.000000 
0.000000 0.000000 0.000000 

-0.000000 -0.000000 0.000000 
0.000000 -0.000000 0.000000 
0.000000 0.000000 0.000000 

0.000000 -0.000000 0.000000 
0.000000 -0.000000 0.000000 
0.000000 0.000000 0.000000 

-0.000000 0.000000 0.000000 
0.000000 -0.000000 0.000000 
0.000000 0.000000 0.000000 

-0.000000 -0.000000 0.000000 
0.000000 -0.000000 0.000000 
0.000000 0.000000 0.000000 

-0.000000 0.000000 0.000000 
0.000000 -0.000000 0.000000 
0.000000 0.000000 0.000000 

-0.000000 0.000000 0.000000 
0.000000 0.000000 0.000000 
0.000000 0.000000 0.000000 

0.000000 -0.000000 0.000000 
0.000000 0.000000 0.000000 
0.000000 0.000000 0.000000 

0.000000 0.000000 0.000000 
0.000000 -0.000000 0.000000 
0.000000 0.000000 0.000000 

0.000000 0.000000 0.000000 
0.000000 0.000000 0.000000 
0.000000 0.000000 0.000000 

-0.000000 0.000000 0.000000 
0.000000 0.000000 0.000000 
0.000000 0.000000 0.000000 

-0.000000 0.000000 0.000000 
0.000000 0.000000 0.000000 
0.000000 0.000000 0.000000 

0.000000 -0.000000 0.000000 
0.000000 -0.000000 0.000000 
0.000000 0.000000 0.000000 

0.000000 -0.000000 0.000000 
0.000000 -0.000000 0.000000 
0.000000 0.000000 0.000000 

0.000000 0.000000 0.000000 
0.000000 -0.000000 0.000000 
0.000000 0.000000 0.000000 

0.000000 0.000000 0.000000 
0.000000 -0.000000 0.000000 
0.000000 0.000000 0.000000 

-0.000000 -0.000000 0.000000 
0.000000 0.000000 0.000000 
0.000000 0.000000 0.000000 

-0.000000 -0.000000 0.000000 
0.000000 0.000000 0.000000 
0.000000 0.000000 0.000000 

-0.000000 0.000000 0.000000 
0.000000 0.000000 0.000000 
0.000000 0.000000 0.000000 

-0.000000 0.000000 0.000000 
0.000000 0.000000 0.000000 
0.000000 0.000000 0.000000 

-0.000000 -0.000000 0.000000 
0.000000 -0.000000 0.000000 
0.000000 0.000000 0.000000 

0.000000 0.000000 0.000000 
0.000000 -0.000000 0.000000 
0.000000 0.000000 0.000000 

-0.000000 0.000000 0.000000 
0.000000 0.000000 0.000000 
0.000000 0.000000 0.000000 

-0.000000 0.000000 0.000000 
0.000000 0.000000 0.000000 
0.000000 0.000000 0.000000 

-0.000000 0.000000 0.000000 
0.000000 -0.000000 0.000000 
0.000000 0.000000 0.000000 

-0.000000 0.000000 0.000000 
0.000000 0.000000 0.000000 
0.000000 0.000000 0.000000 

-0.000000 -0.000000 0.000000 
0.000000 -0.000000 0.000000 
0.000000 0.000000 0.000000 

-0.000000 0.000000 0.000000 
0.000000 0.000000 0.000000 
0.000000 0.000000 0.000000 

-0.000000 0.000000 0.000000 
0.000000 0.000000 0.000000 
0.000000 0.000000 0.000000 

-0.000000 0.000000 0.000000 
0.000000 -0.000000 0.000000 
0.000000 0.000000 0.000000 

-0.000000 0.000000 0.000000 
0.000000 -0.000000 0.000000 
0.000000 0.000000 0.000000 

-0.000000 0.000000 0.000000 
0.000000 -0.000000 0.000000 
0.000000 0.000000 0.000000 

-0.000000 0.000000 0.000000 
0.000000 -0.000000 0.000000 
0.000000 0.000000 0.000000 

-0.000000 -0.000000 0.000000 
0.000000 -0.000000 0.000000 
0.000000 0.000000 0.000000 

0.000000 -0.000000 0.000000 
0.000000 0.000000 0.000000 
0.000000 0.000000 0.000000 

0.000000 -0.000000 0.000000 
0.000000 0.000000 0.000000 
0.000000 0.000000 0.000000 

-0.000000 -0.000000 0.000000 
0.000000 -0.000000 0.000000 
0.000000 0.000000 0.000000 

0.000000 -0.000000 0.000000 
0.000000 0.000000 0.000000 
0.000000 0.000000 0.000000 

0.000000 0.000000 0.000000 
0.000000 0.000000 0.000000 
0.000000 0.000000 0.000000 

0.000000 0.000000 0.000000 
0.000000 0.000000 0.000000 
0.000000 0.000000 0.000000 

-0.000000 0.000000 0.000000 
0.000000 -0.000000 0.000000 
0.000000 0.000000 0.000000 

-0.000000 -0.000000 0.000000 
0.000000 0.000000 0.000000 
0.000000 0.000000 0.000000 

-0.000000 0.000000 0.000000 
0.000000 -0.000000 0.000000 
0.000000 0.000000 0.000000 

0.000000 0.000000 0.000000 
0.000000 0.000000 0.000000 
0.000000 0.000000 0.000000 

0.000000 0.000000 0.000000 
0.000000 -0.000000 0.000000 
0.000000 0.000000 0.000000 

0.000000 0.000000 0.000000 
0.000000 0.000000 0.000000 
0.000000 0.000000 0.000000 

0.000000 -0.000000 0.000000 
0.000000 -0.000000 0.000000 
0.000000 0.000000 0.000000 

0.000000 -0.000000 0.000000 
0.000000 -0.000000 0.000000 
0.000000 0.000000 0.000000 

0.000000 0.000000 0.000000 
0.000000 0.000000 0.000000 
0.000000 0.000000 0.000000 

-0.000000 -0.000000 0.000000 
0.000000 -0.000000 0.000000 
0.000000 0.000000 0.000000 

-0.000000 0.000000 0.000000 
0.000000 0.000000 0.000000 
0.000000 0.000000 0.000000 

-0.000000 0.000000 0.000000 
0.000000 0.000000 0.000000 
0.000000 0.000000 0.000000 

-0.000000 -0.000000 0.000000 
0.000000 0.000000 0.000000 
0.000000 0.000000 0.000000 

0.000000 0.000000 0.000000 
0.000000 -0.000000 0.000000 
0.000000 0.000000 0.000000 

-0.000000 -0.000000 0.000000 
0.000000 0.000000 0.000000 
0.000000 0.000000 0.000000 

-0.000000 -0.000000 0.000000 
0.000000 -0.000000 0.000000 
0.000000 0.000000 0.000000 

-0.000000 -0.000000 0.000000 
0.000000 -0.000000 0.000000 
0.000000 0.000000 0.000000 

0.000000 -0.000000 0.000000 
0.000000 0.000000 0.000000 
0.000000 0.000000 0.000000 

0.000000 -0.000000 0.000000 
0.000000 -0.000000 0.000000 
0.000000 0.000000 0.000000 

-0.000000 0.000000 0.000000 
0.000000 0.000000 0.000000 
0.000000 0.000000 0.000000 

-0.000000 -0.000000 0.000000 
0.000000 -0.000000 0.000000 
0.000000 0.000000 0.000000 

-0.000000 0.000000 0.000000 
0.000000 -0.000000 0.000000 
0.000000 0.000000 0.000000 

0.000000 0.000000 0.000000 
0.000000 -0.000000 0.000000 
0.000000 0.000000 0.000000 

0.000000 -0.000000 0.000000 
0.000000 -0.000000 0.000000 
0.000000 0.000000 0.000000 

0.000000 -0.000000 0.000000 
0.000000 0.000000 0.000000 
0.000000 0.000000 0.000000 

0.000000 -0.000000 0.000000 
0.000000 -0.000000 0.000000 
0.000000 0.000000 0.000000 

0.000000 0.000000 0.000000 
0.000000 -0.000000 0.000000 
0.000000 0.000000 0.000000 

0.000000 0.000000 0.000000 
0.000000 0.000000 0.000000 
0.000000 0.000000 0.000000 

-0.000000 -0.000000 0.000000 
0.000000 0.000000 0.000000 
0.000000 0.000000 0.000000 

0.000000 0.000000 0.000000 
0.000000 0.000000 0.000000 
0.000000 0.000000 0.000000 

0.000000 -0.000000 0.000000 
0.000000 0.000000 0.000000 
0.000000 0.000000 0.000000 

0.000000 -0.000000 0.000000 
0.000000 -0.000000 0.000000 
0.000000 0.000000 0.000000 

0.000000 0.000000 0.000000 
0.000000 0.000000 0.000000 
0.000000 0.000000 0.000000 

-0.000000 0.000000 0.000000 
0.000000 0.000000 0.000000 
0.000000 0.000000 0.000000 

-0.000000 -0.000000 0.000000 
0.000000 0.000000 0.000000 
0.000000 0.000000 0.000000 

0.000000 0.000000 0.000000 
0.000000 0.000000 0.000000 
0.000000 0.000000 0.000000 

0.000000 0.000000 0.000000 
0.000000 0.000000 0.000000 
0.000000 0.000000 0.000000 

-0.000000 -0.000000 0.000000 
0.000000 0.000000 0.000000 
0.000000 0.000000 0.000000 

-0.000000 0.000000 0.000000 
0.000000 -0.000000 0.000000 
0.000000 0.000000 0.000000 

-0.000000 0.000000 0.000000 
0.000000 0.000000 0.000000 
0.000000 0.000000 0.000000 

-0.000000 -0.000000 0.000000 
0.000000 0.000000 0.000000 
0.000000 0.000000 0.000000 

-0.000000 -0.000000 0.000000 
0.000000 0.000000 0.000000 
0.000000 0.000000 0.000000 

0.000000 0.000000 0.000000 
0.000000 -0.000000 0.000000 
0.000000 0.000000 0.000000 

0.000000 0.000000 0.000000 
0.000000 0.000000 0.000000 
0.000000 0.000000 0.000000 

0.000000 0.000000 0.000000 
0.000000 0.000000 0.000000 
0.000000 0.000000 0.000000 

0.000000 0.000000 0.000000 
0.000000 0.000000 0.000000 
0.000000 0.000000 0.000000 

0.000000 0.000000 0.000000 
0.000000 0.000000 0.000000 
0.000000 0.000000 0.000000 

-0.000000 0.000000 0.000000 
0.000000 0.000000 0.000000 
0.000000 0.000000 0.000000 

0.000000 -0.000000 0.000000 
0.000000 0.000000 0.000000 
0.000000 0.000000 0.000000 

0.000000 0.000000 0.000000 
0.000000 -0.000000 0.000000 
0.000000 0.000000 0.000000 

-0.000000 -0.000000 0.000000 
0.000000 -0.000000 0.000000 
0.000000 0.000000 0.000000 

0.000000 0.000000 0.000000 
0.000000 0.000000 0.000000 
0.000000 0.000000 0.000000 

0.000000 0.000000 0.000000 
0.000000 -0.000000 0.000000 
0.000000 0.000000 0.000000 

-0.000000 0.000000 0.000000 
0.000000 -0.000000 0.000000 
0.000000 0.000000 0.000000 

-0.000000 0.000000 0.000000 
0.000000 0.000000 0.000000 
0.000000 0.000000 0.000000 

-0.000000 0.000000 0.000000 
0.000000 -0.000000 0.000000 
0.000000 0.000000 0.000000 

-0.000000 -0.000000 0.000000 
0.000000 0.000000 0.000000 
0.000000 0.000000 0.000000 

-0.000000 -0.000000 0.000000 
0.000000 -0.000000 0.000000 
0.000000 0.000000 0.000000 

0.000000 0.000000 0.000000 
0.000000 0.000000 0.000000 
0.000000 0.000000 0.000000 

-0.000000 -0.000000 0.000000 
0.000000 0.000000 0.000000 
0.000000 0.000000 0.000000 

-0.000000 0.000000 0.000000 
0.000000 0.000000 0.000000 
0.000000 0.000000 0.000000 

-0.000000 0.000000 0.000000 
0.000000 0.000000 0.000000 
0.000000 0.000000 0.000000 

-0.000000 0.000000 0.000000 
0.000000 0.000000 0.000000 
0.000000 0.000000 0.000000 

0.000000 0.000000 0.000000 
0.000000 -0.000000 0.000000 
0.000000 0.000000 0.000000 

0.000000 0.000000 0.000000 
0.000000 -0.000000 0.000000 
0.000000 0.000000 0.000000 

0.000000 0.000000 0.000000 
0.000000 0.000000 0.000000 
0.000000 0.000000 0.000000 

-0.000000 0.000000 0.000000 
0.000000 -0.000000 0.000000 
0.000000 0.000000 0.000000 

-0.000000 0.000000 0.000000 
0.000000 0.000000 0.000000 
0.000000 0.000000 0.000000 

0.000000 -0.000000 0.000000 
0.000000 -0.000000 0.000000 
0.000000 0.000000 0.000000 

0.000000 -0.000000 0.000000 
0.000000 0.000000 0.000000 
0.000000 0.000000 0.000000 

-0.000000 -0.000000 0.000000 
0.000000 0.000000 0.000000 
0.000000 0.000000 0.000000 

0.000000 0.000000 0.000000 
0.000000 -0.000000 0.000000 
0.000000 0.000000 0.000000 

0.000000 -0.000000 0.000000 
0.000000 -0.000000 0.000000 
0.000000 0.000000 0.000000 

-0.000000 -0.000000 0.000000 
0.000000 0.000000 0.000000 
0.000000 0.000000 0.000000 

-0.000000 -0.000000 0.000000 
0.000000 -0.000000 0.000000 
0.000000 0.000000 0.000000 

0.000000 0.000000 0.000000 
0.000000 0.000000 0.000000 
0.000000 0.000000 0.000000 

0.000000 -0.000000 0.000000 
0.000000 -0.000000 0.000000 
0.000000 0.000000 0.000000 

-0.000000 0.000000 0.000000 
0.000000 -0.000000 0.000000 
0.000000 0.000000 0.000000 

-0.000000 0.000000 0.000000 
0.000000 0.000000 0.000000 
0.000000 0.000000 0.000000 

-0.000000 -0.000000 0.000000 
0.000000 0.000000 0.000000 
0.000000 0.000000 0.000000 

-0.000000 0.000000 0.000000 
0.000000 -0.000000 0.000000 
0.000000 0.000000 0.000000 

0.000000 0.000000 0.000000 
0.000000 0.000000 0.000000 
0.000000 0.000000 0.000000 

-0.000000 -0.000000 0.000000 
0.000000 -0.000000 0.000000 
0.000000 0.000000 0.000000 

-0.000000 -0.000000 0.000000 
0.000000 0.000000 0.000000 
0.000000 0.000000 0.000000 

