# vtk DataFile Version 3.0 
vtk output 
ASCII 
DATASET UNSTRUCTURED_GRID 
POINTS 175 float 
-0.026061 -0.725513 0.000000 
-0.106992 -0.657457 0.000000 
-0.054870 -0.665690 0.000000 
-0.028809 -0.619806 0.000000 
-0.186430 -0.593382 0.000000 
-0.137056 -0.595908 0.000000 
-0.114311 -0.542260 0.000000 
-0.058186 -0.557926 0.000000 
-0.029377 -0.517749 0.000000 
-0.265318 -0.530226 0.000000 
-0.217198 -0.531025 0.000000 
-0.196633 -0.473729 0.000000 
-0.143120 -0.482438 0.000000 
-0.116563 -0.435169 0.000000 
-0.058945 -0.454815 0.000000 
-0.029568 -0.416695 0.000000 
-0.344206 -0.467070 0.000000 
-0.296791 -0.467063 0.000000 
-0.278030 -0.407120 0.000000 
-0.225992 -0.412986 0.000000 
-0.201664 -0.360869 0.000000 
-0.145749 -0.374343 0.000000 
-0.117890 -0.330001 0.000000 
-0.059328 -0.352706 0.000000 
-0.029759 -0.315641 0.000000 
-0.058559 -0.766263 0.000000 
-0.162226 -0.787106 0.000000 
-0.123292 -0.751488 0.000000 
-0.142917 -0.702505 0.000000 
-0.261851 -0.809262 0.000000 
-0.229092 -0.772235 0.000000 
-0.256854 -0.721004 0.000000 
-0.209613 -0.686891 0.000000 
-0.223062 -0.639317 0.000000 
-0.360414 -0.831562 0.000000 
-0.329787 -0.794440 0.000000 
-0.361761 -0.742637 0.000000 
-0.321587 -0.706229 0.000000 
-0.341985 -0.655995 0.000000 
-0.290702 -0.623196 0.000000 
-0.302189 -0.576460 0.000000 
-0.458977 -0.853863 0.000000 
-0.429420 -0.816788 0.000000 
-0.464588 -0.764746 0.000000 
-0.427556 -0.727719 0.000000 
-0.453135 -0.676204 0.000000 
-0.407738 -0.640889 0.000000 
-0.425037 -0.591460 0.000000 
-0.370772 -0.559831 0.000000 
-0.381315 -0.513604 0.000000 
-0.046960 -0.817079 0.000000 
-0.095301 -0.911124 0.000000 
-0.098873 -0.858477 0.000000 
-0.149405 -0.843280 0.000000 
-0.140093 -1.002828 0.000000 
-0.148617 -0.954130 0.000000 
-0.205981 -0.943893 0.000000 
-0.203197 -0.885690 0.000000 
-0.248777 -0.866543 0.000000 
-0.184111 -1.093792 0.000000 
-0.194039 -1.046701 0.000000 
-0.254475 -1.039401 0.000000 
-0.257893 -0.985292 0.000000 
-0.309886 -0.969919 0.000000 
-0.303554 -0.909374 0.000000 
-0.347255 -0.889216 0.000000 
-0.228129 -1.184756 0.000000 
-0.238687 -1.138531 0.000000 
-0.301302 -1.133579 0.000000 
-0.307162 -1.081540 0.000000 
-0.363386 -1.069419 0.000000 
-0.362692 -1.011908 0.000000 
-0.412122 -0.994615 0.000000 
-0.403017 -0.932468 0.000000 
-0.445733 -0.911889 0.000000 
-0.000000 -0.839693 0.000000 
0.043388 -0.936124 0.000000 
-0.000000 -0.906092 0.000000 
-0.043388 -0.936124 0.000000 
0.087158 -1.028321 0.000000 
0.043769 -1.004622 0.000000 
-0.000000 -1.043088 0.000000 
-0.043769 -1.004622 0.000000 
-0.087158 -1.028321 0.000000 
0.130831 -1.119450 0.000000 
0.087824 -1.097852 0.000000 
0.044436 -1.140551 0.000000 
-0.000000 -1.109486 0.000000 
-0.044436 -1.140551 0.000000 
-0.087824 -1.097852 0.000000 
-0.130831 -1.119450 0.000000 
0.174505 -1.210580 0.000000 
0.131782 -1.190014 0.000000 
0.088871 -1.235880 0.000000 
0.044532 -1.208017 0.000000 
-0.000000 -1.244417 0.000000 
-0.044532 -1.208017 0.000000 
-0.088871 -1.235880 0.000000 
-0.131782 -1.190014 0.000000 
-0.174505 -1.210580 0.000000 
0.046960 -0.817079 0.000000 
0.149405 -0.843280 0.000000 
0.098873 -0.858477 0.000000 
0.095301 -0.911124 0.000000 
0.248777 -0.866543 0.000000 
0.203197 -0.885690 0.000000 
0.205981 -0.943893 0.000000 
0.148617 -0.954130 0.000000 
0.140093 -1.002828 0.000000 
0.347255 -0.889216 0.000000 
0.303554 -0.909374 0.000000 
0.309886 -0.969919 0.000000 
0.257893 -0.985292 0.000000 
0.254475 -1.039401 0.000000 
0.194039 -1.046701 0.000000 
0.184111 -1.093792 0.000000 
0.445733 -0.911889 0.000000 
0.403017 -0.932468 0.000000 
0.412122 -0.994615 0.000000 
0.362692 -1.011908 0.000000 
0.363386 -1.069419 0.000000 
0.307162 -1.081540 0.000000 
0.301302 -1.133579 0.000000 
0.238687 -1.138531 0.000000 
0.228129 -1.184756 0.000000 
0.058559 -0.766263 0.000000 
0.142917 -0.702505 0.000000 
0.123292 -0.751488 0.000000 
0.162226 -0.787106 0.000000 
0.223062 -0.639317 0.000000 
0.209613 -0.686891 0.000000 
0.256854 -0.721004 0.000000 
0.229092 -0.772235 0.000000 
0.261851 -0.809262 0.000000 
0.302189 -0.576460 0.000000 
0.290702 -0.623196 0.000000 
0.341985 -0.655995 0.000000 
0.321587 -0.706229 0.000000 
0.361761 -0.742637 0.000000 
0.329787 -0.794440 0.000000 
0.360414 -0.831562 0.000000 
0.381315 -0.513604 0.000000 
0.370772 -0.559831 0.000000 
0.425037 -0.591460 0.000000 
0.407738 -0.640889 0.000000 
0.453135 -0.676204 0.000000 
0.427556 -0.727719 0.000000 
0.464588 -0.764746 0.000000 
0.429420 -0.816788 0.000000 
0.458977 -0.853863 0.000000 
0.026061 -0.725513 0.000000 
0.028809 -0.619806 0.000000 
0.054870 -0.665690 0.000000 
0.106992 -0.657457 0.000000 
0.029377 -0.517749 0.000000 
0.058186 -0.557926 0.000000 
0.114311 -0.542260 0.000000 
0.137056 -0.595908 0.000000 
0.186430 -0.593382 0.000000 
0.029568 -0.416695 0.000000 
0.058945 -0.454815 0.000000 
0.116563 -0.435169 0.000000 
0.143120 -0.482438 0.000000 
0.196633 -0.473729 0.000000 
0.217198 -0.531025 0.000000 
0.265318 -0.530226 0.000000 
0.029759 -0.315641 0.000000 
0.059328 -0.352706 0.000000 
0.117890 -0.330001 0.000000 
0.145749 -0.374343 0.000000 
0.201664 -0.360869 0.000000 
0.225992 -0.412986 0.000000 
0.278030 -0.407120 0.000000 
0.296791 -0.467063 0.000000 
0.344206 -0.467070 0.000000 
CELLS 175 350 
1 0 
1 1 
1 2 
1 3 
1 4 
1 5 
1 6 
1 7 
1 8 
1 9 
1 10 
1 11 
1 12 
1 13 
1 14 
1 15 
1 16 
1 17 
1 18 
1 19 
1 20 
1 21 
1 22 
1 23 
1 24 
1 25 
1 26 
1 27 
1 28 
1 29 
1 30 
1 31 
1 32 
1 33 
1 34 
1 35 
1 36 
1 37 
1 38 
1 39 
1 40 
1 41 
1 42 
1 43 
1 44 
1 45 
1 46 
1 47 
1 48 
1 49 
1 50 
1 51 
1 52 
1 53 
1 54 
1 55 
1 56 
1 57 
1 58 
1 59 
1 60 
1 61 
1 62 
1 63 
1 64 
1 65 
1 66 
1 67 
1 68 
1 69 
1 70 
1 71 
1 72 
1 73 
1 74 
1 75 
1 76 
1 77 
1 78 
1 79 
1 80 
1 81 
1 82 
1 83 
1 84 
1 85 
1 86 
1 87 
1 88 
1 89 
1 90 
1 91 
1 92 
1 93 
1 94 
1 95 
1 96 
1 97 
1 98 
1 99 
1 100 
1 101 
1 102 
1 103 
1 104 
1 105 
1 106 
1 107 
1 108 
1 109 
1 110 
1 111 
1 112 
1 113 
1 114 
1 115 
1 116 
1 117 
1 118 
1 119 
1 120 
1 121 
1 122 
1 123 
1 124 
1 125 
1 126 
1 127 
1 128 
1 129 
1 130 
1 131 
1 132 
1 133 
1 134 
1 135 
1 136 
1 137 
1 138 
1 139 
1 140 
1 141 
1 142 
1 143 
1 144 
1 145 
1 146 
1 147 
1 148 
1 149 
1 150 
1 151 
1 152 
1 153 
1 154 
1 155 
1 156 
1 157 
1 158 
1 159 
1 160 
1 161 
1 162 
1 163 
1 164 
1 165 
1 166 
1 167 
1 168 
1 169 
1 170 
1 171 
1 172 
1 173 
1 174 
CELL_TYPES 175 
1 
1 
1 
1 
1 
1 
1 
1 
1 
1 
1 
1 
1 
1 
1 
1 
1 
1 
1 
1 
1 
1 
1 
1 
1 
1 
1 
1 
1 
1 
1 
1 
1 
1 
1 
1 
1 
1 
1 
1 
1 
1 
1 
1 
1 
1 
1 
1 
1 
1 
1 
1 
1 
1 
1 
1 
1 
1 
1 
1 
1 
1 
1 
1 
1 
1 
1 
1 
1 
1 
1 
1 
1 
1 
1 
1 
1 
1 
1 
1 
1 
1 
1 
1 
1 
1 
1 
1 
1 
1 
1 
1 
1 
1 
1 
1 
1 
1 
1 
1 
1 
1 
1 
1 
1 
1 
1 
1 
1 
1 
1 
1 
1 
1 
1 
1 
1 
1 
1 
1 
1 
1 
1 
1 
1 
1 
1 
1 
1 
1 
1 
1 
1 
1 
1 
1 
1 
1 
1 
1 
1 
1 
1 
1 
1 
1 
1 
1 
1 
1 
1 
1 
1 
1 
1 
1 
1 
1 
1 
1 
1 
1 
1 
1 
1 
1 
1 
1 
1 
1 
1 
1 
1 
1 
1 
POINT_DATA 175 
VECTORS X_GC float 
-0.026061 -0.725513 0.000000 
-0.106992 -0.657457 0.000000 
-0.054870 -0.665690 0.000000 
-0.028809 -0.619806 0.000000 
-0.186430 -0.593382 0.000000 
-0.137056 -0.595908 0.000000 
-0.114311 -0.542260 0.000000 
-0.058186 -0.557926 0.000000 
-0.029377 -0.517749 0.000000 
-0.265318 -0.530226 0.000000 
-0.217198 -0.531025 0.000000 
-0.196633 -0.473729 0.000000 
-0.143120 -0.482438 0.000000 
-0.116563 -0.435169 0.000000 
-0.058945 -0.454815 0.000000 
-0.029568 -0.416695 0.000000 
-0.344206 -0.467070 0.000000 
-0.296791 -0.467063 0.000000 
-0.278030 -0.407120 0.000000 
-0.225992 -0.412986 0.000000 
-0.201664 -0.360869 0.000000 
-0.145749 -0.374343 0.000000 
-0.117890 -0.330001 0.000000 
-0.059328 -0.352706 0.000000 
-0.029759 -0.315641 0.000000 
-0.058559 -0.766263 0.000000 
-0.162226 -0.787106 0.000000 
-0.123292 -0.751488 0.000000 
-0.142917 -0.702505 0.000000 
-0.261851 -0.809262 0.000000 
-0.229092 -0.772235 0.000000 
-0.256854 -0.721004 0.000000 
-0.209613 -0.686891 0.000000 
-0.223062 -0.639317 0.000000 
-0.360414 -0.831562 0.000000 
-0.329787 -0.794440 0.000000 
-0.361761 -0.742637 0.000000 
-0.321587 -0.706229 0.000000 
-0.341985 -0.655995 0.000000 
-0.290702 -0.623196 0.000000 
-0.302189 -0.576460 0.000000 
-0.458977 -0.853863 0.000000 
-0.429420 -0.816788 0.000000 
-0.464588 -0.764746 0.000000 
-0.427556 -0.727719 0.000000 
-0.453135 -0.676204 0.000000 
-0.407738 -0.640889 0.000000 
-0.425037 -0.591460 0.000000 
-0.370772 -0.559831 0.000000 
-0.381315 -0.513604 0.000000 
-0.046960 -0.817079 0.000000 
-0.095301 -0.911124 0.000000 
-0.098873 -0.858477 0.000000 
-0.149405 -0.843280 0.000000 
-0.140093 -1.002828 0.000000 
-0.148617 -0.954130 0.000000 
-0.205981 -0.943893 0.000000 
-0.203197 -0.885690 0.000000 
-0.248777 -0.866543 0.000000 
-0.184111 -1.093792 0.000000 
-0.194039 -1.046701 0.000000 
-0.254475 -1.039401 0.000000 
-0.257893 -0.985292 0.000000 
-0.309886 -0.969919 0.000000 
-0.303554 -0.909374 0.000000 
-0.347255 -0.889216 0.000000 
-0.228129 -1.184756 0.000000 
-0.238687 -1.138531 0.000000 
-0.301302 -1.133579 0.000000 
-0.307162 -1.081540 0.000000 
-0.363386 -1.069419 0.000000 
-0.362692 -1.011908 0.000000 
-0.412122 -0.994615 0.000000 
-0.403017 -0.932468 0.000000 
-0.445733 -0.911889 0.000000 
-0.000000 -0.839693 0.000000 
0.043388 -0.936124 0.000000 
-0.000000 -0.906092 0.000000 
-0.043388 -0.936124 0.000000 
0.087158 -1.028321 0.000000 
0.043769 -1.004622 0.000000 
-0.000000 -1.043088 0.000000 
-0.043769 -1.004622 0.000000 
-0.087158 -1.028321 0.000000 
0.130831 -1.119450 0.000000 
0.087824 -1.097852 0.000000 
0.044436 -1.140551 0.000000 
-0.000000 -1.109486 0.000000 
-0.044436 -1.140551 0.000000 
-0.087824 -1.097852 0.000000 
-0.130831 -1.119450 0.000000 
0.174505 -1.210580 0.000000 
0.131782 -1.190014 0.000000 
0.088871 -1.235880 0.000000 
0.044532 -1.208017 0.000000 
-0.000000 -1.244417 0.000000 
-0.044532 -1.208017 0.000000 
-0.088871 -1.235880 0.000000 
-0.131782 -1.190014 0.000000 
-0.174505 -1.210580 0.000000 
0.046960 -0.817079 0.000000 
0.149405 -0.843280 0.000000 
0.098873 -0.858477 0.000000 
0.095301 -0.911124 0.000000 
0.248777 -0.866543 0.000000 
0.203197 -0.885690 0.000000 
0.205981 -0.943893 0.000000 
0.148617 -0.954130 0.000000 
0.140093 -1.002828 0.000000 
0.347255 -0.889216 0.000000 
0.303554 -0.909374 0.000000 
0.309886 -0.969919 0.000000 
0.257893 -0.985292 0.000000 
0.254475 -1.039401 0.000000 
0.194039 -1.046701 0.000000 
0.184111 -1.093792 0.000000 
0.445733 -0.911889 0.000000 
0.403017 -0.932468 0.000000 
0.412122 -0.994615 0.000000 
0.362692 -1.011908 0.000000 
0.363386 -1.069419 0.000000 
0.307162 -1.081540 0.000000 
0.301302 -1.133579 0.000000 
0.238687 -1.138531 0.000000 
0.228129 -1.184756 0.000000 
0.058559 -0.766263 0.000000 
0.142917 -0.702505 0.000000 
0.123292 -0.751488 0.000000 
0.162226 -0.787106 0.000000 
0.223062 -0.639317 0.000000 
0.209613 -0.686891 0.000000 
0.256854 -0.721004 0.000000 
0.229092 -0.772235 0.000000 
0.261851 -0.809262 0.000000 
0.302189 -0.576460 0.000000 
0.290702 -0.623196 0.000000 
0.341985 -0.655995 0.000000 
0.321587 -0.706229 0.000000 
0.361761 -0.742637 0.000000 
0.329787 -0.794440 0.000000 
0.360414 -0.831562 0.000000 
0.381315 -0.513604 0.000000 
0.370772 -0.559831 0.000000 
0.425037 -0.591460 0.000000 
0.407738 -0.640889 0.000000 
0.453135 -0.676204 0.000000 
0.427556 -0.727719 0.000000 
0.464588 -0.764746 0.000000 
0.429420 -0.816788 0.000000 
0.458977 -0.853863 0.000000 
0.026061 -0.725513 0.000000 
0.028809 -0.619806 0.000000 
0.054870 -0.665690 0.000000 
0.106992 -0.657457 0.000000 
0.029377 -0.517749 0.000000 
0.058186 -0.557926 0.000000 
0.114311 -0.542260 0.000000 
0.137056 -0.595908 0.000000 
0.186430 -0.593382 0.000000 
0.029568 -0.416695 0.000000 
0.058945 -0.454815 0.000000 
0.116563 -0.435169 0.000000 
0.143120 -0.482438 0.000000 
0.196633 -0.473729 0.000000 
0.217198 -0.531025 0.000000 
0.265318 -0.530226 0.000000 
0.029759 -0.315641 0.000000 
0.059328 -0.352706 0.000000 
0.117890 -0.330001 0.000000 
0.145749 -0.374343 0.000000 
0.201664 -0.360869 0.000000 
0.225992 -0.412986 0.000000 
0.278030 -0.407120 0.000000 
0.296791 -0.467063 0.000000 
0.344206 -0.467070 0.000000 
VECTORS X_EC float 
0.338794 0.294419 0.000000 
-0.609100 -0.624329 0.000000 
0.713312 -0.513188 0.000000 
0.374519 0.867382 0.000000 
0.423588 0.510651 0.000000 
-0.218274 0.544755 0.000000 
-0.513962 -0.179484 0.000000 
0.756418 0.032002 0.000000 
0.381900 -0.510390 0.000000 
-0.550868 -0.341952 0.000000 
0.823577 -0.331156 0.000000 
0.556234 0.895340 0.000000 
-0.139443 -0.987091 0.000000 
-0.484677 0.374784 0.000000 
0.766286 0.639999 0.000000 
0.384386 0.125379 0.000000 
0.474677 0.805445 0.000000 
-0.141715 0.805349 0.000000 
-0.385608 -0.003879 0.000000 
0.937896 0.075316 0.000000 
0.621631 -0.628264 0.000000 
-0.105264 -0.446365 0.000000 
-0.467428 0.955009 0.000000 
0.771260 -0.738463 0.000000 
0.386873 0.761148 0.000000 
0.761262 0.844554 0.000000 
0.108942 -0.874070 0.000000 
-0.397202 0.645091 0.000000 
-0.142083 -0.016184 0.000000 
-0.595936 -0.574959 0.000000 
0.978194 0.925175 0.000000 
-0.660903 0.233550 0.000000 
0.724964 -0.226970 0.000000 
0.899809 -0.869219 0.000000 
0.685384 -0.273907 0.000000 
0.287229 -0.775065 0.000000 
0.702895 0.525606 0.000000 
0.180633 0.034087 0.000000 
0.445811 -0.644072 0.000000 
-0.220880 0.913142 0.000000 
-0.071546 0.282216 0.000000 
-0.033296 0.027145 0.000000 
-0.417537 -0.473364 0.000000 
0.039645 0.824073 0.000000 
-0.441768 0.324202 0.000000 
-0.109248 -0.371249 0.000000 
-0.699407 -0.848004 0.000000 
-0.474522 0.484717 0.000000 
0.820030 0.057723 0.000000 
0.957100 -0.566349 0.000000 
0.610485 -0.469440 0.000000 
-0.761092 0.800179 0.000000 
-0.714655 0.089442 0.000000 
-0.057734 -0.115725 0.000000 
-0.178789 0.038184 0.000000 
-0.067979 -0.619243 0.000000 
0.677748 -0.757446 0.000000 
0.641556 0.456809 0.000000 
-0.765897 0.198330 0.000000 
0.393446 -0.733807 0.000000 
0.522510 0.630463 0.000000 
-0.691820 0.531918 0.000000 
-0.647393 -0.198564 0.000000 
0.028512 -0.406091 0.000000 
-0.053800 0.776549 0.000000 
0.514316 0.504418 0.000000 
0.965681 0.494202 0.000000 
-0.897068 -0.129827 0.000000 
-0.083078 -0.196680 0.000000 
-0.006893 -0.899205 0.000000 
0.724017 0.937162 0.000000 
0.714996 0.160759 0.000000 
-0.642413 -0.072698 0.000000 
-0.760780 -0.911679 0.000000 
-0.205471 0.810506 0.000000 
0.000000 -0.164138 0.000000 
-0.564049 -0.862326 0.000000 
0.000000 0.732238 0.000000 
0.564049 -0.862326 0.000000 
0.866949 0.382330 0.000000 
-0.569003 0.062399 0.000000 
0.000000 0.581687 0.000000 
0.569003 0.062399 0.000000 
-0.866949 0.382330 0.000000 
0.299194 -0.387420 0.000000 
0.858290 -0.679004 0.000000 
-0.577662 -0.102558 0.000000 
0.000000 -0.521936 0.000000 
0.577662 -0.102558 0.000000 
-0.858290 -0.679004 0.000000 
-0.299194 -0.387420 0.000000 
-0.268560 0.842830 0.000000 
0.286830 0.565188 0.000000 
0.844677 -0.815613 0.000000 
-0.578910 0.808224 0.000000 
0.000000 -0.700372 0.000000 
0.578910 0.808224 0.000000 
-0.844677 -0.815613 0.000000 
-0.286830 0.565188 0.000000 
0.268560 0.842830 0.000000 
-0.610485 -0.469440 0.000000 
0.057734 -0.115725 0.000000 
0.714655 0.089442 0.000000 
0.761092 0.800179 0.000000 
0.765897 0.198330 0.000000 
-0.641556 0.456809 0.000000 
-0.677748 -0.757446 0.000000 
0.067979 -0.619243 0.000000 
0.178789 0.038184 0.000000 
-0.514316 0.504418 0.000000 
0.053800 0.776549 0.000000 
-0.028512 -0.406091 0.000000 
0.647393 -0.198564 0.000000 
0.691820 0.531918 0.000000 
-0.522510 0.630463 0.000000 
-0.393446 -0.733807 0.000000 
0.205471 0.810506 0.000000 
0.760780 -0.911679 0.000000 
0.642413 -0.072698 0.000000 
-0.714996 0.160759 0.000000 
-0.724017 0.937162 0.000000 
0.006894 -0.899205 0.000000 
0.083078 -0.196680 0.000000 
0.897068 -0.129827 0.000000 
-0.965681 0.494202 0.000000 
-0.761262 0.844554 0.000000 
0.142083 -0.016184 0.000000 
0.397202 0.645091 0.000000 
-0.108942 -0.874070 0.000000 
-0.899809 -0.869219 0.000000 
-0.724964 -0.226970 0.000000 
0.660903 0.233550 0.000000 
-0.978194 0.925175 0.000000 
0.595936 -0.574959 0.000000 
0.071546 0.282216 0.000000 
0.220880 0.913142 0.000000 
-0.445811 -0.644072 0.000000 
-0.180633 0.034087 0.000000 
-0.702895 0.525606 0.000000 
-0.287229 -0.775065 0.000000 
-0.685384 -0.273907 0.000000 
-0.957100 -0.566349 0.000000 
-0.820030 0.057723 0.000000 
0.474522 0.484717 0.000000 
0.699407 -0.848004 0.000000 
0.109248 -0.371249 0.000000 
0.441768 0.324202 0.000000 
-0.039645 0.824073 0.000000 
0.417537 -0.473364 0.000000 
0.033296 0.027145 0.000000 
-0.338794 0.294419 0.000000 
-0.374519 0.867382 0.000000 
-0.713312 -0.513188 0.000000 
0.609100 -0.624329 0.000000 
-0.381900 -0.510390 0.000000 
-0.756418 0.032002 0.000000 
0.513962 -0.179484 0.000000 
0.218274 0.544755 0.000000 
-0.423588 0.510651 0.000000 
-0.384386 0.125379 0.000000 
-0.766286 0.639999 0.000000 
0.484677 0.374784 0.000000 
0.139443 -0.987091 0.000000 
-0.556234 0.895340 0.000000 
-0.823577 -0.331156 0.000000 
0.550868 -0.341952 0.000000 
-0.386873 0.761148 0.000000 
-0.771260 -0.738463 0.000000 
0.467428 0.955009 0.000000 
0.105264 -0.446365 0.000000 
-0.621631 -0.628264 0.000000 
-0.937896 0.075316 0.000000 
0.385608 -0.003879 0.000000 
0.141715 0.805349 0.000000 
-0.474677 0.805445 0.000000 
CELL_DATA 175 
SCALARS MASS float 
LOOKUP_TABLE default 
0.078183 
0.086427 
0.094672 
0.086427 
0.088131 
0.092111 
0.085854 
0.092111 
0.088131 
0.088705 
0.091000 
0.086983 
0.091556 
0.086983 
0.091000 
0.088705 
0.089278 
0.091574 
0.089278 
0.092722 
0.089278 
0.092722 
0.089278 
0.091574 
0.089278 
0.078183 
0.086427 
0.094672 
0.086427 
0.088131 
0.092111 
0.085854 
0.092111 
0.088131 
0.088705 
0.091000 
0.086983 
0.091556 
0.086983 
0.091000 
0.088705 
0.089278 
0.091574 
0.089278 
0.092722 
0.089278 
0.092722 
0.089278 
0.091574 
0.089278 
0.078183 
0.086427 
0.094672 
0.086427 
0.088131 
0.092111 
0.085854 
0.092111 
0.088131 
0.088705 
0.091000 
0.086983 
0.091556 
0.086983 
0.091000 
0.088705 
0.089278 
0.091574 
0.089278 
0.092722 
0.089278 
0.092722 
0.089278 
0.091574 
0.089278 
0.078183 
0.086427 
0.094672 
0.086427 
0.088131 
0.092111 
0.085854 
0.092111 
0.088131 
0.088705 
0.091000 
0.086983 
0.091556 
0.086983 
0.091000 
0.088705 
0.089278 
0.091574 
0.089278 
0.092722 
0.089278 
0.092722 
0.089278 
0.091574 
0.089278 
0.078183 
0.086427 
0.094672 
0.086427 
0.088131 
0.092111 
0.085854 
0.092111 
0.088131 
0.088705 
0.091000 
0.086983 
0.091556 
0.086983 
0.091000 
0.088705 
0.089278 
0.091574 
0.089278 
0.092722 
0.089278 
0.092722 
0.089278 
0.091574 
0.089278 
0.078183 
0.086427 
0.094672 
0.086427 
0.088131 
0.092111 
0.085854 
0.092111 
0.088131 
0.088705 
0.091000 
0.086983 
0.091556 
0.086983 
0.091000 
0.088705 
0.089278 
0.091574 
0.089278 
0.092722 
0.089278 
0.092722 
0.089278 
0.091574 
0.089278 
0.078183 
0.086427 
0.094672 
0.086427 
0.088131 
0.092111 
0.085854 
0.092111 
0.088131 
0.088705 
0.091000 
0.086983 
0.091556 
0.086983 
0.091000 
0.088705 
0.089278 
0.091574 
0.089278 
0.092722 
0.089278 
0.092722 
0.089278 
0.091574 
0.089278 
SCALARS MASS float 
LOOKUP_TABLE default 
0.078183 
0.086427 
0.094672 
0.086427 
0.088131 
0.092111 
0.085854 
0.092111 
0.088131 
0.088705 
0.091000 
0.086983 
0.091556 
0.086983 
0.091000 
0.088705 
0.089278 
0.091574 
0.089278 
0.092722 
0.089278 
0.092722 
0.089278 
0.091574 
0.089278 
0.078183 
0.086427 
0.094672 
0.086427 
0.088131 
0.092111 
0.085854 
0.092111 
0.088131 
0.088705 
0.091000 
0.086983 
0.091556 
0.086983 
0.091000 
0.088705 
0.089278 
0.091574 
0.089278 
0.092722 
0.089278 
0.092722 
0.089278 
0.091574 
0.089278 
0.078183 
0.086427 
0.094672 
0.086427 
0.088131 
0.092111 
0.085854 
0.092111 
0.088131 
0.088705 
0.091000 
0.086983 
0.091556 
0.086983 
0.091000 
0.088705 
0.089278 
0.091574 
0.089278 
0.092722 
0.089278 
0.092722 
0.089278 
0.091574 
0.089278 
0.078183 
0.086427 
0.094672 
0.086427 
0.088131 
0.092111 
0.085854 
0.092111 
0.088131 
0.088705 
0.091000 
0.086983 
0.091556 
0.086983 
0.091000 
0.088705 
0.089278 
0.091574 
0.089278 
0.092722 
0.089278 
0.092722 
0.089278 
0.091574 
0.089278 
0.078183 
0.086427 
0.094672 
0.086427 
0.088131 
0.092111 
0.085854 
0.092111 
0.088131 
0.088705 
0.091000 
0.086983 
0.091556 
0.086983 
0.091000 
0.088705 
0.089278 
0.091574 
0.089278 
0.092722 
0.089278 
0.092722 
0.089278 
0.091574 
0.089278 
0.078183 
0.086427 
0.094672 
0.086427 
0.088131 
0.092111 
0.085854 
0.092111 
0.088131 
0.088705 
0.091000 
0.086983 
0.091556 
0.086983 
0.091000 
0.088705 
0.089278 
0.091574 
0.089278 
0.092722 
0.089278 
0.092722 
0.089278 
0.091574 
0.089278 
0.078183 
0.086427 
0.094672 
0.086427 
0.088131 
0.092111 
0.085854 
0.092111 
0.088131 
0.088705 
0.091000 
0.086983 
0.091556 
0.086983 
0.091000 
0.088705 
0.089278 
0.091574 
0.089278 
0.092722 
0.089278 
0.092722 
0.089278 
0.091574 
0.089278 
SCALARS DENSITY float 
LOOKUP_TABLE default 
20.000000 
20.000000 
20.000000 
20.000000 
20.000000 
20.000000 
20.000000 
20.000000 
20.000000 
20.000000 
20.000000 
20.000000 
20.000000 
20.000000 
20.000000 
20.000000 
20.000000 
20.000000 
20.000000 
20.000000 
20.000000 
20.000000 
20.000000 
20.000000 
20.000000 
20.000000 
20.000000 
20.000000 
20.000000 
20.000000 
20.000000 
20.000000 
20.000000 
20.000000 
20.000000 
20.000000 
20.000000 
20.000000 
20.000000 
20.000000 
20.000000 
20.000000 
20.000000 
20.000000 
20.000000 
20.000000 
20.000000 
20.000000 
20.000000 
20.000000 
20.000000 
20.000000 
20.000000 
20.000000 
20.000000 
20.000000 
20.000000 
20.000000 
20.000000 
20.000000 
20.000000 
20.000000 
20.000000 
20.000000 
20.000000 
20.000000 
20.000000 
20.000000 
20.000000 
20.000000 
20.000000 
20.000000 
20.000000 
20.000000 
20.000000 
20.000000 
20.000000 
20.000000 
20.000000 
20.000000 
20.000000 
20.000000 
20.000000 
20.000000 
20.000000 
20.000000 
20.000000 
20.000000 
20.000000 
20.000000 
20.000000 
20.000000 
20.000000 
20.000000 
20.000000 
20.000000 
20.000000 
20.000000 
20.000000 
20.000000 
20.000000 
20.000000 
20.000000 
20.000000 
20.000000 
20.000000 
20.000000 
20.000000 
20.000000 
20.000000 
20.000000 
20.000000 
20.000000 
20.000000 
20.000000 
20.000000 
20.000000 
20.000000 
20.000000 
20.000000 
20.000000 
20.000000 
20.000000 
20.000000 
20.000000 
20.000000 
20.000000 
20.000000 
20.000000 
20.000000 
20.000000 
20.000000 
20.000000 
20.000000 
20.000000 
20.000000 
20.000000 
20.000000 
20.000000 
20.000000 
20.000000 
20.000000 
20.000000 
20.000000 
20.000000 
20.000000 
20.000000 
20.000000 
20.000000 
20.000000 
20.000000 
20.000000 
20.000000 
20.000000 
20.000000 
20.000000 
20.000000 
20.000000 
20.000000 
20.000000 
20.000000 
20.000000 
20.000000 
20.000000 
20.000000 
20.000000 
20.000000 
20.000000 
20.000000 
20.000000 
20.000000 
20.000000 
20.000000 
20.000000 
20.000000 
SCALARS ELEM_i float 
LOOKUP_TABLE default 
177 
204 
177 
178 
205 
205 
205 
178 
178 
232 
205 
206 
205 
206 
179 
179 
233 
233 
233 
206 
206 
206 
207 
179 
180 
177 
203 
204 
204 
230 
204 
231 
204 
204 
230 
230 
231 
231 
231 
232 
232 
257 
257 
258 
258 
258 
258 
259 
232 
232 
176 
203 
203 
203 
202 
202 
202 
203 
230 
201 
202 
229 
229 
229 
230 
230 
201 
228 
228 
228 
229 
229 
256 
256 
257 
176 
175 
176 
175 
148 
175 
175 
175 
202 
147 
147 
174 
174 
174 
201 
201 
147 
147 
146 
174 
173 
174 
200 
201 
201 
176 
149 
149 
149 
122 
149 
148 
148 
148 
122 
122 
121 
121 
121 
148 
147 
95 
94 
94 
121 
121 
120 
120 
120 
147 
177 
150 
150 
149 
150 
150 
123 
150 
122 
124 
124 
123 
123 
123 
122 
122 
124 
124 
97 
96 
96 
96 
96 
95 
95 
177 
178 
177 
150 
178 
178 
151 
151 
151 
179 
179 
152 
151 
152 
151 
124 
180 
179 
153 
152 
152 
152 
125 
125 
125 
VECTORS VELOCITY float 
-0.000000 -3.910658 0.000000 
-0.000000 -3.910658 0.000000 
-0.000000 -3.910658 0.000000 
0.000000 -3.910658 0.000000 
0.000000 -3.910658 0.000000 
0.000000 -3.910658 0.000000 
0.000000 -3.910658 0.000000 
-0.000000 -3.910658 0.000000 
-0.000000 -3.910658 0.000000 
0.000000 -3.910658 0.000000 
0.000000 -3.910658 0.000000 
0.000000 -3.910658 0.000000 
0.000000 -3.910658 0.000000 
0.000000 -3.910658 0.000000 
-0.000000 -3.910658 0.000000 
0.000000 -3.910658 0.000000 
-0.000000 -3.910658 0.000000 
0.000000 -3.910658 0.000000 
-0.000000 -3.910658 0.000000 
0.000000 -3.910658 0.000000 
-0.000000 -3.910658 0.000000 
0.000000 -3.910658 0.000000 
0.000000 -3.910658 0.000000 
0.000000 -3.910658 0.000000 
0.000000 -3.910658 0.000000 
-0.000000 -3.910658 0.000000 
-0.000000 -3.910658 0.000000 
-0.000000 -3.910658 0.000000 
-0.000000 -3.910658 0.000000 
0.000000 -3.910658 0.000000 
0.000000 -3.910658 0.000000 
0.000000 -3.910658 0.000000 
0.000000 -3.910658 0.000000 
-0.000000 -3.910658 0.000000 
-0.000000 -3.910658 0.000000 
-0.000000 -3.910658 0.000000 
0.000000 -3.910658 0.000000 
0.000000 -3.910658 0.000000 
-0.000000 -3.910658 0.000000 
-0.000000 -3.910658 0.000000 
0.000000 -3.910658 0.000000 
0.000000 -3.910658 0.000000 
0.000000 -3.910658 0.000000 
-0.000000 -3.910658 0.000000 
0.000000 -3.910658 0.000000 
0.000000 -3.910658 0.000000 
0.000000 -3.910658 0.000000 
0.000000 -3.910658 0.000000 
0.000000 -3.910658 0.000000 
0.000000 -3.910658 0.000000 
-0.000000 -3.910658 0.000000 
-0.000000 -3.910658 0.000000 
-0.000000 -3.910658 0.000000 
-0.000000 -3.910658 0.000000 
-0.000000 -3.910658 0.000000 
-0.000000 -3.910658 0.000000 
-0.000000 -3.910658 0.000000 
-0.000000 -3.910658 0.000000 
-0.000000 -3.910658 0.000000 
-0.000000 -3.910658 0.000000 
-0.000000 -3.910658 0.000000 
-0.000000 -3.910658 0.000000 
0.000000 -3.910658 0.000000 
-0.000000 -3.910658 0.000000 
-0.000000 -3.910658 0.000000 
-0.000000 -3.910658 0.000000 
0.000000 -3.910658 0.000000 
-0.000000 -3.910658 0.000000 
0.000000 -3.910658 0.000000 
-0.000000 -3.910658 0.000000 
0.000000 -3.910658 0.000000 
-0.000000 -3.910658 0.000000 
0.000000 -3.910658 0.000000 
-0.000000 -3.910658 0.000000 
0.000000 -3.910658 0.000000 
0.000000 -3.910658 0.000000 
0.000000 -3.910658 0.000000 
0.000000 -3.910658 0.000000 
-0.000000 -3.910658 0.000000 
-0.000000 -3.910658 0.000000 
0.000000 -3.910658 0.000000 
-0.000000 -3.910658 0.000000 
-0.000000 -3.910658 0.000000 
0.000000 -3.910658 0.000000 
-0.000000 -3.910658 0.000000 
-0.000000 -3.910658 0.000000 
-0.000000 -3.910658 0.000000 
-0.000000 -3.910658 0.000000 
0.000000 -3.910658 0.000000 
0.000000 -3.910658 0.000000 
-0.000000 -3.910658 0.000000 
-0.000000 -3.910658 0.000000 
0.000000 -3.910658 0.000000 
-0.000000 -3.910658 0.000000 
0.000000 -3.910658 0.000000 
-0.000000 -3.910658 0.000000 
-0.000000 -3.910658 0.000000 
-0.000000 -3.910658 0.000000 
-0.000000 -3.910658 0.000000 
0.000000 -3.910658 0.000000 
-0.000000 -3.910658 0.000000 
0.000000 -3.910658 0.000000 
0.000000 -3.910658 0.000000 
0.000000 -3.910658 0.000000 
-0.000000 -3.910658 0.000000 
0.000000 -3.910658 0.000000 
0.000000 -3.910658 0.000000 
0.000000 -3.910658 0.000000 
0.000000 -3.910658 0.000000 
-0.000000 -3.910658 0.000000 
-0.000000 -3.910658 0.000000 
-0.000000 -3.910658 0.000000 
0.000000 -3.910658 0.000000 
0.000000 -3.910658 0.000000 
0.000000 -3.910658 0.000000 
-0.000000 -3.910658 0.000000 
0.000000 -3.910658 0.000000 
-0.000000 -3.910658 0.000000 
0.000000 -3.910658 0.000000 
-0.000000 -3.910658 0.000000 
0.000000 -3.910658 0.000000 
0.000000 -3.910658 0.000000 
-0.000000 -3.910658 0.000000 
-0.000000 -3.910658 0.000000 
-0.000000 -3.910658 0.000000 
-0.000000 -3.910658 0.000000 
-0.000000 -3.910658 0.000000 
-0.000000 -3.910658 0.000000 
-0.000000 -3.910658 0.000000 
-0.000000 -3.910658 0.000000 
-0.000000 -3.910658 0.000000 
0.000000 -3.910658 0.000000 
-0.000000 -3.910658 0.000000 
0.000000 -3.910658 0.000000 
-0.000000 -3.910658 0.000000 
-0.000000 -3.910658 0.000000 
0.000000 -3.910658 0.000000 
0.000000 -3.910658 0.000000 
0.000000 -3.910658 0.000000 
0.000000 -3.910658 0.000000 
0.000000 -3.910658 0.000000 
-0.000000 -3.910658 0.000000 
-0.000000 -3.910658 0.000000 
0.000000 -3.910658 0.000000 
0.000000 -3.910658 0.000000 
0.000000 -3.910658 0.000000 
0.000000 -3.910658 0.000000 
-0.000000 -3.910658 0.000000 
0.000000 -3.910658 0.000000 
0.000000 -3.910658 0.000000 
-0.000000 -3.910658 0.000000 
0.000000 -3.910658 0.000000 
0.000000 -3.910658 0.000000 
-0.000000 -3.910658 0.000000 
-0.000000 -3.910658 0.000000 
0.000000 -3.910658 0.000000 
0.000000 -3.910658 0.000000 
-0.000000 -3.910658 0.000000 
-0.000000 -3.910658 0.000000 
0.000000 -3.910658 0.000000 
-0.000000 -3.910658 0.000000 
-0.000000 -3.910658 0.000000 
-0.000000 -3.910658 0.000000 
0.000000 -3.910658 0.000000 
0.000000 -3.910658 0.000000 
0.000000 -3.910658 0.000000 
-0.000000 -3.910658 0.000000 
0.000000 -3.910658 0.000000 
-0.000000 -3.910658 0.000000 
-0.000000 -3.910658 0.000000 
-0.000000 -3.910658 0.000000 
-0.000000 -3.910658 0.000000 
0.000000 -3.910658 0.000000 
0.000000 -3.910658 0.000000 
-0.000000 -3.910658 0.000000 
TENSORS STRESS float 
0.000000 0.000000 0.000000 
0.000000 0.000000 0.000000 
0.000000 0.000000 0.000000 

-0.000000 0.000000 0.000000 
0.000000 0.000000 0.000000 
0.000000 0.000000 0.000000 

0.000000 -0.000000 0.000000 
0.000000 0.000000 0.000000 
0.000000 0.000000 0.000000 

0.000000 -0.000000 0.000000 
0.000000 -0.000000 0.000000 
0.000000 0.000000 0.000000 

0.000000 -0.000000 0.000000 
0.000000 -0.000000 0.000000 
0.000000 0.000000 0.000000 

0.000000 -0.000000 0.000000 
0.000000 0.000000 0.000000 
0.000000 0.000000 0.000000 

-0.000000 0.000000 0.000000 
0.000000 -0.000000 0.000000 
0.000000 0.000000 0.000000 

-0.000000 -0.000000 0.000000 
0.000000 0.000000 0.000000 
0.000000 0.000000 0.000000 

-0.000000 0.000000 0.000000 
0.000000 -0.000000 0.000000 
0.000000 0.000000 0.000000 

-0.000000 0.000000 0.000000 
0.000000 -0.000000 0.000000 
0.000000 0.000000 0.000000 

0.000000 -0.000000 0.000000 
0.000000 -0.000000 0.000000 
0.000000 0.000000 0.000000 

-0.000000 0.000000 0.000000 
0.000000 -0.000000 0.000000 
0.000000 0.000000 0.000000 

0.000000 0.000000 0.000000 
0.000000 -0.000000 0.000000 
0.000000 0.000000 0.000000 

0.000000 -0.000000 0.000000 
0.000000 0.000000 0.000000 
0.000000 0.000000 0.000000 

0.000000 0.000000 0.000000 
0.000000 -0.000000 0.000000 
0.000000 0.000000 0.000000 

0.000000 0.000000 0.000000 
0.000000 0.000000 0.000000 
0.000000 0.000000 0.000000 

0.000000 -0.000000 0.000000 
0.000000 0.000000 0.000000 
0.000000 0.000000 0.000000 

0.000000 0.000000 0.000000 
0.000000 0.000000 0.000000 
0.000000 0.000000 0.000000 

-0.000000 0.000000 0.000000 
0.000000 -0.000000 0.000000 
0.000000 0.000000 0.000000 

-0.000000 0.000000 0.000000 
0.000000 -0.000000 0.000000 
0.000000 0.000000 0.000000 

0.000000 0.000000 0.000000 
0.000000 0.000000 0.000000 
0.000000 0.000000 0.000000 

0.000000 0.000000 0.000000 
0.000000 0.000000 0.000000 
0.000000 0.000000 0.000000 

-0.000000 0.000000 0.000000 
0.000000 -0.000000 0.000000 
0.000000 0.000000 0.000000 

0.000000 -0.000000 0.000000 
0.000000 0.000000 0.000000 
0.000000 0.000000 0.000000 

-0.000000 0.000000 0.000000 
0.000000 0.000000 0.000000 
0.000000 0.000000 0.000000 

0.000000 0.000000 0.000000 
0.000000 0.000000 0.000000 
0.000000 0.000000 0.000000 

-0.000000 0.000000 0.000000 
0.000000 0.000000 0.000000 
0.000000 0.000000 0.000000 

-0.000000 0.000000 0.000000 
0.000000 0.000000 0.000000 
0.000000 0.000000 0.000000 

-0.000000 0.000000 0.000000 
0.000000 -0.000000 0.000000 
0.000000 0.000000 0.000000 

0.000000 0.000000 0.000000 
0.000000 -0.000000 0.000000 
0.000000 0.000000 0.000000 

-0.000000 0.000000 0.000000 
0.000000 -0.000000 0.000000 
0.000000 0.000000 0.000000 

0.000000 -0.000000 0.000000 
0.000000 -0.000000 0.000000 
0.000000 0.000000 0.000000 

-0.000000 -0.000000 0.000000 
0.000000 0.000000 0.000000 
0.000000 0.000000 0.000000 

-0.000000 -0.000000 0.000000 
0.000000 0.000000 0.000000 
0.000000 0.000000 0.000000 

-0.000000 -0.000000 0.000000 
0.000000 -0.000000 0.000000 
0.000000 0.000000 0.000000 

0.000000 0.000000 0.000000 
0.000000 0.000000 0.000000 
0.000000 0.000000 0.000000 

0.000000 -0.000000 0.000000 
0.000000 0.000000 0.000000 
0.000000 0.000000 0.000000 

0.000000 0.000000 0.000000 
0.000000 0.000000 0.000000 
0.000000 0.000000 0.000000 

0.000000 -0.000000 0.000000 
0.000000 0.000000 0.000000 
0.000000 0.000000 0.000000 

0.000000 -0.000000 0.000000 
0.000000 0.000000 0.000000 
0.000000 0.000000 0.000000 

-0.000000 -0.000000 0.000000 
0.000000 -0.000000 0.000000 
0.000000 0.000000 0.000000 

0.000000 0.000000 0.000000 
0.000000 -0.000000 0.000000 
0.000000 0.000000 0.000000 

0.000000 0.000000 0.000000 
0.000000 0.000000 0.000000 
0.000000 0.000000 0.000000 

0.000000 -0.000000 0.000000 
0.000000 0.000000 0.000000 
0.000000 0.000000 0.000000 

0.000000 0.000000 0.000000 
0.000000 0.000000 0.000000 
0.000000 0.000000 0.000000 

-0.000000 0.000000 0.000000 
0.000000 -0.000000 0.000000 
0.000000 0.000000 0.000000 

-0.000000 0.000000 0.000000 
0.000000 -0.000000 0.000000 
0.000000 0.000000 0.000000 

0.000000 -0.000000 0.000000 
0.000000 -0.000000 0.000000 
0.000000 0.000000 0.000000 

-0.000000 -0.000000 0.000000 
0.000000 -0.000000 0.000000 
0.000000 0.000000 0.000000 

-0.000000 0.000000 0.000000 
0.000000 -0.000000 0.000000 
0.000000 0.000000 0.000000 

0.000000 -0.000000 0.000000 
0.000000 0.000000 0.000000 
0.000000 0.000000 0.000000 

-0.000000 -0.000000 0.000000 
0.000000 -0.000000 0.000000 
0.000000 0.000000 0.000000 

-0.000000 -0.000000 0.000000 
0.000000 -0.000000 0.000000 
0.000000 0.000000 0.000000 

0.000000 0.000000 0.000000 
0.000000 -0.000000 0.000000 
0.000000 0.000000 0.000000 

-0.000000 -0.000000 0.000000 
0.000000 -0.000000 0.000000 
0.000000 0.000000 0.000000 

-0.000000 0.000000 0.000000 
0.000000 -0.000000 0.000000 
0.000000 0.000000 0.000000 

0.000000 0.000000 0.000000 
0.000000 0.000000 0.000000 
0.000000 0.000000 0.000000 

0.000000 -0.000000 0.000000 
0.000000 0.000000 0.000000 
0.000000 0.000000 0.000000 

0.000000 0.000000 0.000000 
0.000000 0.000000 0.000000 
0.000000 0.000000 0.000000 

0.000000 0.000000 0.000000 
0.000000 0.000000 0.000000 
0.000000 0.000000 0.000000 

0.000000 -0.000000 0.000000 
0.000000 0.000000 0.000000 
0.000000 0.000000 0.000000 

0.000000 0.000000 0.000000 
0.000000 0.000000 0.000000 
0.000000 0.000000 0.000000 

-0.000000 0.000000 0.000000 
0.000000 -0.000000 0.000000 
0.000000 0.000000 0.000000 

-0.000000 -0.000000 0.000000 
0.000000 -0.000000 0.000000 
0.000000 0.000000 0.000000 

0.000000 -0.000000 0.000000 
0.000000 -0.000000 0.000000 
0.000000 0.000000 0.000000 

0.000000 -0.000000 0.000000 
0.000000 -0.000000 0.000000 
0.000000 0.000000 0.000000 

0.000000 0.000000 0.000000 
0.000000 0.000000 0.000000 
0.000000 0.000000 0.000000 

0.000000 0.000000 0.000000 
0.000000 0.000000 0.000000 
0.000000 0.000000 0.000000 

0.000000 0.000000 0.000000 
0.000000 -0.000000 0.000000 
0.000000 0.000000 0.000000 

0.000000 0.000000 0.000000 
0.000000 0.000000 0.000000 
0.000000 0.000000 0.000000 

0.000000 0.000000 0.000000 
0.000000 0.000000 0.000000 
0.000000 0.000000 0.000000 

-0.000000 -0.000000 0.000000 
0.000000 -0.000000 0.000000 
0.000000 0.000000 0.000000 

-0.000000 -0.000000 0.000000 
0.000000 0.000000 0.000000 
0.000000 0.000000 0.000000 

-0.000000 -0.000000 0.000000 
0.000000 -0.000000 0.000000 
0.000000 0.000000 0.000000 

0.000000 -0.000000 0.000000 
0.000000 0.000000 0.000000 
0.000000 0.000000 0.000000 

-0.000000 -0.000000 0.000000 
0.000000 0.000000 0.000000 
0.000000 0.000000 0.000000 

-0.000000 -0.000000 0.000000 
0.000000 -0.000000 0.000000 
0.000000 0.000000 0.000000 

-0.000000 -0.000000 0.000000 
0.000000 0.000000 0.000000 
0.000000 0.000000 0.000000 

0.000000 -0.000000 0.000000 
0.000000 0.000000 0.000000 
0.000000 0.000000 0.000000 

0.000000 -0.000000 0.000000 
0.000000 -0.000000 0.000000 
0.000000 0.000000 0.000000 

0.000000 0.000000 0.000000 
0.000000 0.000000 0.000000 
0.000000 0.000000 0.000000 

0.000000 0.000000 0.000000 
0.000000 0.000000 0.000000 
0.000000 0.000000 0.000000 

0.000000 0.000000 0.000000 
0.000000 0.000000 0.000000 
0.000000 0.000000 0.000000 

-0.000000 -0.000000 0.000000 
0.000000 -0.000000 0.000000 
0.000000 0.000000 0.000000 

0.000000 0.000000 0.000000 
0.000000 0.000000 0.000000 
0.000000 0.000000 0.000000 

0.000000 0.000000 0.000000 
0.000000 -0.000000 0.000000 
0.000000 0.000000 0.000000 

0.000000 0.000000 0.000000 
0.000000 0.000000 0.000000 
0.000000 0.000000 0.000000 

-0.000000 -0.000000 0.000000 
0.000000 -0.000000 0.000000 
0.000000 0.000000 0.000000 

0.000000 0.000000 0.000000 
0.000000 -0.000000 0.000000 
0.000000 0.000000 0.000000 

-0.000000 -0.000000 0.000000 
0.000000 -0.000000 0.000000 
0.000000 0.000000 0.000000 

0.000000 -0.000000 0.000000 
0.000000 0.000000 0.000000 
0.000000 0.000000 0.000000 

-0.000000 -0.000000 0.000000 
0.000000 -0.000000 0.000000 
0.000000 0.000000 0.000000 

0.000000 -0.000000 0.000000 
0.000000 0.000000 0.000000 
0.000000 0.000000 0.000000 

0.000000 0.000000 0.000000 
0.000000 0.000000 0.000000 
0.000000 0.000000 0.000000 

0.000000 0.000000 0.000000 
0.000000 0.000000 0.000000 
0.000000 0.000000 0.000000 

0.000000 0.000000 0.000000 
0.000000 0.000000 0.000000 
0.000000 0.000000 0.000000 

-0.000000 0.000000 0.000000 
0.000000 -0.000000 0.000000 
0.000000 0.000000 0.000000 

0.000000 -0.000000 0.000000 
0.000000 0.000000 0.000000 
0.000000 0.000000 0.000000 

0.000000 -0.000000 0.000000 
0.000000 -0.000000 0.000000 
0.000000 0.000000 0.000000 

0.000000 0.000000 0.000000 
0.000000 0.000000 0.000000 
0.000000 0.000000 0.000000 

-0.000000 -0.000000 0.000000 
0.000000 -0.000000 0.000000 
0.000000 0.000000 0.000000 

0.000000 0.000000 0.000000 
0.000000 0.000000 0.000000 
0.000000 0.000000 0.000000 

0.000000 -0.000000 0.000000 
0.000000 0.000000 0.000000 
0.000000 0.000000 0.000000 

0.000000 -0.000000 0.000000 
0.000000 0.000000 0.000000 
0.000000 0.000000 0.000000 

-0.000000 0.000000 0.000000 
0.000000 -0.000000 0.000000 
0.000000 0.000000 0.000000 

0.000000 0.000000 0.000000 
0.000000 0.000000 0.000000 
0.000000 0.000000 0.000000 

-0.000000 -0.000000 0.000000 
0.000000 -0.000000 0.000000 
0.000000 0.000000 0.000000 

-0.000000 -0.000000 0.000000 
0.000000 0.000000 0.000000 
0.000000 0.000000 0.000000 

0.000000 -0.000000 0.000000 
0.000000 0.000000 0.000000 
0.000000 0.000000 0.000000 

0.000000 0.000000 0.000000 
0.000000 0.000000 0.000000 
0.000000 0.000000 0.000000 

0.000000 0.000000 0.000000 
0.000000 0.000000 0.000000 
0.000000 0.000000 0.000000 

0.000000 0.000000 0.000000 
0.000000 0.000000 0.000000 
0.000000 0.000000 0.000000 

-0.000000 -0.000000 0.000000 
0.000000 -0.000000 0.000000 
0.000000 0.000000 0.000000 

-0.000000 -0.000000 0.000000 
0.000000 -0.000000 0.000000 
0.000000 0.000000 0.000000 

0.000000 -0.000000 0.000000 
0.000000 0.000000 0.000000 
0.000000 0.000000 0.000000 

0.000000 -0.000000 0.000000 
0.000000 0.000000 0.000000 
0.000000 0.000000 0.000000 

-0.000000 0.000000 0.000000 
0.000000 -0.000000 0.000000 
0.000000 0.000000 0.000000 

0.000000 0.000000 0.000000 
0.000000 0.000000 0.000000 
0.000000 0.000000 0.000000 

0.000000 0.000000 0.000000 
0.000000 0.000000 0.000000 
0.000000 0.000000 0.000000 

-0.000000 -0.000000 0.000000 
0.000000 -0.000000 0.000000 
0.000000 0.000000 0.000000 

0.000000 0.000000 0.000000 
0.000000 0.000000 0.000000 
0.000000 0.000000 0.000000 

0.000000 -0.000000 0.000000 
0.000000 0.000000 0.000000 
0.000000 0.000000 0.000000 

0.000000 -0.000000 0.000000 
0.000000 0.000000 0.000000 
0.000000 0.000000 0.000000 

0.000000 -0.000000 0.000000 
0.000000 0.000000 0.000000 
0.000000 0.000000 0.000000 

0.000000 -0.000000 0.000000 
0.000000 0.000000 0.000000 
0.000000 0.000000 0.000000 

-0.000000 -0.000000 0.000000 
0.000000 -0.000000 0.000000 
0.000000 0.000000 0.000000 

-0.000000 -0.000000 0.000000 
0.000000 -0.000000 0.000000 
0.000000 0.000000 0.000000 

-0.000000 -0.000000 0.000000 
0.000000 -0.000000 0.000000 
0.000000 0.000000 0.000000 

0.000000 -0.000000 0.000000 
0.000000 0.000000 0.000000 
0.000000 0.000000 0.000000 

-0.000000 0.000000 0.000000 
0.000000 -0.000000 0.000000 
0.000000 0.000000 0.000000 

0.000000 -0.000000 0.000000 
0.000000 0.000000 0.000000 
0.000000 0.000000 0.000000 

-0.000000 -0.000000 0.000000 
0.000000 -0.000000 0.000000 
0.000000 0.000000 0.000000 

0.000000 -0.000000 0.000000 
0.000000 0.000000 0.000000 
0.000000 0.000000 0.000000 

0.000000 0.000000 0.000000 
0.000000 0.000000 0.000000 
0.000000 0.000000 0.000000 

0.000000 0.000000 0.000000 
0.000000 0.000000 0.000000 
0.000000 0.000000 0.000000 

0.000000 0.000000 0.000000 
0.000000 0.000000 0.000000 
0.000000 0.000000 0.000000 

-0.000000 -0.000000 0.000000 
0.000000 -0.000000 0.000000 
0.000000 0.000000 0.000000 

0.000000 0.000000 0.000000 
0.000000 0.000000 0.000000 
0.000000 0.000000 0.000000 

-0.000000 -0.000000 0.000000 
0.000000 -0.000000 0.000000 
0.000000 0.000000 0.000000 

-0.000000 -0.000000 0.000000 
0.000000 -0.000000 0.000000 
0.000000 0.000000 0.000000 

0.000000 -0.000000 0.000000 
0.000000 0.000000 0.000000 
0.000000 0.000000 0.000000 

0.000000 0.000000 0.000000 
0.000000 0.000000 0.000000 
0.000000 0.000000 0.000000 

0.000000 0.000000 0.000000 
0.000000 0.000000 0.000000 
0.000000 0.000000 0.000000 

-0.000000 0.000000 0.000000 
0.000000 0.000000 0.000000 
0.000000 0.000000 0.000000 

0.000000 0.000000 0.000000 
0.000000 0.000000 0.000000 
0.000000 0.000000 0.000000 

-0.000000 0.000000 0.000000 
0.000000 -0.000000 0.000000 
0.000000 0.000000 0.000000 

-0.000000 0.000000 0.000000 
0.000000 -0.000000 0.000000 
0.000000 0.000000 0.000000 

-0.000000 0.000000 0.000000 
0.000000 0.000000 0.000000 
0.000000 0.000000 0.000000 

0.000000 -0.000000 0.000000 
0.000000 0.000000 0.000000 
0.000000 0.000000 0.000000 

-0.000000 -0.000000 0.000000 
0.000000 0.000000 0.000000 
0.000000 0.000000 0.000000 

0.000000 0.000000 0.000000 
0.000000 0.000000 0.000000 
0.000000 0.000000 0.000000 

0.000000 -0.000000 0.000000 
0.000000 0.000000 0.000000 
0.000000 0.000000 0.000000 

0.000000 0.000000 0.000000 
0.000000 0.000000 0.000000 
0.000000 0.000000 0.000000 

-0.000000 0.000000 0.000000 
0.000000 -0.000000 0.000000 
0.000000 0.000000 0.000000 

0.000000 0.000000 0.000000 
0.000000 0.000000 0.000000 
0.000000 0.000000 0.000000 

0.000000 0.000000 0.000000 
0.000000 0.000000 0.000000 
0.000000 0.000000 0.000000 

-0.000000 0.000000 0.000000 
0.000000 0.000000 0.000000 
0.000000 0.000000 0.000000 

-0.000000 0.000000 0.000000 
0.000000 0.000000 0.000000 
0.000000 0.000000 0.000000 

-0.000000 0.000000 0.000000 
0.000000 0.000000 0.000000 
0.000000 0.000000 0.000000 

0.000000 0.000000 0.000000 
0.000000 0.000000 0.000000 
0.000000 0.000000 0.000000 

0.000000 0.000000 0.000000 
0.000000 0.000000 0.000000 
0.000000 0.000000 0.000000 

0.000000 -0.000000 0.000000 
0.000000 0.000000 0.000000 
0.000000 0.000000 0.000000 

-0.000000 -0.000000 0.000000 
0.000000 0.000000 0.000000 
0.000000 0.000000 0.000000 

-0.000000 -0.000000 0.000000 
0.000000 0.000000 0.000000 
0.000000 0.000000 0.000000 

-0.000000 -0.000000 0.000000 
0.000000 -0.000000 0.000000 
0.000000 0.000000 0.000000 

-0.000000 -0.000000 0.000000 
0.000000 -0.000000 0.000000 
0.000000 0.000000 0.000000 

-0.000000 0.000000 0.000000 
0.000000 0.000000 0.000000 
0.000000 0.000000 0.000000 

0.000000 -0.000000 0.000000 
0.000000 0.000000 0.000000 
0.000000 0.000000 0.000000 

-0.000000 -0.000000 0.000000 
0.000000 -0.000000 0.000000 
0.000000 0.000000 0.000000 

-0.000000 -0.000000 0.000000 
0.000000 -0.000000 0.000000 
0.000000 0.000000 0.000000 

-0.000000 -0.000000 0.000000 
0.000000 0.000000 0.000000 
0.000000 0.000000 0.000000 

0.000000 -0.000000 0.000000 
0.000000 0.000000 0.000000 
0.000000 0.000000 0.000000 

-0.000000 0.000000 0.000000 
0.000000 -0.000000 0.000000 
0.000000 0.000000 0.000000 

-0.000000 0.000000 0.000000 
0.000000 -0.000000 0.000000 
0.000000 0.000000 0.000000 

-0.000000 0.000000 0.000000 
0.000000 -0.000000 0.000000 
0.000000 0.000000 0.000000 

TENSORS STRAIN float 
0.000000 0.000000 0.000000 
0.000000 0.000000 0.000000 
0.000000 0.000000 0.000000 

-0.000000 0.000000 0.000000 
0.000000 0.000000 0.000000 
0.000000 0.000000 0.000000 

0.000000 -0.000000 0.000000 
0.000000 -0.000000 0.000000 
0.000000 0.000000 0.000000 

0.000000 -0.000000 0.000000 
0.000000 -0.000000 0.000000 
0.000000 0.000000 0.000000 

0.000000 -0.000000 0.000000 
0.000000 -0.000000 0.000000 
0.000000 0.000000 0.000000 

0.000000 -0.000000 0.000000 
0.000000 0.000000 0.000000 
0.000000 0.000000 0.000000 

0.000000 0.000000 0.000000 
0.000000 -0.000000 0.000000 
0.000000 0.000000 0.000000 

-0.000000 -0.000000 0.000000 
0.000000 0.000000 0.000000 
0.000000 0.000000 0.000000 

-0.000000 0.000000 0.000000 
0.000000 -0.000000 0.000000 
0.000000 0.000000 0.000000 

-0.000000 0.000000 0.000000 
0.000000 -0.000000 0.000000 
0.000000 0.000000 0.000000 

0.000000 -0.000000 0.000000 
0.000000 -0.000000 0.000000 
0.000000 0.000000 0.000000 

0.000000 0.000000 0.000000 
0.000000 -0.000000 0.000000 
0.000000 0.000000 0.000000 

0.000000 0.000000 0.000000 
0.000000 -0.000000 0.000000 
0.000000 0.000000 0.000000 

-0.000000 -0.000000 0.000000 
0.000000 0.000000 0.000000 
0.000000 0.000000 0.000000 

0.000000 0.000000 0.000000 
0.000000 -0.000000 0.000000 
0.000000 0.000000 0.000000 

0.000000 0.000000 0.000000 
0.000000 0.000000 0.000000 
0.000000 0.000000 0.000000 

0.000000 -0.000000 0.000000 
0.000000 0.000000 0.000000 
0.000000 0.000000 0.000000 

0.000000 0.000000 0.000000 
0.000000 -0.000000 0.000000 
0.000000 0.000000 0.000000 

-0.000000 0.000000 0.000000 
0.000000 -0.000000 0.000000 
0.000000 0.000000 0.000000 

-0.000000 0.000000 0.000000 
0.000000 -0.000000 0.000000 
0.000000 0.000000 0.000000 

0.000000 0.000000 0.000000 
0.000000 0.000000 0.000000 
0.000000 0.000000 0.000000 

-0.000000 0.000000 0.000000 
0.000000 0.000000 0.000000 
0.000000 0.000000 0.000000 

0.000000 0.000000 0.000000 
0.000000 -0.000000 0.000000 
0.000000 0.000000 0.000000 

0.000000 -0.000000 0.000000 
0.000000 0.000000 0.000000 
0.000000 0.000000 0.000000 

-0.000000 0.000000 0.000000 
0.000000 0.000000 0.000000 
0.000000 0.000000 0.000000 

0.000000 0.000000 0.000000 
0.000000 0.000000 0.000000 
0.000000 0.000000 0.000000 

-0.000000 0.000000 0.000000 
0.000000 0.000000 0.000000 
0.000000 0.000000 0.000000 

-0.000000 0.000000 0.000000 
0.000000 0.000000 0.000000 
0.000000 0.000000 0.000000 

-0.000000 0.000000 0.000000 
0.000000 -0.000000 0.000000 
0.000000 0.000000 0.000000 

0.000000 0.000000 0.000000 
0.000000 -0.000000 0.000000 
0.000000 0.000000 0.000000 

-0.000000 0.000000 0.000000 
0.000000 -0.000000 0.000000 
0.000000 0.000000 0.000000 

0.000000 -0.000000 0.000000 
0.000000 -0.000000 0.000000 
0.000000 0.000000 0.000000 

-0.000000 -0.000000 0.000000 
0.000000 0.000000 0.000000 
0.000000 0.000000 0.000000 

-0.000000 -0.000000 0.000000 
0.000000 0.000000 0.000000 
0.000000 0.000000 0.000000 

0.000000 -0.000000 0.000000 
0.000000 -0.000000 0.000000 
0.000000 0.000000 0.000000 

0.000000 0.000000 0.000000 
0.000000 0.000000 0.000000 
0.000000 0.000000 0.000000 

0.000000 -0.000000 0.000000 
0.000000 -0.000000 0.000000 
0.000000 0.000000 0.000000 

0.000000 0.000000 0.000000 
0.000000 -0.000000 0.000000 
0.000000 0.000000 0.000000 

0.000000 -0.000000 0.000000 
0.000000 0.000000 0.000000 
0.000000 0.000000 0.000000 

0.000000 -0.000000 0.000000 
0.000000 -0.000000 0.000000 
0.000000 0.000000 0.000000 

-0.000000 -0.000000 0.000000 
0.000000 -0.000000 0.000000 
0.000000 0.000000 0.000000 

0.000000 0.000000 0.000000 
0.000000 -0.000000 0.000000 
0.000000 0.000000 0.000000 

0.000000 0.000000 0.000000 
0.000000 0.000000 0.000000 
0.000000 0.000000 0.000000 

-0.000000 -0.000000 0.000000 
0.000000 0.000000 0.000000 
0.000000 0.000000 0.000000 

0.000000 0.000000 0.000000 
0.000000 0.000000 0.000000 
0.000000 0.000000 0.000000 

0.000000 0.000000 0.000000 
0.000000 -0.000000 0.000000 
0.000000 0.000000 0.000000 

0.000000 0.000000 0.000000 
0.000000 -0.000000 0.000000 
0.000000 0.000000 0.000000 

0.000000 -0.000000 0.000000 
0.000000 -0.000000 0.000000 
0.000000 0.000000 0.000000 

-0.000000 -0.000000 0.000000 
0.000000 -0.000000 0.000000 
0.000000 0.000000 0.000000 

-0.000000 0.000000 0.000000 
0.000000 -0.000000 0.000000 
0.000000 0.000000 0.000000 

-0.000000 -0.000000 0.000000 
0.000000 0.000000 0.000000 
0.000000 0.000000 0.000000 

0.000000 -0.000000 0.000000 
0.000000 -0.000000 0.000000 
0.000000 0.000000 0.000000 

0.000000 -0.000000 0.000000 
0.000000 -0.000000 0.000000 
0.000000 0.000000 0.000000 

0.000000 0.000000 0.000000 
0.000000 -0.000000 0.000000 
0.000000 0.000000 0.000000 

-0.000000 -0.000000 0.000000 
0.000000 -0.000000 0.000000 
0.000000 0.000000 0.000000 

-0.000000 0.000000 0.000000 
0.000000 -0.000000 0.000000 
0.000000 0.000000 0.000000 

0.000000 0.000000 0.000000 
0.000000 0.000000 0.000000 
0.000000 0.000000 0.000000 

0.000000 -0.000000 0.000000 
0.000000 -0.000000 0.000000 
0.000000 0.000000 0.000000 

0.000000 0.000000 0.000000 
0.000000 0.000000 0.000000 
0.000000 0.000000 0.000000 

-0.000000 0.000000 0.000000 
0.000000 0.000000 0.000000 
0.000000 0.000000 0.000000 

-0.000000 -0.000000 0.000000 
0.000000 0.000000 0.000000 
0.000000 0.000000 0.000000 

-0.000000 0.000000 0.000000 
0.000000 0.000000 0.000000 
0.000000 0.000000 0.000000 

0.000000 0.000000 0.000000 
0.000000 -0.000000 0.000000 
0.000000 0.000000 0.000000 

0.000000 -0.000000 0.000000 
0.000000 -0.000000 0.000000 
0.000000 0.000000 0.000000 

0.000000 -0.000000 0.000000 
0.000000 -0.000000 0.000000 
0.000000 0.000000 0.000000 

0.000000 -0.000000 0.000000 
0.000000 -0.000000 0.000000 
0.000000 0.000000 0.000000 

0.000000 0.000000 0.000000 
0.000000 0.000000 0.000000 
0.000000 0.000000 0.000000 

0.000000 0.000000 0.000000 
0.000000 0.000000 0.000000 
0.000000 0.000000 0.000000 

0.000000 0.000000 0.000000 
0.000000 -0.000000 0.000000 
0.000000 0.000000 0.000000 

0.000000 0.000000 0.000000 
0.000000 0.000000 0.000000 
0.000000 0.000000 0.000000 

0.000000 0.000000 0.000000 
0.000000 0.000000 0.000000 
0.000000 0.000000 0.000000 

0.000000 -0.000000 0.000000 
0.000000 -0.000000 0.000000 
0.000000 0.000000 0.000000 

-0.000000 -0.000000 0.000000 
0.000000 0.000000 0.000000 
0.000000 0.000000 0.000000 

0.000000 -0.000000 0.000000 
0.000000 -0.000000 0.000000 
0.000000 0.000000 0.000000 

0.000000 -0.000000 0.000000 
0.000000 0.000000 0.000000 
0.000000 0.000000 0.000000 

-0.000000 -0.000000 0.000000 
0.000000 0.000000 0.000000 
0.000000 0.000000 0.000000 

-0.000000 -0.000000 0.000000 
0.000000 -0.000000 0.000000 
0.000000 0.000000 0.000000 

-0.000000 -0.000000 0.000000 
0.000000 0.000000 0.000000 
0.000000 0.000000 0.000000 

-0.000000 -0.000000 0.000000 
0.000000 0.000000 0.000000 
0.000000 0.000000 0.000000 

0.000000 -0.000000 0.000000 
0.000000 -0.000000 0.000000 
0.000000 0.000000 0.000000 

0.000000 0.000000 0.000000 
0.000000 0.000000 0.000000 
0.000000 0.000000 0.000000 

0.000000 0.000000 0.000000 
0.000000 0.000000 0.000000 
0.000000 0.000000 0.000000 

0.000000 0.000000 0.000000 
0.000000 0.000000 0.000000 
0.000000 0.000000 0.000000 

-0.000000 -0.000000 0.000000 
0.000000 0.000000 0.000000 
0.000000 0.000000 0.000000 

-0.000000 0.000000 0.000000 
0.000000 0.000000 0.000000 
0.000000 0.000000 0.000000 

0.000000 0.000000 0.000000 
0.000000 -0.000000 0.000000 
0.000000 0.000000 0.000000 

0.000000 0.000000 0.000000 
0.000000 0.000000 0.000000 
0.000000 0.000000 0.000000 

0.000000 -0.000000 0.000000 
0.000000 -0.000000 0.000000 
0.000000 0.000000 0.000000 

0.000000 0.000000 0.000000 
0.000000 -0.000000 0.000000 
0.000000 0.000000 0.000000 

-0.000000 -0.000000 0.000000 
0.000000 -0.000000 0.000000 
0.000000 0.000000 0.000000 

0.000000 -0.000000 0.000000 
0.000000 0.000000 0.000000 
0.000000 0.000000 0.000000 

-0.000000 -0.000000 0.000000 
0.000000 -0.000000 0.000000 
0.000000 0.000000 0.000000 

-0.000000 -0.000000 0.000000 
0.000000 0.000000 0.000000 
0.000000 0.000000 0.000000 

-0.000000 0.000000 0.000000 
0.000000 0.000000 0.000000 
0.000000 0.000000 0.000000 

0.000000 0.000000 0.000000 
0.000000 0.000000 0.000000 
0.000000 0.000000 0.000000 

0.000000 0.000000 0.000000 
0.000000 0.000000 0.000000 
0.000000 0.000000 0.000000 

0.000000 0.000000 0.000000 
0.000000 -0.000000 0.000000 
0.000000 0.000000 0.000000 

0.000000 -0.000000 0.000000 
0.000000 0.000000 0.000000 
0.000000 0.000000 0.000000 

0.000000 -0.000000 0.000000 
0.000000 -0.000000 0.000000 
0.000000 0.000000 0.000000 

0.000000 0.000000 0.000000 
0.000000 -0.000000 0.000000 
0.000000 0.000000 0.000000 

-0.000000 -0.000000 0.000000 
0.000000 -0.000000 0.000000 
0.000000 0.000000 0.000000 

0.000000 0.000000 0.000000 
0.000000 0.000000 0.000000 
0.000000 0.000000 0.000000 

0.000000 -0.000000 0.000000 
0.000000 0.000000 0.000000 
0.000000 0.000000 0.000000 

0.000000 -0.000000 0.000000 
0.000000 0.000000 0.000000 
0.000000 0.000000 0.000000 

0.000000 0.000000 0.000000 
0.000000 -0.000000 0.000000 
0.000000 0.000000 0.000000 

0.000000 0.000000 0.000000 
0.000000 0.000000 0.000000 
0.000000 0.000000 0.000000 

-0.000000 -0.000000 0.000000 
0.000000 -0.000000 0.000000 
0.000000 0.000000 0.000000 

-0.000000 -0.000000 0.000000 
0.000000 0.000000 0.000000 
0.000000 0.000000 0.000000 

0.000000 -0.000000 0.000000 
0.000000 0.000000 0.000000 
0.000000 0.000000 0.000000 

0.000000 0.000000 0.000000 
0.000000 -0.000000 0.000000 
0.000000 0.000000 0.000000 

0.000000 0.000000 0.000000 
0.000000 0.000000 0.000000 
0.000000 0.000000 0.000000 

-0.000000 0.000000 0.000000 
0.000000 0.000000 0.000000 
0.000000 0.000000 0.000000 

-0.000000 -0.000000 0.000000 
0.000000 -0.000000 0.000000 
0.000000 0.000000 0.000000 

-0.000000 -0.000000 0.000000 
0.000000 -0.000000 0.000000 
0.000000 0.000000 0.000000 

0.000000 -0.000000 0.000000 
0.000000 0.000000 0.000000 
0.000000 0.000000 0.000000 

0.000000 -0.000000 0.000000 
0.000000 0.000000 0.000000 
0.000000 0.000000 0.000000 

-0.000000 0.000000 0.000000 
0.000000 0.000000 0.000000 
0.000000 0.000000 0.000000 

0.000000 0.000000 0.000000 
0.000000 0.000000 0.000000 
0.000000 0.000000 0.000000 

0.000000 0.000000 0.000000 
0.000000 0.000000 0.000000 
0.000000 0.000000 0.000000 

-0.000000 -0.000000 0.000000 
0.000000 -0.000000 0.000000 
0.000000 0.000000 0.000000 

-0.000000 0.000000 0.000000 
0.000000 0.000000 0.000000 
0.000000 0.000000 0.000000 

-0.000000 -0.000000 0.000000 
0.000000 0.000000 0.000000 
0.000000 0.000000 0.000000 

0.000000 -0.000000 0.000000 
0.000000 0.000000 0.000000 
0.000000 0.000000 0.000000 

0.000000 -0.000000 0.000000 
0.000000 0.000000 0.000000 
0.000000 0.000000 0.000000 

-0.000000 -0.000000 0.000000 
0.000000 0.000000 0.000000 
0.000000 0.000000 0.000000 

0.000000 -0.000000 0.000000 
0.000000 -0.000000 0.000000 
0.000000 0.000000 0.000000 

-0.000000 -0.000000 0.000000 
0.000000 -0.000000 0.000000 
0.000000 0.000000 0.000000 

-0.000000 -0.000000 0.000000 
0.000000 -0.000000 0.000000 
0.000000 0.000000 0.000000 

0.000000 -0.000000 0.000000 
0.000000 0.000000 0.000000 
0.000000 0.000000 0.000000 

-0.000000 0.000000 0.000000 
0.000000 0.000000 0.000000 
0.000000 0.000000 0.000000 

-0.000000 -0.000000 0.000000 
0.000000 0.000000 0.000000 
0.000000 0.000000 0.000000 

-0.000000 -0.000000 0.000000 
0.000000 0.000000 0.000000 
0.000000 0.000000 0.000000 

-0.000000 -0.000000 0.000000 
0.000000 0.000000 0.000000 
0.000000 0.000000 0.000000 

0.000000 0.000000 0.000000 
0.000000 0.000000 0.000000 
0.000000 0.000000 0.000000 

0.000000 0.000000 0.000000 
0.000000 0.000000 0.000000 
0.000000 0.000000 0.000000 

0.000000 0.000000 0.000000 
0.000000 0.000000 0.000000 
0.000000 0.000000 0.000000 

0.000000 -0.000000 0.000000 
0.000000 -0.000000 0.000000 
0.000000 0.000000 0.000000 

-0.000000 0.000000 0.000000 
0.000000 0.000000 0.000000 
0.000000 0.000000 0.000000 

-0.000000 -0.000000 0.000000 
0.000000 -0.000000 0.000000 
0.000000 0.000000 0.000000 

-0.000000 -0.000000 0.000000 
0.000000 -0.000000 0.000000 
0.000000 0.000000 0.000000 

0.000000 -0.000000 0.000000 
0.000000 0.000000 0.000000 
0.000000 0.000000 0.000000 

-0.000000 0.000000 0.000000 
0.000000 0.000000 0.000000 
0.000000 0.000000 0.000000 

0.000000 0.000000 0.000000 
0.000000 0.000000 0.000000 
0.000000 0.000000 0.000000 

-0.000000 0.000000 0.000000 
0.000000 0.000000 0.000000 
0.000000 0.000000 0.000000 

-0.000000 0.000000 0.000000 
0.000000 0.000000 0.000000 
0.000000 0.000000 0.000000 

-0.000000 0.000000 0.000000 
0.000000 -0.000000 0.000000 
0.000000 0.000000 0.000000 

-0.000000 0.000000 0.000000 
0.000000 -0.000000 0.000000 
0.000000 0.000000 0.000000 

-0.000000 0.000000 0.000000 
0.000000 0.000000 0.000000 
0.000000 0.000000 0.000000 

-0.000000 -0.000000 0.000000 
0.000000 0.000000 0.000000 
0.000000 0.000000 0.000000 

-0.000000 -0.000000 0.000000 
0.000000 0.000000 0.000000 
0.000000 0.000000 0.000000 

0.000000 0.000000 0.000000 
0.000000 0.000000 0.000000 
0.000000 0.000000 0.000000 

0.000000 -0.000000 0.000000 
0.000000 0.000000 0.000000 
0.000000 0.000000 0.000000 

0.000000 0.000000 0.000000 
0.000000 -0.000000 0.000000 
0.000000 0.000000 0.000000 

-0.000000 0.000000 0.000000 
0.000000 -0.000000 0.000000 
0.000000 0.000000 0.000000 

-0.000000 0.000000 0.000000 
0.000000 0.000000 0.000000 
0.000000 0.000000 0.000000 

-0.000000 0.000000 0.000000 
0.000000 0.000000 0.000000 
0.000000 0.000000 0.000000 

-0.000000 0.000000 0.000000 
0.000000 0.000000 0.000000 
0.000000 0.000000 0.000000 

-0.000000 0.000000 0.000000 
0.000000 0.000000 0.000000 
0.000000 0.000000 0.000000 

-0.000000 0.000000 0.000000 
0.000000 0.000000 0.000000 
0.000000 0.000000 0.000000 

0.000000 0.000000 0.000000 
0.000000 0.000000 0.000000 
0.000000 0.000000 0.000000 

0.000000 0.000000 0.000000 
0.000000 0.000000 0.000000 
0.000000 0.000000 0.000000 

-0.000000 -0.000000 0.000000 
0.000000 0.000000 0.000000 
0.000000 0.000000 0.000000 

-0.000000 -0.000000 0.000000 
0.000000 0.000000 0.000000 
0.000000 0.000000 0.000000 

-0.000000 -0.000000 0.000000 
0.000000 0.000000 0.000000 
0.000000 0.000000 0.000000 

-0.000000 -0.000000 0.000000 
0.000000 0.000000 0.000000 
0.000000 0.000000 0.000000 

0.000000 -0.000000 0.000000 
0.000000 -0.000000 0.000000 
0.000000 0.000000 0.000000 

-0.000000 0.000000 0.000000 
0.000000 0.000000 0.000000 
0.000000 0.000000 0.000000 

0.000000 -0.000000 0.000000 
0.000000 0.000000 0.000000 
0.000000 0.000000 0.000000 

0.000000 -0.000000 0.000000 
0.000000 -0.000000 0.000000 
0.000000 0.000000 0.000000 

-0.000000 -0.000000 0.000000 
0.000000 -0.000000 0.000000 
0.000000 0.000000 0.000000 

-0.000000 -0.000000 0.000000 
0.000000 0.000000 0.000000 
0.000000 0.000000 0.000000 

-0.000000 -0.000000 0.000000 
0.000000 0.000000 0.000000 
0.000000 0.000000 0.000000 

-0.000000 0.000000 0.000000 
0.000000 0.000000 0.000000 
0.000000 0.000000 0.000000 

-0.000000 0.000000 0.000000 
0.000000 -0.000000 0.000000 
0.000000 0.000000 0.000000 

-0.000000 0.000000 0.000000 
0.000000 0.000000 0.000000 
0.000000 0.000000 0.000000 

