# vtk DataFile Version 3.0 
vtk output 
ASCII 
DATASET UNSTRUCTURED_GRID 
POINTS 175 float 
-0.026061 -0.933680 0.000000 
-0.106992 -0.865624 0.000000 
-0.054870 -0.873857 0.000000 
-0.028809 -0.827973 0.000000 
-0.186430 -0.801549 0.000000 
-0.137056 -0.804075 0.000000 
-0.114311 -0.750428 0.000000 
-0.058186 -0.766093 0.000000 
-0.029377 -0.725916 0.000000 
-0.265318 -0.738393 0.000000 
-0.217198 -0.739193 0.000000 
-0.196633 -0.681896 0.000000 
-0.143120 -0.690605 0.000000 
-0.116563 -0.643336 0.000000 
-0.058945 -0.662982 0.000000 
-0.029568 -0.624862 0.000000 
-0.344206 -0.675237 0.000000 
-0.296791 -0.675230 0.000000 
-0.278030 -0.615287 0.000000 
-0.225992 -0.621154 0.000000 
-0.201664 -0.569037 0.000000 
-0.145749 -0.582511 0.000000 
-0.117890 -0.538168 0.000000 
-0.059328 -0.560874 0.000000 
-0.029759 -0.523808 0.000000 
-0.058559 -0.974430 0.000000 
-0.162226 -0.995273 0.000000 
-0.123292 -0.959655 0.000000 
-0.142917 -0.910672 0.000000 
-0.261851 -1.017429 0.000000 
-0.229092 -0.980402 0.000000 
-0.256854 -0.929171 0.000000 
-0.209613 -0.895058 0.000000 
-0.223062 -0.847484 0.000000 
-0.360414 -1.039730 0.000000 
-0.329787 -1.002607 0.000000 
-0.361761 -0.950805 0.000000 
-0.321587 -0.914396 0.000000 
-0.341985 -0.864162 0.000000 
-0.290702 -0.831363 0.000000 
-0.302189 -0.784628 0.000000 
-0.458977 -1.062030 0.000000 
-0.429420 -1.024955 0.000000 
-0.464588 -0.972913 0.000000 
-0.427556 -0.935886 0.000000 
-0.453135 -0.884371 0.000000 
-0.407738 -0.849056 0.000000 
-0.425037 -0.799628 0.000000 
-0.370772 -0.767999 0.000000 
-0.381315 -0.721771 0.000000 
-0.046960 -1.025246 0.000000 
-0.095301 -1.119292 0.000000 
-0.098873 -1.066644 0.000000 
-0.149405 -1.051447 0.000000 
-0.140093 -1.210996 0.000000 
-0.148617 -1.162297 0.000000 
-0.205981 -1.152060 0.000000 
-0.203197 -1.093857 0.000000 
-0.248777 -1.074710 0.000000 
-0.184111 -1.301959 0.000000 
-0.194039 -1.254868 0.000000 
-0.254475 -1.247569 0.000000 
-0.257893 -1.193459 0.000000 
-0.309886 -1.178086 0.000000 
-0.303554 -1.117541 0.000000 
-0.347255 -1.097383 0.000000 
-0.228129 -1.392923 0.000000 
-0.238687 -1.346699 0.000000 
-0.301302 -1.341746 0.000000 
-0.307162 -1.289708 0.000000 
-0.363386 -1.277587 0.000000 
-0.362692 -1.220075 0.000000 
-0.412122 -1.202782 0.000000 
-0.403017 -1.140635 0.000000 
-0.445733 -1.120057 0.000000 
-0.000000 -1.047861 0.000000 
0.043388 -1.144291 0.000000 
-0.000000 -1.114259 0.000000 
-0.043388 -1.144291 0.000000 
0.087158 -1.236488 0.000000 
0.043769 -1.212789 0.000000 
-0.000000 -1.251255 0.000000 
-0.043769 -1.212789 0.000000 
-0.087158 -1.236488 0.000000 
0.130831 -1.327618 0.000000 
0.087824 -1.306019 0.000000 
0.044436 -1.348718 0.000000 
-0.000000 -1.317653 0.000000 
-0.044436 -1.348718 0.000000 
-0.087824 -1.306019 0.000000 
-0.130831 -1.327618 0.000000 
0.174505 -1.418747 0.000000 
0.131782 -1.398181 0.000000 
0.088871 -1.444048 0.000000 
0.044532 -1.416184 0.000000 
-0.000000 -1.452584 0.000000 
-0.044532 -1.416184 0.000000 
-0.088871 -1.444048 0.000000 
-0.131782 -1.398181 0.000000 
-0.174505 -1.418747 0.000000 
0.046960 -1.025246 0.000000 
0.149405 -1.051447 0.000000 
0.098873 -1.066644 0.000000 
0.095301 -1.119292 0.000000 
0.248777 -1.074710 0.000000 
0.203197 -1.093857 0.000000 
0.205981 -1.152060 0.000000 
0.148617 -1.162297 0.000000 
0.140093 -1.210996 0.000000 
0.347255 -1.097383 0.000000 
0.303554 -1.117541 0.000000 
0.309886 -1.178086 0.000000 
0.257893 -1.193459 0.000000 
0.254475 -1.247569 0.000000 
0.194039 -1.254868 0.000000 
0.184111 -1.301959 0.000000 
0.445733 -1.120057 0.000000 
0.403017 -1.140635 0.000000 
0.412122 -1.202782 0.000000 
0.362692 -1.220075 0.000000 
0.363386 -1.277587 0.000000 
0.307162 -1.289708 0.000000 
0.301302 -1.341746 0.000000 
0.238687 -1.346699 0.000000 
0.228129 -1.392923 0.000000 
0.058559 -0.974430 0.000000 
0.142917 -0.910672 0.000000 
0.123292 -0.959655 0.000000 
0.162226 -0.995273 0.000000 
0.223062 -0.847484 0.000000 
0.209613 -0.895058 0.000000 
0.256854 -0.929171 0.000000 
0.229092 -0.980402 0.000000 
0.261851 -1.017429 0.000000 
0.302189 -0.784628 0.000000 
0.290702 -0.831363 0.000000 
0.341985 -0.864162 0.000000 
0.321587 -0.914396 0.000000 
0.361761 -0.950805 0.000000 
0.329787 -1.002607 0.000000 
0.360414 -1.039730 0.000000 
0.381315 -0.721771 0.000000 
0.370772 -0.767999 0.000000 
0.425037 -0.799628 0.000000 
0.407738 -0.849056 0.000000 
0.453135 -0.884371 0.000000 
0.427556 -0.935886 0.000000 
0.464588 -0.972913 0.000000 
0.429420 -1.024955 0.000000 
0.458977 -1.062030 0.000000 
0.026061 -0.933680 0.000000 
0.028809 -0.827973 0.000000 
0.054870 -0.873857 0.000000 
0.106992 -0.865624 0.000000 
0.029377 -0.725916 0.000000 
0.058186 -0.766093 0.000000 
0.114311 -0.750428 0.000000 
0.137056 -0.804075 0.000000 
0.186430 -0.801549 0.000000 
0.029568 -0.624862 0.000000 
0.058945 -0.662982 0.000000 
0.116563 -0.643336 0.000000 
0.143120 -0.690605 0.000000 
0.196633 -0.681896 0.000000 
0.217198 -0.739193 0.000000 
0.265318 -0.738393 0.000000 
0.029759 -0.523808 0.000000 
0.059328 -0.560874 0.000000 
0.117890 -0.538168 0.000000 
0.145749 -0.582511 0.000000 
0.201664 -0.569037 0.000000 
0.225992 -0.621154 0.000000 
0.278030 -0.615287 0.000000 
0.296791 -0.675230 0.000000 
0.344206 -0.675237 0.000000 
CELLS 175 350 
1 0 
1 1 
1 2 
1 3 
1 4 
1 5 
1 6 
1 7 
1 8 
1 9 
1 10 
1 11 
1 12 
1 13 
1 14 
1 15 
1 16 
1 17 
1 18 
1 19 
1 20 
1 21 
1 22 
1 23 
1 24 
1 25 
1 26 
1 27 
1 28 
1 29 
1 30 
1 31 
1 32 
1 33 
1 34 
1 35 
1 36 
1 37 
1 38 
1 39 
1 40 
1 41 
1 42 
1 43 
1 44 
1 45 
1 46 
1 47 
1 48 
1 49 
1 50 
1 51 
1 52 
1 53 
1 54 
1 55 
1 56 
1 57 
1 58 
1 59 
1 60 
1 61 
1 62 
1 63 
1 64 
1 65 
1 66 
1 67 
1 68 
1 69 
1 70 
1 71 
1 72 
1 73 
1 74 
1 75 
1 76 
1 77 
1 78 
1 79 
1 80 
1 81 
1 82 
1 83 
1 84 
1 85 
1 86 
1 87 
1 88 
1 89 
1 90 
1 91 
1 92 
1 93 
1 94 
1 95 
1 96 
1 97 
1 98 
1 99 
1 100 
1 101 
1 102 
1 103 
1 104 
1 105 
1 106 
1 107 
1 108 
1 109 
1 110 
1 111 
1 112 
1 113 
1 114 
1 115 
1 116 
1 117 
1 118 
1 119 
1 120 
1 121 
1 122 
1 123 
1 124 
1 125 
1 126 
1 127 
1 128 
1 129 
1 130 
1 131 
1 132 
1 133 
1 134 
1 135 
1 136 
1 137 
1 138 
1 139 
1 140 
1 141 
1 142 
1 143 
1 144 
1 145 
1 146 
1 147 
1 148 
1 149 
1 150 
1 151 
1 152 
1 153 
1 154 
1 155 
1 156 
1 157 
1 158 
1 159 
1 160 
1 161 
1 162 
1 163 
1 164 
1 165 
1 166 
1 167 
1 168 
1 169 
1 170 
1 171 
1 172 
1 173 
1 174 
CELL_TYPES 175 
1 
1 
1 
1 
1 
1 
1 
1 
1 
1 
1 
1 
1 
1 
1 
1 
1 
1 
1 
1 
1 
1 
1 
1 
1 
1 
1 
1 
1 
1 
1 
1 
1 
1 
1 
1 
1 
1 
1 
1 
1 
1 
1 
1 
1 
1 
1 
1 
1 
1 
1 
1 
1 
1 
1 
1 
1 
1 
1 
1 
1 
1 
1 
1 
1 
1 
1 
1 
1 
1 
1 
1 
1 
1 
1 
1 
1 
1 
1 
1 
1 
1 
1 
1 
1 
1 
1 
1 
1 
1 
1 
1 
1 
1 
1 
1 
1 
1 
1 
1 
1 
1 
1 
1 
1 
1 
1 
1 
1 
1 
1 
1 
1 
1 
1 
1 
1 
1 
1 
1 
1 
1 
1 
1 
1 
1 
1 
1 
1 
1 
1 
1 
1 
1 
1 
1 
1 
1 
1 
1 
1 
1 
1 
1 
1 
1 
1 
1 
1 
1 
1 
1 
1 
1 
1 
1 
1 
1 
1 
1 
1 
1 
1 
1 
1 
1 
1 
1 
1 
1 
1 
1 
1 
1 
1 
POINT_DATA 175 
VECTORS X_GC float 
-0.026061 -0.933680 0.000000 
-0.106992 -0.865624 0.000000 
-0.054870 -0.873857 0.000000 
-0.028809 -0.827973 0.000000 
-0.186430 -0.801549 0.000000 
-0.137056 -0.804075 0.000000 
-0.114311 -0.750428 0.000000 
-0.058186 -0.766093 0.000000 
-0.029377 -0.725916 0.000000 
-0.265318 -0.738393 0.000000 
-0.217198 -0.739193 0.000000 
-0.196633 -0.681896 0.000000 
-0.143120 -0.690605 0.000000 
-0.116563 -0.643336 0.000000 
-0.058945 -0.662982 0.000000 
-0.029568 -0.624862 0.000000 
-0.344206 -0.675237 0.000000 
-0.296791 -0.675230 0.000000 
-0.278030 -0.615287 0.000000 
-0.225992 -0.621154 0.000000 
-0.201664 -0.569037 0.000000 
-0.145749 -0.582511 0.000000 
-0.117890 -0.538168 0.000000 
-0.059328 -0.560874 0.000000 
-0.029759 -0.523808 0.000000 
-0.058559 -0.974430 0.000000 
-0.162226 -0.995273 0.000000 
-0.123292 -0.959655 0.000000 
-0.142917 -0.910672 0.000000 
-0.261851 -1.017429 0.000000 
-0.229092 -0.980402 0.000000 
-0.256854 -0.929171 0.000000 
-0.209613 -0.895058 0.000000 
-0.223062 -0.847484 0.000000 
-0.360414 -1.039730 0.000000 
-0.329787 -1.002607 0.000000 
-0.361761 -0.950805 0.000000 
-0.321587 -0.914396 0.000000 
-0.341985 -0.864162 0.000000 
-0.290702 -0.831363 0.000000 
-0.302189 -0.784628 0.000000 
-0.458977 -1.062030 0.000000 
-0.429420 -1.024955 0.000000 
-0.464588 -0.972913 0.000000 
-0.427556 -0.935886 0.000000 
-0.453135 -0.884371 0.000000 
-0.407738 -0.849056 0.000000 
-0.425037 -0.799628 0.000000 
-0.370772 -0.767999 0.000000 
-0.381315 -0.721771 0.000000 
-0.046960 -1.025246 0.000000 
-0.095301 -1.119292 0.000000 
-0.098873 -1.066644 0.000000 
-0.149405 -1.051447 0.000000 
-0.140093 -1.210996 0.000000 
-0.148617 -1.162297 0.000000 
-0.205981 -1.152060 0.000000 
-0.203197 -1.093857 0.000000 
-0.248777 -1.074710 0.000000 
-0.184111 -1.301959 0.000000 
-0.194039 -1.254868 0.000000 
-0.254475 -1.247569 0.000000 
-0.257893 -1.193459 0.000000 
-0.309886 -1.178086 0.000000 
-0.303554 -1.117541 0.000000 
-0.347255 -1.097383 0.000000 
-0.228129 -1.392923 0.000000 
-0.238687 -1.346699 0.000000 
-0.301302 -1.341746 0.000000 
-0.307162 -1.289708 0.000000 
-0.363386 -1.277587 0.000000 
-0.362692 -1.220075 0.000000 
-0.412122 -1.202782 0.000000 
-0.403017 -1.140635 0.000000 
-0.445733 -1.120057 0.000000 
-0.000000 -1.047861 0.000000 
0.043388 -1.144291 0.000000 
-0.000000 -1.114259 0.000000 
-0.043388 -1.144291 0.000000 
0.087158 -1.236488 0.000000 
0.043769 -1.212789 0.000000 
-0.000000 -1.251255 0.000000 
-0.043769 -1.212789 0.000000 
-0.087158 -1.236488 0.000000 
0.130831 -1.327618 0.000000 
0.087824 -1.306019 0.000000 
0.044436 -1.348718 0.000000 
-0.000000 -1.317653 0.000000 
-0.044436 -1.348718 0.000000 
-0.087824 -1.306019 0.000000 
-0.130831 -1.327618 0.000000 
0.174505 -1.418747 0.000000 
0.131782 -1.398181 0.000000 
0.088871 -1.444048 0.000000 
0.044532 -1.416184 0.000000 
-0.000000 -1.452584 0.000000 
-0.044532 -1.416184 0.000000 
-0.088871 -1.444048 0.000000 
-0.131782 -1.398181 0.000000 
-0.174505 -1.418747 0.000000 
0.046960 -1.025246 0.000000 
0.149405 -1.051447 0.000000 
0.098873 -1.066644 0.000000 
0.095301 -1.119292 0.000000 
0.248777 -1.074710 0.000000 
0.203197 -1.093857 0.000000 
0.205981 -1.152060 0.000000 
0.148617 -1.162297 0.000000 
0.140093 -1.210996 0.000000 
0.347255 -1.097383 0.000000 
0.303554 -1.117541 0.000000 
0.309886 -1.178086 0.000000 
0.257893 -1.193459 0.000000 
0.254475 -1.247569 0.000000 
0.194039 -1.254868 0.000000 
0.184111 -1.301959 0.000000 
0.445733 -1.120057 0.000000 
0.403017 -1.140635 0.000000 
0.412122 -1.202782 0.000000 
0.362692 -1.220075 0.000000 
0.363386 -1.277587 0.000000 
0.307162 -1.289708 0.000000 
0.301302 -1.341746 0.000000 
0.238687 -1.346699 0.000000 
0.228129 -1.392923 0.000000 
0.058559 -0.974430 0.000000 
0.142917 -0.910672 0.000000 
0.123292 -0.959655 0.000000 
0.162226 -0.995273 0.000000 
0.223062 -0.847484 0.000000 
0.209613 -0.895058 0.000000 
0.256854 -0.929171 0.000000 
0.229092 -0.980402 0.000000 
0.261851 -1.017429 0.000000 
0.302189 -0.784628 0.000000 
0.290702 -0.831363 0.000000 
0.341985 -0.864162 0.000000 
0.321587 -0.914396 0.000000 
0.361761 -0.950805 0.000000 
0.329787 -1.002607 0.000000 
0.360414 -1.039730 0.000000 
0.381315 -0.721771 0.000000 
0.370772 -0.767999 0.000000 
0.425037 -0.799628 0.000000 
0.407738 -0.849056 0.000000 
0.453135 -0.884371 0.000000 
0.427556 -0.935886 0.000000 
0.464588 -0.972913 0.000000 
0.429420 -1.024955 0.000000 
0.458977 -1.062030 0.000000 
0.026061 -0.933680 0.000000 
0.028809 -0.827973 0.000000 
0.054870 -0.873857 0.000000 
0.106992 -0.865624 0.000000 
0.029377 -0.725916 0.000000 
0.058186 -0.766093 0.000000 
0.114311 -0.750428 0.000000 
0.137056 -0.804075 0.000000 
0.186430 -0.801549 0.000000 
0.029568 -0.624862 0.000000 
0.058945 -0.662982 0.000000 
0.116563 -0.643336 0.000000 
0.143120 -0.690605 0.000000 
0.196633 -0.681896 0.000000 
0.217198 -0.739193 0.000000 
0.265318 -0.738393 0.000000 
0.029759 -0.523808 0.000000 
0.059328 -0.560874 0.000000 
0.117890 -0.538168 0.000000 
0.145749 -0.582511 0.000000 
0.201664 -0.569037 0.000000 
0.225992 -0.621154 0.000000 
0.278030 -0.615287 0.000000 
0.296791 -0.675230 0.000000 
0.344206 -0.675237 0.000000 
VECTORS X_EC float 
0.338794 -0.895324 0.000000 
-0.609100 0.185928 0.000000 
0.713312 0.297069 0.000000 
0.374519 -0.322361 0.000000 
0.423588 -0.679091 0.000000 
-0.218274 -0.644988 0.000000 
-0.513962 0.630773 0.000000 
0.756418 0.842259 0.000000 
0.381900 0.299867 0.000000 
-0.550868 0.468305 0.000000 
0.823577 0.479101 0.000000 
0.556234 -0.294403 0.000000 
-0.139443 -0.176834 0.000000 
-0.484677 -0.814959 0.000000 
0.766286 -0.549744 0.000000 
0.384386 0.935636 0.000000 
0.474677 -0.384298 0.000000 
-0.141715 -0.384394 0.000000 
-0.385608 0.806378 0.000000 
0.937896 0.885573 0.000000 
0.621631 0.181993 0.000000 
-0.105264 0.363892 0.000000 
-0.467428 -0.234734 0.000000 
0.771260 0.071795 0.000000 
0.386873 -0.428595 0.000000 
0.761262 -0.345189 0.000000 
0.108942 -0.063813 0.000000 
-0.397202 -0.544652 0.000000 
-0.142083 0.794073 0.000000 
-0.595936 0.235298 0.000000 
0.978194 -0.264568 0.000000 
-0.660903 -0.956193 0.000000 
0.724964 0.583287 0.000000 
0.899809 -0.058962 0.000000 
0.685384 0.536350 0.000000 
0.287229 0.035192 0.000000 
0.702895 -0.664137 0.000000 
0.180633 0.844345 0.000000 
0.445811 0.166185 0.000000 
-0.220880 -0.276601 0.000000 
-0.071546 -0.907526 0.000000 
-0.033296 0.837402 0.000000 
-0.417537 0.336893 0.000000 
0.039645 -0.365670 0.000000 
-0.441768 -0.865541 0.000000 
-0.109248 0.439008 0.000000 
-0.699407 -0.037747 0.000000 
-0.474522 -0.705026 0.000000 
0.820030 0.867980 0.000000 
0.957100 0.243909 0.000000 
0.610485 0.340817 0.000000 
-0.761092 -0.389563 0.000000 
-0.714655 0.899699 0.000000 
-0.057734 0.694532 0.000000 
-0.178789 0.848441 0.000000 
-0.067979 0.191015 0.000000 
0.677748 0.052811 0.000000 
0.641556 -0.732934 0.000000 
-0.765897 -0.991413 0.000000 
0.393446 0.076450 0.000000 
0.522510 -0.559280 0.000000 
-0.691820 -0.657824 0.000000 
-0.647393 0.611693 0.000000 
0.028512 0.404166 0.000000 
-0.053800 -0.413194 0.000000 
0.514316 -0.685325 0.000000 
0.965681 -0.695541 0.000000 
-0.897068 0.680430 0.000000 
-0.083078 0.613577 0.000000 
-0.006893 -0.088947 0.000000 
0.724017 -0.252580 0.000000 
0.714996 0.971016 0.000000 
-0.642413 0.737559 0.000000 
-0.760780 -0.101422 0.000000 
-0.205471 -0.379237 0.000000 
0.000000 0.646119 0.000000 
-0.564049 -0.052068 0.000000 
0.000000 -0.457504 0.000000 
0.564049 -0.052068 0.000000 
0.866949 -0.807413 0.000000 
-0.569003 0.872656 0.000000 
0.000000 -0.608056 0.000000 
0.569003 0.872656 0.000000 
-0.866949 -0.807413 0.000000 
0.299194 0.422837 0.000000 
0.858290 0.131253 0.000000 
-0.577662 0.707699 0.000000 
0.000000 0.288321 0.000000 
0.577662 0.707699 0.000000 
-0.858290 0.131253 0.000000 
-0.299194 0.422837 0.000000 
-0.268560 -0.346913 0.000000 
0.286830 -0.624555 0.000000 
0.844677 -0.005356 0.000000 
-0.578910 -0.381519 0.000000 
0.000000 0.109885 0.000000 
0.578910 -0.381519 0.000000 
-0.844677 -0.005356 0.000000 
-0.286830 -0.624555 0.000000 
0.268560 -0.346913 0.000000 
-0.610485 0.340817 0.000000 
0.057734 0.694532 0.000000 
0.714655 0.899699 0.000000 
0.761092 -0.389563 0.000000 
0.765897 -0.991413 0.000000 
-0.641556 -0.732934 0.000000 
-0.677748 0.052811 0.000000 
0.067979 0.191015 0.000000 
0.178789 0.848441 0.000000 
-0.514316 -0.685325 0.000000 
0.053800 -0.413194 0.000000 
-0.028512 0.404166 0.000000 
0.647393 0.611693 0.000000 
0.691820 -0.657824 0.000000 
-0.522510 -0.559280 0.000000 
-0.393446 0.076450 0.000000 
0.205471 -0.379237 0.000000 
0.760780 -0.101422 0.000000 
0.642413 0.737559 0.000000 
-0.714996 0.971016 0.000000 
-0.724017 -0.252580 0.000000 
0.006894 -0.088947 0.000000 
0.083078 0.613577 0.000000 
0.897068 0.680430 0.000000 
-0.965681 -0.695541 0.000000 
-0.761262 -0.345189 0.000000 
0.142083 0.794073 0.000000 
0.397202 -0.544652 0.000000 
-0.108942 -0.063813 0.000000 
-0.899809 -0.058962 0.000000 
-0.724964 0.583287 0.000000 
0.660903 -0.956193 0.000000 
-0.978194 -0.264568 0.000000 
0.595936 0.235298 0.000000 
0.071546 -0.907526 0.000000 
0.220880 -0.276601 0.000000 
-0.445811 0.166185 0.000000 
-0.180633 0.844345 0.000000 
-0.702895 -0.664137 0.000000 
-0.287229 0.035192 0.000000 
-0.685384 0.536350 0.000000 
-0.957100 0.243909 0.000000 
-0.820030 0.867980 0.000000 
0.474522 -0.705026 0.000000 
0.699407 -0.037747 0.000000 
0.109248 0.439008 0.000000 
0.441768 -0.865541 0.000000 
-0.039645 -0.365670 0.000000 
0.417537 0.336893 0.000000 
0.033296 0.837402 0.000000 
-0.338794 -0.895324 0.000000 
-0.374519 -0.322361 0.000000 
-0.713312 0.297069 0.000000 
0.609100 0.185928 0.000000 
-0.381900 0.299867 0.000000 
-0.756418 0.842259 0.000000 
0.513962 0.630773 0.000000 
0.218274 -0.644988 0.000000 
-0.423588 -0.679091 0.000000 
-0.384386 0.935636 0.000000 
-0.766286 -0.549744 0.000000 
0.484677 -0.814959 0.000000 
0.139443 -0.176834 0.000000 
-0.556234 -0.294403 0.000000 
-0.823577 0.479101 0.000000 
0.550868 0.468305 0.000000 
-0.386873 -0.428595 0.000000 
-0.771260 0.071795 0.000000 
0.467428 -0.234734 0.000000 
0.105264 0.363892 0.000000 
-0.621631 0.181993 0.000000 
-0.937896 0.885573 0.000000 
0.385608 0.806378 0.000000 
0.141715 -0.384394 0.000000 
-0.474677 -0.384298 0.000000 
CELL_DATA 175 
SCALARS MASS float 
LOOKUP_TABLE default 
0.078183 
0.086427 
0.094672 
0.086427 
0.088131 
0.092111 
0.085854 
0.092111 
0.088131 
0.088705 
0.091000 
0.086983 
0.091556 
0.086983 
0.091000 
0.088705 
0.089278 
0.091574 
0.089278 
0.092722 
0.089278 
0.092722 
0.089278 
0.091574 
0.089278 
0.078183 
0.086427 
0.094672 
0.086427 
0.088131 
0.092111 
0.085854 
0.092111 
0.088131 
0.088705 
0.091000 
0.086983 
0.091556 
0.086983 
0.091000 
0.088705 
0.089278 
0.091574 
0.089278 
0.092722 
0.089278 
0.092722 
0.089278 
0.091574 
0.089278 
0.078183 
0.086427 
0.094672 
0.086427 
0.088131 
0.092111 
0.085854 
0.092111 
0.088131 
0.088705 
0.091000 
0.086983 
0.091556 
0.086983 
0.091000 
0.088705 
0.089278 
0.091574 
0.089278 
0.092722 
0.089278 
0.092722 
0.089278 
0.091574 
0.089278 
0.078183 
0.086427 
0.094672 
0.086427 
0.088131 
0.092111 
0.085854 
0.092111 
0.088131 
0.088705 
0.091000 
0.086983 
0.091556 
0.086983 
0.091000 
0.088705 
0.089278 
0.091574 
0.089278 
0.092722 
0.089278 
0.092722 
0.089278 
0.091574 
0.089278 
0.078183 
0.086427 
0.094672 
0.086427 
0.088131 
0.092111 
0.085854 
0.092111 
0.088131 
0.088705 
0.091000 
0.086983 
0.091556 
0.086983 
0.091000 
0.088705 
0.089278 
0.091574 
0.089278 
0.092722 
0.089278 
0.092722 
0.089278 
0.091574 
0.089278 
0.078183 
0.086427 
0.094672 
0.086427 
0.088131 
0.092111 
0.085854 
0.092111 
0.088131 
0.088705 
0.091000 
0.086983 
0.091556 
0.086983 
0.091000 
0.088705 
0.089278 
0.091574 
0.089278 
0.092722 
0.089278 
0.092722 
0.089278 
0.091574 
0.089278 
0.078183 
0.086427 
0.094672 
0.086427 
0.088131 
0.092111 
0.085854 
0.092111 
0.088131 
0.088705 
0.091000 
0.086983 
0.091556 
0.086983 
0.091000 
0.088705 
0.089278 
0.091574 
0.089278 
0.092722 
0.089278 
0.092722 
0.089278 
0.091574 
0.089278 
SCALARS MASS float 
LOOKUP_TABLE default 
0.078183 
0.086427 
0.094672 
0.086427 
0.088131 
0.092111 
0.085854 
0.092111 
0.088131 
0.088705 
0.091000 
0.086983 
0.091556 
0.086983 
0.091000 
0.088705 
0.089278 
0.091574 
0.089278 
0.092722 
0.089278 
0.092722 
0.089278 
0.091574 
0.089278 
0.078183 
0.086427 
0.094672 
0.086427 
0.088131 
0.092111 
0.085854 
0.092111 
0.088131 
0.088705 
0.091000 
0.086983 
0.091556 
0.086983 
0.091000 
0.088705 
0.089278 
0.091574 
0.089278 
0.092722 
0.089278 
0.092722 
0.089278 
0.091574 
0.089278 
0.078183 
0.086427 
0.094672 
0.086427 
0.088131 
0.092111 
0.085854 
0.092111 
0.088131 
0.088705 
0.091000 
0.086983 
0.091556 
0.086983 
0.091000 
0.088705 
0.089278 
0.091574 
0.089278 
0.092722 
0.089278 
0.092722 
0.089278 
0.091574 
0.089278 
0.078183 
0.086427 
0.094672 
0.086427 
0.088131 
0.092111 
0.085854 
0.092111 
0.088131 
0.088705 
0.091000 
0.086983 
0.091556 
0.086983 
0.091000 
0.088705 
0.089278 
0.091574 
0.089278 
0.092722 
0.089278 
0.092722 
0.089278 
0.091574 
0.089278 
0.078183 
0.086427 
0.094672 
0.086427 
0.088131 
0.092111 
0.085854 
0.092111 
0.088131 
0.088705 
0.091000 
0.086983 
0.091556 
0.086983 
0.091000 
0.088705 
0.089278 
0.091574 
0.089278 
0.092722 
0.089278 
0.092722 
0.089278 
0.091574 
0.089278 
0.078183 
0.086427 
0.094672 
0.086427 
0.088131 
0.092111 
0.085854 
0.092111 
0.088131 
0.088705 
0.091000 
0.086983 
0.091556 
0.086983 
0.091000 
0.088705 
0.089278 
0.091574 
0.089278 
0.092722 
0.089278 
0.092722 
0.089278 
0.091574 
0.089278 
0.078183 
0.086427 
0.094672 
0.086427 
0.088131 
0.092111 
0.085854 
0.092111 
0.088131 
0.088705 
0.091000 
0.086983 
0.091556 
0.086983 
0.091000 
0.088705 
0.089278 
0.091574 
0.089278 
0.092722 
0.089278 
0.092722 
0.089278 
0.091574 
0.089278 
SCALARS DENSITY float 
LOOKUP_TABLE default 
20.000000 
20.000000 
20.000000 
20.000000 
20.000000 
20.000000 
20.000000 
20.000000 
20.000000 
20.000000 
20.000000 
20.000000 
20.000000 
20.000000 
20.000000 
20.000000 
20.000000 
20.000000 
20.000000 
20.000000 
20.000000 
20.000000 
20.000000 
20.000000 
20.000000 
20.000000 
20.000000 
20.000000 
20.000000 
20.000000 
20.000000 
20.000000 
20.000000 
20.000000 
20.000000 
20.000000 
20.000000 
20.000000 
20.000000 
20.000000 
20.000000 
20.000000 
20.000000 
20.000000 
20.000000 
20.000000 
20.000000 
20.000000 
20.000000 
20.000000 
20.000000 
20.000000 
20.000000 
20.000000 
20.000000 
20.000000 
20.000000 
20.000000 
20.000000 
20.000000 
20.000000 
20.000000 
20.000000 
20.000000 
20.000000 
20.000000 
20.000000 
20.000000 
20.000000 
20.000000 
20.000000 
20.000000 
20.000000 
20.000000 
20.000000 
20.000000 
20.000000 
20.000000 
20.000000 
20.000000 
20.000000 
20.000000 
20.000000 
20.000000 
20.000000 
20.000000 
20.000000 
20.000000 
20.000000 
20.000000 
20.000000 
20.000000 
20.000000 
20.000000 
20.000000 
20.000000 
20.000000 
20.000000 
20.000000 
20.000000 
20.000000 
20.000000 
20.000000 
20.000000 
20.000000 
20.000000 
20.000000 
20.000000 
20.000000 
20.000000 
20.000000 
20.000000 
20.000000 
20.000000 
20.000000 
20.000000 
20.000000 
20.000000 
20.000000 
20.000000 
20.000000 
20.000000 
20.000000 
20.000000 
20.000000 
20.000000 
20.000000 
20.000000 
20.000000 
20.000000 
20.000000 
20.000000 
20.000000 
20.000000 
20.000000 
20.000000 
20.000000 
20.000000 
20.000000 
20.000000 
20.000000 
20.000000 
20.000000 
20.000000 
20.000000 
20.000000 
20.000000 
20.000000 
20.000000 
20.000000 
20.000000 
20.000000 
20.000000 
20.000000 
20.000000 
20.000000 
20.000000 
20.000000 
20.000000 
20.000000 
20.000000 
20.000000 
20.000000 
20.000000 
20.000000 
20.000000 
20.000000 
20.000000 
20.000000 
20.000000 
20.000000 
20.000000 
20.000000 
20.000000 
20.000000 
SCALARS ELEM_i float 
LOOKUP_TABLE default 
175 
203 
176 
176 
203 
203 
204 
177 
177 
231 
204 
204 
204 
204 
177 
178 
231 
231 
232 
205 
205 
205 
205 
178 
178 
175 
202 
202 
203 
229 
202 
229 
203 
203 
229 
229 
229 
230 
230 
230 
230 
256 
256 
256 
256 
257 
257 
257 
231 
231 
175 
201 
202 
202 
201 
201 
201 
201 
228 
200 
200 
227 
228 
228 
228 
228 
199 
227 
227 
227 
227 
228 
255 
255 
255 
175 
174 
174 
174 
146 
174 
173 
174 
200 
146 
146 
173 
173 
173 
200 
200 
145 
145 
145 
172 
172 
172 
199 
199 
199 
175 
148 
148 
147 
120 
147 
147 
147 
147 
120 
120 
120 
120 
119 
146 
146 
93 
93 
93 
120 
119 
119 
119 
119 
145 
175 
149 
148 
148 
149 
149 
121 
148 
121 
122 
122 
122 
122 
121 
121 
121 
123 
123 
95 
95 
95 
94 
94 
94 
94 
175 
176 
176 
149 
177 
177 
150 
149 
149 
178 
177 
150 
150 
150 
150 
123 
178 
178 
151 
151 
151 
151 
124 
123 
123 
VECTORS VELOCITY float 
0.000000 -4.401943 0.000000 
-0.000000 -4.401943 0.000000 
-0.000000 -4.401943 0.000000 
-0.000000 -4.401943 0.000000 
-0.000000 -4.401943 0.000000 
0.000000 -4.401943 0.000000 
0.000000 -4.401943 0.000000 
0.000000 -4.401943 0.000000 
0.000000 -4.401943 0.000000 
-0.000000 -4.401943 0.000000 
-0.000000 -4.401943 0.000000 
0.000000 -4.401943 0.000000 
0.000000 -4.401943 0.000000 
0.000000 -4.401943 0.000000 
0.000000 -4.401943 0.000000 
0.000000 -4.401943 0.000000 
-0.000000 -4.401943 0.000000 
-0.000000 -4.401943 0.000000 
-0.000000 -4.401943 0.000000 
0.000000 -4.401943 0.000000 
0.000000 -4.401943 0.000000 
0.000000 -4.401943 0.000000 
-0.000000 -4.401943 0.000000 
0.000000 -4.401943 0.000000 
-0.000000 -4.401943 0.000000 
0.000000 -4.401943 0.000000 
-0.000000 -4.401943 0.000000 
-0.000000 -4.401943 0.000000 
-0.000000 -4.401943 0.000000 
-0.000000 -4.401943 0.000000 
-0.000000 -4.401943 0.000000 
-0.000000 -4.401943 0.000000 
-0.000000 -4.401943 0.000000 
-0.000000 -4.401943 0.000000 
-0.000000 -4.401943 0.000000 
-0.000000 -4.401943 0.000000 
-0.000000 -4.401943 0.000000 
-0.000000 -4.401943 0.000000 
0.000000 -4.401943 0.000000 
0.000000 -4.401943 0.000000 
0.000000 -4.401943 0.000000 
-0.000000 -4.401943 0.000000 
0.000000 -4.401943 0.000000 
0.000000 -4.401943 0.000000 
0.000000 -4.401943 0.000000 
-0.000000 -4.401943 0.000000 
-0.000000 -4.401943 0.000000 
0.000000 -4.401943 0.000000 
0.000000 -4.401943 0.000000 
-0.000000 -4.401943 0.000000 
0.000000 -4.401943 0.000000 
0.000000 -4.401943 0.000000 
0.000000 -4.401943 0.000000 
0.000000 -4.401943 0.000000 
0.000000 -4.401943 0.000000 
0.000000 -4.401943 0.000000 
0.000000 -4.401943 0.000000 
-0.000000 -4.401943 0.000000 
-0.000000 -4.401943 0.000000 
-0.000000 -4.401943 0.000000 
0.000000 -4.401943 0.000000 
0.000000 -4.401943 0.000000 
-0.000000 -4.401943 0.000000 
-0.000000 -4.401943 0.000000 
-0.000000 -4.401943 0.000000 
-0.000000 -4.401943 0.000000 
-0.000000 -4.401943 0.000000 
0.000000 -4.401943 0.000000 
-0.000000 -4.401943 0.000000 
-0.000000 -4.401943 0.000000 
0.000000 -4.401943 0.000000 
0.000000 -4.401943 0.000000 
-0.000000 -4.401943 0.000000 
-0.000000 -4.401943 0.000000 
0.000000 -4.401943 0.000000 
0.000000 -4.401943 0.000000 
0.000000 -4.401943 0.000000 
-0.000000 -4.401943 0.000000 
0.000000 -4.401943 0.000000 
0.000000 -4.401943 0.000000 
0.000000 -4.401943 0.000000 
0.000000 -4.401943 0.000000 
0.000000 -4.401943 0.000000 
0.000000 -4.401943 0.000000 
0.000000 -4.401943 0.000000 
-0.000000 -4.401943 0.000000 
-0.000000 -4.401943 0.000000 
-0.000000 -4.401943 0.000000 
-0.000000 -4.401943 0.000000 
-0.000000 -4.401943 0.000000 
-0.000000 -4.401943 0.000000 
0.000000 -4.401943 0.000000 
-0.000000 -4.401943 0.000000 
0.000000 -4.401943 0.000000 
0.000000 -4.401943 0.000000 
-0.000000 -4.401943 0.000000 
0.000000 -4.401943 0.000000 
-0.000000 -4.401943 0.000000 
-0.000000 -4.401943 0.000000 
-0.000000 -4.401943 0.000000 
0.000000 -4.401943 0.000000 
-0.000000 -4.401943 0.000000 
-0.000000 -4.401943 0.000000 
-0.000000 -4.401943 0.000000 
0.000000 -4.401943 0.000000 
0.000000 -4.401943 0.000000 
0.000000 -4.401943 0.000000 
-0.000000 -4.401943 0.000000 
0.000000 -4.401943 0.000000 
-0.000000 -4.401943 0.000000 
-0.000000 -4.401943 0.000000 
-0.000000 -4.401943 0.000000 
-0.000000 -4.401943 0.000000 
-0.000000 -4.401943 0.000000 
-0.000000 -4.401943 0.000000 
-0.000000 -4.401943 0.000000 
0.000000 -4.401943 0.000000 
-0.000000 -4.401943 0.000000 
-0.000000 -4.401943 0.000000 
-0.000000 -4.401943 0.000000 
-0.000000 -4.401943 0.000000 
-0.000000 -4.401943 0.000000 
-0.000000 -4.401943 0.000000 
0.000000 -4.401943 0.000000 
0.000000 -4.401943 0.000000 
0.000000 -4.401943 0.000000 
0.000000 -4.401943 0.000000 
0.000000 -4.401943 0.000000 
-0.000000 -4.401943 0.000000 
0.000000 -4.401943 0.000000 
0.000000 -4.401943 0.000000 
-0.000000 -4.401943 0.000000 
-0.000000 -4.401943 0.000000 
-0.000000 -4.401943 0.000000 
0.000000 -4.401943 0.000000 
-0.000000 -4.401943 0.000000 
-0.000000 -4.401943 0.000000 
-0.000000 -4.401943 0.000000 
0.000000 -4.401943 0.000000 
-0.000000 -4.401943 0.000000 
0.000000 -4.401943 0.000000 
0.000000 -4.401943 0.000000 
-0.000000 -4.401943 0.000000 
0.000000 -4.401943 0.000000 
-0.000000 -4.401943 0.000000 
0.000000 -4.401943 0.000000 
0.000000 -4.401943 0.000000 
0.000000 -4.401943 0.000000 
-0.000000 -4.401943 0.000000 
0.000000 -4.401943 0.000000 
0.000000 -4.401943 0.000000 
0.000000 -4.401943 0.000000 
0.000000 -4.401943 0.000000 
-0.000000 -4.401943 0.000000 
0.000000 -4.401943 0.000000 
0.000000 -4.401943 0.000000 
0.000000 -4.401943 0.000000 
0.000000 -4.401943 0.000000 
0.000000 -4.401943 0.000000 
0.000000 -4.401943 0.000000 
0.000000 -4.401943 0.000000 
0.000000 -4.401943 0.000000 
-0.000000 -4.401943 0.000000 
-0.000000 -4.401943 0.000000 
0.000000 -4.401943 0.000000 
0.000000 -4.401943 0.000000 
-0.000000 -4.401943 0.000000 
0.000000 -4.401943 0.000000 
-0.000000 -4.401943 0.000000 
0.000000 -4.401943 0.000000 
0.000000 -4.401943 0.000000 
0.000000 -4.401943 0.000000 
0.000000 -4.401943 0.000000 
0.000000 -4.401943 0.000000 
0.000000 -4.401943 0.000000 
TENSORS STRESS float 
-0.000000 0.000000 0.000000 
0.000000 -0.000000 0.000000 
0.000000 0.000000 0.000000 

0.000000 -0.000000 0.000000 
0.000000 0.000000 0.000000 
0.000000 0.000000 0.000000 

0.000000 -0.000000 0.000000 
0.000000 0.000000 0.000000 
0.000000 0.000000 0.000000 

0.000000 0.000000 0.000000 
0.000000 0.000000 0.000000 
0.000000 0.000000 0.000000 

-0.000000 0.000000 0.000000 
0.000000 -0.000000 0.000000 
0.000000 0.000000 0.000000 

0.000000 -0.000000 0.000000 
0.000000 0.000000 0.000000 
0.000000 0.000000 0.000000 

-0.000000 0.000000 0.000000 
0.000000 -0.000000 0.000000 
0.000000 0.000000 0.000000 

-0.000000 -0.000000 0.000000 
0.000000 -0.000000 0.000000 
0.000000 0.000000 0.000000 

-0.000000 0.000000 0.000000 
0.000000 -0.000000 0.000000 
0.000000 0.000000 0.000000 

0.000000 0.000000 0.000000 
0.000000 0.000000 0.000000 
0.000000 0.000000 0.000000 

-0.000000 -0.000000 0.000000 
0.000000 -0.000000 0.000000 
0.000000 0.000000 0.000000 

-0.000000 0.000000 0.000000 
0.000000 0.000000 0.000000 
0.000000 0.000000 0.000000 

0.000000 -0.000000 0.000000 
0.000000 0.000000 0.000000 
0.000000 0.000000 0.000000 

-0.000000 -0.000000 0.000000 
0.000000 -0.000000 0.000000 
0.000000 0.000000 0.000000 

-0.000000 -0.000000 0.000000 
0.000000 -0.000000 0.000000 
0.000000 0.000000 0.000000 

-0.000000 0.000000 0.000000 
0.000000 0.000000 0.000000 
0.000000 0.000000 0.000000 

0.000000 -0.000000 0.000000 
0.000000 0.000000 0.000000 
0.000000 0.000000 0.000000 

0.000000 -0.000000 0.000000 
0.000000 0.000000 0.000000 
0.000000 0.000000 0.000000 

-0.000000 -0.000000 0.000000 
0.000000 0.000000 0.000000 
0.000000 0.000000 0.000000 

-0.000000 -0.000000 0.000000 
0.000000 -0.000000 0.000000 
0.000000 0.000000 0.000000 

0.000000 0.000000 0.000000 
0.000000 0.000000 0.000000 
0.000000 0.000000 0.000000 

0.000000 0.000000 0.000000 
0.000000 0.000000 0.000000 
0.000000 0.000000 0.000000 

0.000000 0.000000 0.000000 
0.000000 -0.000000 0.000000 
0.000000 0.000000 0.000000 

-0.000000 0.000000 0.000000 
0.000000 -0.000000 0.000000 
0.000000 0.000000 0.000000 

-0.000000 0.000000 0.000000 
0.000000 -0.000000 0.000000 
0.000000 0.000000 0.000000 

-0.000000 0.000000 0.000000 
0.000000 -0.000000 0.000000 
0.000000 0.000000 0.000000 

0.000000 -0.000000 0.000000 
0.000000 0.000000 0.000000 
0.000000 0.000000 0.000000 

0.000000 -0.000000 0.000000 
0.000000 0.000000 0.000000 
0.000000 0.000000 0.000000 

-0.000000 -0.000000 0.000000 
0.000000 -0.000000 0.000000 
0.000000 0.000000 0.000000 

-0.000000 0.000000 0.000000 
0.000000 0.000000 0.000000 
0.000000 0.000000 0.000000 

0.000000 -0.000000 0.000000 
0.000000 0.000000 0.000000 
0.000000 0.000000 0.000000 

-0.000000 -0.000000 0.000000 
0.000000 -0.000000 0.000000 
0.000000 0.000000 0.000000 

0.000000 -0.000000 0.000000 
0.000000 0.000000 0.000000 
0.000000 0.000000 0.000000 

-0.000000 -0.000000 0.000000 
0.000000 -0.000000 0.000000 
0.000000 0.000000 0.000000 

-0.000000 -0.000000 0.000000 
0.000000 -0.000000 0.000000 
0.000000 0.000000 0.000000 

-0.000000 0.000000 0.000000 
0.000000 0.000000 0.000000 
0.000000 0.000000 0.000000 

-0.000000 -0.000000 0.000000 
0.000000 -0.000000 0.000000 
0.000000 0.000000 0.000000 

-0.000000 0.000000 0.000000 
0.000000 -0.000000 0.000000 
0.000000 0.000000 0.000000 

-0.000000 -0.000000 0.000000 
0.000000 0.000000 0.000000 
0.000000 0.000000 0.000000 

-0.000000 0.000000 0.000000 
0.000000 -0.000000 0.000000 
0.000000 0.000000 0.000000 

-0.000000 0.000000 0.000000 
0.000000 0.000000 0.000000 
0.000000 0.000000 0.000000 

-0.000000 0.000000 0.000000 
0.000000 0.000000 0.000000 
0.000000 0.000000 0.000000 

0.000000 0.000000 0.000000 
0.000000 0.000000 0.000000 
0.000000 0.000000 0.000000 

-0.000000 -0.000000 0.000000 
0.000000 -0.000000 0.000000 
0.000000 0.000000 0.000000 

-0.000000 0.000000 0.000000 
0.000000 0.000000 0.000000 
0.000000 0.000000 0.000000 

0.000000 -0.000000 0.000000 
0.000000 0.000000 0.000000 
0.000000 0.000000 0.000000 

0.000000 -0.000000 0.000000 
0.000000 0.000000 0.000000 
0.000000 0.000000 0.000000 

-0.000000 0.000000 0.000000 
0.000000 -0.000000 0.000000 
0.000000 0.000000 0.000000 

0.000000 -0.000000 0.000000 
0.000000 0.000000 0.000000 
0.000000 0.000000 0.000000 

0.000000 -0.000000 0.000000 
0.000000 0.000000 0.000000 
0.000000 0.000000 0.000000 

0.000000 -0.000000 0.000000 
0.000000 0.000000 0.000000 
0.000000 0.000000 0.000000 

0.000000 -0.000000 0.000000 
0.000000 -0.000000 0.000000 
0.000000 0.000000 0.000000 

0.000000 -0.000000 0.000000 
0.000000 0.000000 0.000000 
0.000000 0.000000 0.000000 

0.000000 0.000000 0.000000 
0.000000 -0.000000 0.000000 
0.000000 0.000000 0.000000 

-0.000000 -0.000000 0.000000 
0.000000 -0.000000 0.000000 
0.000000 0.000000 0.000000 

-0.000000 -0.000000 0.000000 
0.000000 -0.000000 0.000000 
0.000000 0.000000 0.000000 

0.000000 0.000000 0.000000 
0.000000 0.000000 0.000000 
0.000000 0.000000 0.000000 

-0.000000 0.000000 0.000000 
0.000000 -0.000000 0.000000 
0.000000 0.000000 0.000000 

0.000000 0.000000 0.000000 
0.000000 -0.000000 0.000000 
0.000000 0.000000 0.000000 

-0.000000 -0.000000 0.000000 
0.000000 0.000000 0.000000 
0.000000 0.000000 0.000000 

-0.000000 0.000000 0.000000 
0.000000 0.000000 0.000000 
0.000000 0.000000 0.000000 

0.000000 0.000000 0.000000 
0.000000 0.000000 0.000000 
0.000000 0.000000 0.000000 

-0.000000 0.000000 0.000000 
0.000000 -0.000000 0.000000 
0.000000 0.000000 0.000000 

-0.000000 -0.000000 0.000000 
0.000000 0.000000 0.000000 
0.000000 0.000000 0.000000 

-0.000000 0.000000 0.000000 
0.000000 -0.000000 0.000000 
0.000000 0.000000 0.000000 

-0.000000 0.000000 0.000000 
0.000000 -0.000000 0.000000 
0.000000 0.000000 0.000000 

-0.000000 -0.000000 0.000000 
0.000000 -0.000000 0.000000 
0.000000 0.000000 0.000000 

0.000000 0.000000 0.000000 
0.000000 0.000000 0.000000 
0.000000 0.000000 0.000000 

0.000000 -0.000000 0.000000 
0.000000 -0.000000 0.000000 
0.000000 0.000000 0.000000 

0.000000 -0.000000 0.000000 
0.000000 0.000000 0.000000 
0.000000 0.000000 0.000000 

0.000000 0.000000 0.000000 
0.000000 -0.000000 0.000000 
0.000000 0.000000 0.000000 

-0.000000 -0.000000 0.000000 
0.000000 -0.000000 0.000000 
0.000000 0.000000 0.000000 

0.000000 -0.000000 0.000000 
0.000000 0.000000 0.000000 
0.000000 0.000000 0.000000 

-0.000000 -0.000000 0.000000 
0.000000 -0.000000 0.000000 
0.000000 0.000000 0.000000 

-0.000000 -0.000000 0.000000 
0.000000 -0.000000 0.000000 
0.000000 0.000000 0.000000 

0.000000 -0.000000 0.000000 
0.000000 0.000000 0.000000 
0.000000 0.000000 0.000000 

0.000000 0.000000 0.000000 
0.000000 0.000000 0.000000 
0.000000 0.000000 0.000000 

0.000000 -0.000000 0.000000 
0.000000 0.000000 0.000000 
0.000000 0.000000 0.000000 

0.000000 -0.000000 0.000000 
0.000000 0.000000 0.000000 
0.000000 0.000000 0.000000 

0.000000 0.000000 0.000000 
0.000000 0.000000 0.000000 
0.000000 0.000000 0.000000 

0.000000 0.000000 0.000000 
0.000000 0.000000 0.000000 
0.000000 0.000000 0.000000 

0.000000 0.000000 0.000000 
0.000000 -0.000000 0.000000 
0.000000 0.000000 0.000000 

0.000000 0.000000 0.000000 
0.000000 -0.000000 0.000000 
0.000000 0.000000 0.000000 

-0.000000 -0.000000 0.000000 
0.000000 -0.000000 0.000000 
0.000000 0.000000 0.000000 

-0.000000 0.000000 0.000000 
0.000000 -0.000000 0.000000 
0.000000 0.000000 0.000000 

0.000000 0.000000 0.000000 
0.000000 0.000000 0.000000 
0.000000 0.000000 0.000000 

0.000000 -0.000000 0.000000 
0.000000 0.000000 0.000000 
0.000000 0.000000 0.000000 

-0.000000 -0.000000 0.000000 
0.000000 -0.000000 0.000000 
0.000000 0.000000 0.000000 

-0.000000 -0.000000 0.000000 
0.000000 0.000000 0.000000 
0.000000 0.000000 0.000000 

-0.000000 0.000000 0.000000 
0.000000 -0.000000 0.000000 
0.000000 0.000000 0.000000 

-0.000000 -0.000000 0.000000 
0.000000 0.000000 0.000000 
0.000000 0.000000 0.000000 

0.000000 0.000000 0.000000 
0.000000 0.000000 0.000000 
0.000000 0.000000 0.000000 

-0.000000 0.000000 0.000000 
0.000000 -0.000000 0.000000 
0.000000 0.000000 0.000000 

0.000000 -0.000000 0.000000 
0.000000 0.000000 0.000000 
0.000000 0.000000 0.000000 

-0.000000 0.000000 0.000000 
0.000000 -0.000000 0.000000 
0.000000 0.000000 0.000000 

-0.000000 -0.000000 0.000000 
0.000000 -0.000000 0.000000 
0.000000 0.000000 0.000000 

-0.000000 0.000000 0.000000 
0.000000 -0.000000 0.000000 
0.000000 0.000000 0.000000 

-0.000000 -0.000000 0.000000 
0.000000 -0.000000 0.000000 
0.000000 0.000000 0.000000 

-0.000000 -0.000000 0.000000 
0.000000 -0.000000 0.000000 
0.000000 0.000000 0.000000 

0.000000 0.000000 0.000000 
0.000000 0.000000 0.000000 
0.000000 0.000000 0.000000 

-0.000000 -0.000000 0.000000 
0.000000 -0.000000 0.000000 
0.000000 0.000000 0.000000 

-0.000000 0.000000 0.000000 
0.000000 -0.000000 0.000000 
0.000000 0.000000 0.000000 

-0.000000 0.000000 0.000000 
0.000000 -0.000000 0.000000 
0.000000 0.000000 0.000000 

-0.000000 0.000000 0.000000 
0.000000 0.000000 0.000000 
0.000000 0.000000 0.000000 

0.000000 0.000000 0.000000 
0.000000 -0.000000 0.000000 
0.000000 0.000000 0.000000 

-0.000000 0.000000 0.000000 
0.000000 -0.000000 0.000000 
0.000000 0.000000 0.000000 

-0.000000 0.000000 0.000000 
0.000000 0.000000 0.000000 
0.000000 0.000000 0.000000 

-0.000000 -0.000000 0.000000 
0.000000 -0.000000 0.000000 
0.000000 0.000000 0.000000 

0.000000 0.000000 0.000000 
0.000000 0.000000 0.000000 
0.000000 0.000000 0.000000 

0.000000 0.000000 0.000000 
0.000000 -0.000000 0.000000 
0.000000 0.000000 0.000000 

0.000000 -0.000000 0.000000 
0.000000 0.000000 0.000000 
0.000000 0.000000 0.000000 

0.000000 -0.000000 0.000000 
0.000000 0.000000 0.000000 
0.000000 0.000000 0.000000 

0.000000 -0.000000 0.000000 
0.000000 0.000000 0.000000 
0.000000 0.000000 0.000000 

0.000000 -0.000000 0.000000 
0.000000 0.000000 0.000000 
0.000000 0.000000 0.000000 

0.000000 0.000000 0.000000 
0.000000 0.000000 0.000000 
0.000000 0.000000 0.000000 

0.000000 0.000000 0.000000 
0.000000 0.000000 0.000000 
0.000000 0.000000 0.000000 

0.000000 -0.000000 0.000000 
0.000000 0.000000 0.000000 
0.000000 0.000000 0.000000 

0.000000 0.000000 0.000000 
0.000000 -0.000000 0.000000 
0.000000 0.000000 0.000000 

0.000000 0.000000 0.000000 
0.000000 0.000000 0.000000 
0.000000 0.000000 0.000000 

0.000000 0.000000 0.000000 
0.000000 0.000000 0.000000 
0.000000 0.000000 0.000000 

0.000000 0.000000 0.000000 
0.000000 0.000000 0.000000 
0.000000 0.000000 0.000000 

0.000000 0.000000 0.000000 
0.000000 0.000000 0.000000 
0.000000 0.000000 0.000000 

-0.000000 0.000000 0.000000 
0.000000 -0.000000 0.000000 
0.000000 0.000000 0.000000 

0.000000 -0.000000 0.000000 
0.000000 0.000000 0.000000 
0.000000 0.000000 0.000000 

0.000000 0.000000 0.000000 
0.000000 0.000000 0.000000 
0.000000 0.000000 0.000000 

-0.000000 -0.000000 0.000000 
0.000000 -0.000000 0.000000 
0.000000 0.000000 0.000000 

0.000000 -0.000000 0.000000 
0.000000 -0.000000 0.000000 
0.000000 0.000000 0.000000 

0.000000 0.000000 0.000000 
0.000000 0.000000 0.000000 
0.000000 0.000000 0.000000 

-0.000000 0.000000 0.000000 
0.000000 -0.000000 0.000000 
0.000000 0.000000 0.000000 

-0.000000 0.000000 0.000000 
0.000000 -0.000000 0.000000 
0.000000 0.000000 0.000000 

0.000000 0.000000 0.000000 
0.000000 0.000000 0.000000 
0.000000 0.000000 0.000000 

-0.000000 -0.000000 0.000000 
0.000000 -0.000000 0.000000 
0.000000 0.000000 0.000000 

0.000000 0.000000 0.000000 
0.000000 0.000000 0.000000 
0.000000 0.000000 0.000000 

0.000000 0.000000 0.000000 
0.000000 0.000000 0.000000 
0.000000 0.000000 0.000000 

0.000000 0.000000 0.000000 
0.000000 0.000000 0.000000 
0.000000 0.000000 0.000000 

0.000000 -0.000000 0.000000 
0.000000 -0.000000 0.000000 
0.000000 0.000000 0.000000 

0.000000 -0.000000 0.000000 
0.000000 -0.000000 0.000000 
0.000000 0.000000 0.000000 

0.000000 0.000000 0.000000 
0.000000 0.000000 0.000000 
0.000000 0.000000 0.000000 

0.000000 -0.000000 0.000000 
0.000000 0.000000 0.000000 
0.000000 0.000000 0.000000 

0.000000 0.000000 0.000000 
0.000000 -0.000000 0.000000 
0.000000 0.000000 0.000000 

0.000000 0.000000 0.000000 
0.000000 0.000000 0.000000 
0.000000 0.000000 0.000000 

0.000000 -0.000000 0.000000 
0.000000 0.000000 0.000000 
0.000000 0.000000 0.000000 

0.000000 -0.000000 0.000000 
0.000000 0.000000 0.000000 
0.000000 0.000000 0.000000 

-0.000000 0.000000 0.000000 
0.000000 -0.000000 0.000000 
0.000000 0.000000 0.000000 

0.000000 0.000000 0.000000 
0.000000 0.000000 0.000000 
0.000000 0.000000 0.000000 

-0.000000 0.000000 0.000000 
0.000000 -0.000000 0.000000 
0.000000 0.000000 0.000000 

-0.000000 0.000000 0.000000 
0.000000 0.000000 0.000000 
0.000000 0.000000 0.000000 

-0.000000 0.000000 0.000000 
0.000000 -0.000000 0.000000 
0.000000 0.000000 0.000000 

0.000000 -0.000000 0.000000 
0.000000 0.000000 0.000000 
0.000000 0.000000 0.000000 

0.000000 0.000000 0.000000 
0.000000 -0.000000 0.000000 
0.000000 0.000000 0.000000 

0.000000 0.000000 0.000000 
0.000000 -0.000000 0.000000 
0.000000 0.000000 0.000000 

0.000000 0.000000 0.000000 
0.000000 0.000000 0.000000 
0.000000 0.000000 0.000000 

0.000000 0.000000 0.000000 
0.000000 0.000000 0.000000 
0.000000 0.000000 0.000000 

0.000000 -0.000000 0.000000 
0.000000 0.000000 0.000000 
0.000000 0.000000 0.000000 

-0.000000 -0.000000 0.000000 
0.000000 -0.000000 0.000000 
0.000000 0.000000 0.000000 

-0.000000 0.000000 0.000000 
0.000000 -0.000000 0.000000 
0.000000 0.000000 0.000000 

-0.000000 0.000000 0.000000 
0.000000 -0.000000 0.000000 
0.000000 0.000000 0.000000 

-0.000000 0.000000 0.000000 
0.000000 -0.000000 0.000000 
0.000000 0.000000 0.000000 

-0.000000 0.000000 0.000000 
0.000000 0.000000 0.000000 
0.000000 0.000000 0.000000 

-0.000000 0.000000 0.000000 
0.000000 -0.000000 0.000000 
0.000000 0.000000 0.000000 

-0.000000 -0.000000 0.000000 
0.000000 0.000000 0.000000 
0.000000 0.000000 0.000000 

0.000000 -0.000000 0.000000 
0.000000 0.000000 0.000000 
0.000000 0.000000 0.000000 

0.000000 -0.000000 0.000000 
0.000000 0.000000 0.000000 
0.000000 0.000000 0.000000 

0.000000 0.000000 0.000000 
0.000000 0.000000 0.000000 
0.000000 0.000000 0.000000 

0.000000 -0.000000 0.000000 
0.000000 0.000000 0.000000 
0.000000 0.000000 0.000000 

0.000000 -0.000000 0.000000 
0.000000 0.000000 0.000000 
0.000000 0.000000 0.000000 

-0.000000 -0.000000 0.000000 
0.000000 0.000000 0.000000 
0.000000 0.000000 0.000000 

0.000000 0.000000 0.000000 
0.000000 0.000000 0.000000 
0.000000 0.000000 0.000000 

-0.000000 0.000000 0.000000 
0.000000 -0.000000 0.000000 
0.000000 0.000000 0.000000 

-0.000000 0.000000 0.000000 
0.000000 -0.000000 0.000000 
0.000000 0.000000 0.000000 

-0.000000 0.000000 0.000000 
0.000000 -0.000000 0.000000 
0.000000 0.000000 0.000000 

0.000000 0.000000 0.000000 
0.000000 0.000000 0.000000 
0.000000 0.000000 0.000000 

-0.000000 -0.000000 0.000000 
0.000000 -0.000000 0.000000 
0.000000 0.000000 0.000000 

-0.000000 -0.000000 0.000000 
0.000000 0.000000 0.000000 
0.000000 0.000000 0.000000 

-0.000000 -0.000000 0.000000 
0.000000 -0.000000 0.000000 
0.000000 0.000000 0.000000 

TENSORS STRAIN float 
0.000000 0.000000 0.000000 
0.000000 -0.000000 0.000000 
0.000000 0.000000 0.000000 

0.000000 -0.000000 0.000000 
0.000000 0.000000 0.000000 
0.000000 0.000000 0.000000 

0.000000 -0.000000 0.000000 
0.000000 0.000000 0.000000 
0.000000 0.000000 0.000000 

0.000000 0.000000 0.000000 
0.000000 0.000000 0.000000 
0.000000 0.000000 0.000000 

-0.000000 0.000000 0.000000 
0.000000 -0.000000 0.000000 
0.000000 0.000000 0.000000 

-0.000000 -0.000000 0.000000 
0.000000 0.000000 0.000000 
0.000000 0.000000 0.000000 

-0.000000 0.000000 0.000000 
0.000000 -0.000000 0.000000 
0.000000 0.000000 0.000000 

-0.000000 -0.000000 0.000000 
0.000000 -0.000000 0.000000 
0.000000 0.000000 0.000000 

-0.000000 0.000000 0.000000 
0.000000 -0.000000 0.000000 
0.000000 0.000000 0.000000 

0.000000 0.000000 0.000000 
0.000000 0.000000 0.000000 
0.000000 0.000000 0.000000 

-0.000000 -0.000000 0.000000 
0.000000 -0.000000 0.000000 
0.000000 0.000000 0.000000 

-0.000000 0.000000 0.000000 
0.000000 0.000000 0.000000 
0.000000 0.000000 0.000000 

-0.000000 -0.000000 0.000000 
0.000000 0.000000 0.000000 
0.000000 0.000000 0.000000 

-0.000000 -0.000000 0.000000 
0.000000 -0.000000 0.000000 
0.000000 0.000000 0.000000 

-0.000000 -0.000000 0.000000 
0.000000 -0.000000 0.000000 
0.000000 0.000000 0.000000 

-0.000000 0.000000 0.000000 
0.000000 0.000000 0.000000 
0.000000 0.000000 0.000000 

0.000000 -0.000000 0.000000 
0.000000 0.000000 0.000000 
0.000000 0.000000 0.000000 

0.000000 -0.000000 0.000000 
0.000000 0.000000 0.000000 
0.000000 0.000000 0.000000 

-0.000000 -0.000000 0.000000 
0.000000 0.000000 0.000000 
0.000000 0.000000 0.000000 

0.000000 -0.000000 0.000000 
0.000000 -0.000000 0.000000 
0.000000 0.000000 0.000000 

0.000000 0.000000 0.000000 
0.000000 0.000000 0.000000 
0.000000 0.000000 0.000000 

0.000000 0.000000 0.000000 
0.000000 0.000000 0.000000 
0.000000 0.000000 0.000000 

0.000000 0.000000 0.000000 
0.000000 -0.000000 0.000000 
0.000000 0.000000 0.000000 

-0.000000 0.000000 0.000000 
0.000000 -0.000000 0.000000 
0.000000 0.000000 0.000000 

-0.000000 0.000000 0.000000 
0.000000 -0.000000 0.000000 
0.000000 0.000000 0.000000 

-0.000000 0.000000 0.000000 
0.000000 -0.000000 0.000000 
0.000000 0.000000 0.000000 

0.000000 -0.000000 0.000000 
0.000000 0.000000 0.000000 
0.000000 0.000000 0.000000 

0.000000 -0.000000 0.000000 
0.000000 -0.000000 0.000000 
0.000000 0.000000 0.000000 

0.000000 -0.000000 0.000000 
0.000000 -0.000000 0.000000 
0.000000 0.000000 0.000000 

-0.000000 0.000000 0.000000 
0.000000 0.000000 0.000000 
0.000000 0.000000 0.000000 

0.000000 -0.000000 0.000000 
0.000000 -0.000000 0.000000 
0.000000 0.000000 0.000000 

-0.000000 -0.000000 0.000000 
0.000000 -0.000000 0.000000 
0.000000 0.000000 0.000000 

0.000000 -0.000000 0.000000 
0.000000 0.000000 0.000000 
0.000000 0.000000 0.000000 

0.000000 -0.000000 0.000000 
0.000000 -0.000000 0.000000 
0.000000 0.000000 0.000000 

-0.000000 -0.000000 0.000000 
0.000000 -0.000000 0.000000 
0.000000 0.000000 0.000000 

-0.000000 0.000000 0.000000 
0.000000 0.000000 0.000000 
0.000000 0.000000 0.000000 

-0.000000 -0.000000 0.000000 
0.000000 -0.000000 0.000000 
0.000000 0.000000 0.000000 

-0.000000 0.000000 0.000000 
0.000000 -0.000000 0.000000 
0.000000 0.000000 0.000000 

-0.000000 -0.000000 0.000000 
0.000000 0.000000 0.000000 
0.000000 0.000000 0.000000 

-0.000000 0.000000 0.000000 
0.000000 -0.000000 0.000000 
0.000000 0.000000 0.000000 

-0.000000 0.000000 0.000000 
0.000000 0.000000 0.000000 
0.000000 0.000000 0.000000 

-0.000000 0.000000 0.000000 
0.000000 0.000000 0.000000 
0.000000 0.000000 0.000000 

-0.000000 0.000000 0.000000 
0.000000 0.000000 0.000000 
0.000000 0.000000 0.000000 

0.000000 -0.000000 0.000000 
0.000000 -0.000000 0.000000 
0.000000 0.000000 0.000000 

-0.000000 0.000000 0.000000 
0.000000 0.000000 0.000000 
0.000000 0.000000 0.000000 

-0.000000 -0.000000 0.000000 
0.000000 0.000000 0.000000 
0.000000 0.000000 0.000000 

0.000000 -0.000000 0.000000 
0.000000 0.000000 0.000000 
0.000000 0.000000 0.000000 

-0.000000 0.000000 0.000000 
0.000000 0.000000 0.000000 
0.000000 0.000000 0.000000 

0.000000 -0.000000 0.000000 
0.000000 0.000000 0.000000 
0.000000 0.000000 0.000000 

0.000000 -0.000000 0.000000 
0.000000 0.000000 0.000000 
0.000000 0.000000 0.000000 

-0.000000 -0.000000 0.000000 
0.000000 0.000000 0.000000 
0.000000 0.000000 0.000000 

0.000000 -0.000000 0.000000 
0.000000 -0.000000 0.000000 
0.000000 0.000000 0.000000 

0.000000 -0.000000 0.000000 
0.000000 0.000000 0.000000 
0.000000 0.000000 0.000000 

0.000000 0.000000 0.000000 
0.000000 -0.000000 0.000000 
0.000000 0.000000 0.000000 

-0.000000 -0.000000 0.000000 
0.000000 -0.000000 0.000000 
0.000000 0.000000 0.000000 

0.000000 -0.000000 0.000000 
0.000000 -0.000000 0.000000 
0.000000 0.000000 0.000000 

0.000000 0.000000 0.000000 
0.000000 0.000000 0.000000 
0.000000 0.000000 0.000000 

0.000000 0.000000 0.000000 
0.000000 -0.000000 0.000000 
0.000000 0.000000 0.000000 

0.000000 0.000000 0.000000 
0.000000 -0.000000 0.000000 
0.000000 0.000000 0.000000 

-0.000000 -0.000000 0.000000 
0.000000 0.000000 0.000000 
0.000000 0.000000 0.000000 

-0.000000 0.000000 0.000000 
0.000000 0.000000 0.000000 
0.000000 0.000000 0.000000 

-0.000000 0.000000 0.000000 
0.000000 0.000000 0.000000 
0.000000 0.000000 0.000000 

-0.000000 0.000000 0.000000 
0.000000 -0.000000 0.000000 
0.000000 0.000000 0.000000 

-0.000000 -0.000000 0.000000 
0.000000 0.000000 0.000000 
0.000000 0.000000 0.000000 

0.000000 0.000000 0.000000 
0.000000 -0.000000 0.000000 
0.000000 0.000000 0.000000 

0.000000 0.000000 0.000000 
0.000000 -0.000000 0.000000 
0.000000 0.000000 0.000000 

-0.000000 -0.000000 0.000000 
0.000000 -0.000000 0.000000 
0.000000 0.000000 0.000000 

0.000000 0.000000 0.000000 
0.000000 0.000000 0.000000 
0.000000 0.000000 0.000000 

0.000000 -0.000000 0.000000 
0.000000 -0.000000 0.000000 
0.000000 0.000000 0.000000 

0.000000 -0.000000 0.000000 
0.000000 0.000000 0.000000 
0.000000 0.000000 0.000000 

0.000000 0.000000 0.000000 
0.000000 -0.000000 0.000000 
0.000000 0.000000 0.000000 

-0.000000 -0.000000 0.000000 
0.000000 -0.000000 0.000000 
0.000000 0.000000 0.000000 

0.000000 -0.000000 0.000000 
0.000000 0.000000 0.000000 
0.000000 0.000000 0.000000 

-0.000000 -0.000000 0.000000 
0.000000 -0.000000 0.000000 
0.000000 0.000000 0.000000 

-0.000000 -0.000000 0.000000 
0.000000 0.000000 0.000000 
0.000000 0.000000 0.000000 

0.000000 -0.000000 0.000000 
0.000000 -0.000000 0.000000 
0.000000 0.000000 0.000000 

0.000000 0.000000 0.000000 
0.000000 0.000000 0.000000 
0.000000 0.000000 0.000000 

0.000000 -0.000000 0.000000 
0.000000 -0.000000 0.000000 
0.000000 0.000000 0.000000 

0.000000 -0.000000 0.000000 
0.000000 0.000000 0.000000 
0.000000 0.000000 0.000000 

-0.000000 0.000000 0.000000 
0.000000 0.000000 0.000000 
0.000000 0.000000 0.000000 

0.000000 0.000000 0.000000 
0.000000 0.000000 0.000000 
0.000000 0.000000 0.000000 

0.000000 0.000000 0.000000 
0.000000 -0.000000 0.000000 
0.000000 0.000000 0.000000 

0.000000 0.000000 0.000000 
0.000000 -0.000000 0.000000 
0.000000 0.000000 0.000000 

-0.000000 -0.000000 0.000000 
0.000000 -0.000000 0.000000 
0.000000 0.000000 0.000000 

0.000000 0.000000 0.000000 
0.000000 -0.000000 0.000000 
0.000000 0.000000 0.000000 

0.000000 0.000000 0.000000 
0.000000 -0.000000 0.000000 
0.000000 0.000000 0.000000 

-0.000000 -0.000000 0.000000 
0.000000 0.000000 0.000000 
0.000000 0.000000 0.000000 

0.000000 -0.000000 0.000000 
0.000000 -0.000000 0.000000 
0.000000 0.000000 0.000000 

-0.000000 -0.000000 0.000000 
0.000000 0.000000 0.000000 
0.000000 0.000000 0.000000 

-0.000000 0.000000 0.000000 
0.000000 0.000000 0.000000 
0.000000 0.000000 0.000000 

-0.000000 -0.000000 0.000000 
0.000000 0.000000 0.000000 
0.000000 0.000000 0.000000 

0.000000 0.000000 0.000000 
0.000000 0.000000 0.000000 
0.000000 0.000000 0.000000 

0.000000 0.000000 0.000000 
0.000000 -0.000000 0.000000 
0.000000 0.000000 0.000000 

0.000000 -0.000000 0.000000 
0.000000 0.000000 0.000000 
0.000000 0.000000 0.000000 

-0.000000 0.000000 0.000000 
0.000000 -0.000000 0.000000 
0.000000 0.000000 0.000000 

-0.000000 -0.000000 0.000000 
0.000000 -0.000000 0.000000 
0.000000 0.000000 0.000000 

-0.000000 0.000000 0.000000 
0.000000 -0.000000 0.000000 
0.000000 0.000000 0.000000 

0.000000 -0.000000 0.000000 
0.000000 -0.000000 0.000000 
0.000000 0.000000 0.000000 

-0.000000 -0.000000 0.000000 
0.000000 0.000000 0.000000 
0.000000 0.000000 0.000000 

-0.000000 0.000000 0.000000 
0.000000 0.000000 0.000000 
0.000000 0.000000 0.000000 

-0.000000 -0.000000 0.000000 
0.000000 -0.000000 0.000000 
0.000000 0.000000 0.000000 

-0.000000 0.000000 0.000000 
0.000000 -0.000000 0.000000 
0.000000 0.000000 0.000000 

-0.000000 0.000000 0.000000 
0.000000 -0.000000 0.000000 
0.000000 0.000000 0.000000 

-0.000000 0.000000 0.000000 
0.000000 0.000000 0.000000 
0.000000 0.000000 0.000000 

0.000000 0.000000 0.000000 
0.000000 -0.000000 0.000000 
0.000000 0.000000 0.000000 

-0.000000 0.000000 0.000000 
0.000000 -0.000000 0.000000 
0.000000 0.000000 0.000000 

-0.000000 0.000000 0.000000 
0.000000 0.000000 0.000000 
0.000000 0.000000 0.000000 

-0.000000 -0.000000 0.000000 
0.000000 0.000000 0.000000 
0.000000 0.000000 0.000000 

-0.000000 0.000000 0.000000 
0.000000 0.000000 0.000000 
0.000000 0.000000 0.000000 

0.000000 0.000000 0.000000 
0.000000 -0.000000 0.000000 
0.000000 0.000000 0.000000 

0.000000 -0.000000 0.000000 
0.000000 0.000000 0.000000 
0.000000 0.000000 0.000000 

0.000000 -0.000000 0.000000 
0.000000 0.000000 0.000000 
0.000000 0.000000 0.000000 

0.000000 -0.000000 0.000000 
0.000000 0.000000 0.000000 
0.000000 0.000000 0.000000 

0.000000 -0.000000 0.000000 
0.000000 0.000000 0.000000 
0.000000 0.000000 0.000000 

0.000000 0.000000 0.000000 
0.000000 0.000000 0.000000 
0.000000 0.000000 0.000000 

0.000000 0.000000 0.000000 
0.000000 0.000000 0.000000 
0.000000 0.000000 0.000000 

0.000000 -0.000000 0.000000 
0.000000 -0.000000 0.000000 
0.000000 0.000000 0.000000 

0.000000 0.000000 0.000000 
0.000000 -0.000000 0.000000 
0.000000 0.000000 0.000000 

0.000000 0.000000 0.000000 
0.000000 0.000000 0.000000 
0.000000 0.000000 0.000000 

0.000000 0.000000 0.000000 
0.000000 0.000000 0.000000 
0.000000 0.000000 0.000000 

0.000000 0.000000 0.000000 
0.000000 0.000000 0.000000 
0.000000 0.000000 0.000000 

0.000000 0.000000 0.000000 
0.000000 0.000000 0.000000 
0.000000 0.000000 0.000000 

0.000000 0.000000 0.000000 
0.000000 -0.000000 0.000000 
0.000000 0.000000 0.000000 

0.000000 -0.000000 0.000000 
0.000000 0.000000 0.000000 
0.000000 0.000000 0.000000 

0.000000 0.000000 0.000000 
0.000000 0.000000 0.000000 
0.000000 0.000000 0.000000 

-0.000000 -0.000000 0.000000 
0.000000 0.000000 0.000000 
0.000000 0.000000 0.000000 

0.000000 -0.000000 0.000000 
0.000000 -0.000000 0.000000 
0.000000 0.000000 0.000000 

0.000000 0.000000 0.000000 
0.000000 0.000000 0.000000 
0.000000 0.000000 0.000000 

0.000000 0.000000 0.000000 
0.000000 -0.000000 0.000000 
0.000000 0.000000 0.000000 

-0.000000 0.000000 0.000000 
0.000000 -0.000000 0.000000 
0.000000 0.000000 0.000000 

0.000000 0.000000 0.000000 
0.000000 0.000000 0.000000 
0.000000 0.000000 0.000000 

0.000000 -0.000000 0.000000 
0.000000 -0.000000 0.000000 
0.000000 0.000000 0.000000 

-0.000000 0.000000 0.000000 
0.000000 0.000000 0.000000 
0.000000 0.000000 0.000000 

0.000000 0.000000 0.000000 
0.000000 -0.000000 0.000000 
0.000000 0.000000 0.000000 

0.000000 0.000000 0.000000 
0.000000 0.000000 0.000000 
0.000000 0.000000 0.000000 

0.000000 -0.000000 0.000000 
0.000000 -0.000000 0.000000 
0.000000 0.000000 0.000000 

0.000000 -0.000000 0.000000 
0.000000 -0.000000 0.000000 
0.000000 0.000000 0.000000 

0.000000 0.000000 0.000000 
0.000000 0.000000 0.000000 
0.000000 0.000000 0.000000 

0.000000 -0.000000 0.000000 
0.000000 -0.000000 0.000000 
0.000000 0.000000 0.000000 

0.000000 0.000000 0.000000 
0.000000 -0.000000 0.000000 
0.000000 0.000000 0.000000 

0.000000 0.000000 0.000000 
0.000000 0.000000 0.000000 
0.000000 0.000000 0.000000 

0.000000 -0.000000 0.000000 
0.000000 0.000000 0.000000 
0.000000 0.000000 0.000000 

0.000000 -0.000000 0.000000 
0.000000 0.000000 0.000000 
0.000000 0.000000 0.000000 

0.000000 0.000000 0.000000 
0.000000 -0.000000 0.000000 
0.000000 0.000000 0.000000 

0.000000 0.000000 0.000000 
0.000000 -0.000000 0.000000 
0.000000 0.000000 0.000000 

0.000000 0.000000 0.000000 
0.000000 -0.000000 0.000000 
0.000000 0.000000 0.000000 

-0.000000 0.000000 0.000000 
0.000000 0.000000 0.000000 
0.000000 0.000000 0.000000 

-0.000000 0.000000 0.000000 
0.000000 -0.000000 0.000000 
0.000000 0.000000 0.000000 

0.000000 -0.000000 0.000000 
0.000000 0.000000 0.000000 
0.000000 0.000000 0.000000 

0.000000 0.000000 0.000000 
0.000000 -0.000000 0.000000 
0.000000 0.000000 0.000000 

0.000000 0.000000 0.000000 
0.000000 -0.000000 0.000000 
0.000000 0.000000 0.000000 

0.000000 0.000000 0.000000 
0.000000 0.000000 0.000000 
0.000000 0.000000 0.000000 

0.000000 0.000000 0.000000 
0.000000 0.000000 0.000000 
0.000000 0.000000 0.000000 

0.000000 -0.000000 0.000000 
0.000000 0.000000 0.000000 
0.000000 0.000000 0.000000 

-0.000000 -0.000000 0.000000 
0.000000 -0.000000 0.000000 
0.000000 0.000000 0.000000 

-0.000000 0.000000 0.000000 
0.000000 -0.000000 0.000000 
0.000000 0.000000 0.000000 

0.000000 0.000000 0.000000 
0.000000 -0.000000 0.000000 
0.000000 0.000000 0.000000 

-0.000000 0.000000 0.000000 
0.000000 -0.000000 0.000000 
0.000000 0.000000 0.000000 

-0.000000 0.000000 0.000000 
0.000000 0.000000 0.000000 
0.000000 0.000000 0.000000 

-0.000000 0.000000 0.000000 
0.000000 -0.000000 0.000000 
0.000000 0.000000 0.000000 

-0.000000 -0.000000 0.000000 
0.000000 0.000000 0.000000 
0.000000 0.000000 0.000000 

0.000000 -0.000000 0.000000 
0.000000 0.000000 0.000000 
0.000000 0.000000 0.000000 

0.000000 -0.000000 0.000000 
0.000000 0.000000 0.000000 
0.000000 0.000000 0.000000 

0.000000 0.000000 0.000000 
0.000000 0.000000 0.000000 
0.000000 0.000000 0.000000 

0.000000 -0.000000 0.000000 
0.000000 0.000000 0.000000 
0.000000 0.000000 0.000000 

0.000000 -0.000000 0.000000 
0.000000 -0.000000 0.000000 
0.000000 0.000000 0.000000 

-0.000000 -0.000000 0.000000 
0.000000 0.000000 0.000000 
0.000000 0.000000 0.000000 

-0.000000 0.000000 0.000000 
0.000000 0.000000 0.000000 
0.000000 0.000000 0.000000 

-0.000000 0.000000 0.000000 
0.000000 -0.000000 0.000000 
0.000000 0.000000 0.000000 

0.000000 0.000000 0.000000 
0.000000 -0.000000 0.000000 
0.000000 0.000000 0.000000 

0.000000 0.000000 0.000000 
0.000000 -0.000000 0.000000 
0.000000 0.000000 0.000000 

0.000000 0.000000 0.000000 
0.000000 0.000000 0.000000 
0.000000 0.000000 0.000000 

-0.000000 -0.000000 0.000000 
0.000000 0.000000 0.000000 
0.000000 0.000000 0.000000 

-0.000000 -0.000000 0.000000 
0.000000 0.000000 0.000000 
0.000000 0.000000 0.000000 

-0.000000 -0.000000 0.000000 
0.000000 -0.000000 0.000000 
0.000000 0.000000 0.000000 

