# vtk DataFile Version 3.0 
vtk output 
ASCII 
DATASET UNSTRUCTURED_GRID 
POINTS 175 float 
-0.026061 0.047970 0.000000 
-0.106992 0.116025 0.000000 
-0.054870 0.107792 0.000000 
-0.028809 0.153676 0.000000 
-0.186430 0.180101 0.000000 
-0.137056 0.177574 0.000000 
-0.114311 0.231222 0.000000 
-0.058186 0.215556 0.000000 
-0.029377 0.255733 0.000000 
-0.265318 0.243256 0.000000 
-0.217198 0.242457 0.000000 
-0.196633 0.299753 0.000000 
-0.143120 0.291044 0.000000 
-0.116563 0.338313 0.000000 
-0.058945 0.318667 0.000000 
-0.029568 0.356787 0.000000 
-0.344206 0.306412 0.000000 
-0.296791 0.306419 0.000000 
-0.278030 0.366362 0.000000 
-0.225992 0.360496 0.000000 
-0.201664 0.412613 0.000000 
-0.145749 0.399139 0.000000 
-0.117890 0.443481 0.000000 
-0.059328 0.420776 0.000000 
-0.029759 0.457842 0.000000 
-0.058559 0.007219 0.000000 
-0.162226 -0.013624 0.000000 
-0.123292 0.021994 0.000000 
-0.142917 0.070977 0.000000 
-0.261851 -0.035780 0.000000 
-0.229092 0.001247 0.000000 
-0.256854 0.052478 0.000000 
-0.209613 0.086591 0.000000 
-0.223062 0.134165 0.000000 
-0.360414 -0.058080 0.000000 
-0.329787 -0.020957 0.000000 
-0.361761 0.030845 0.000000 
-0.321587 0.067253 0.000000 
-0.341985 0.117487 0.000000 
-0.290702 0.150286 0.000000 
-0.302189 0.197022 0.000000 
-0.458977 -0.080380 0.000000 
-0.429420 -0.043306 0.000000 
-0.464588 0.008736 0.000000 
-0.427556 0.045763 0.000000 
-0.453135 0.097278 0.000000 
-0.407738 0.132594 0.000000 
-0.425037 0.182022 0.000000 
-0.370772 0.213651 0.000000 
-0.381315 0.259878 0.000000 
-0.046960 -0.043596 0.000000 
-0.095301 -0.137642 0.000000 
-0.098873 -0.084995 0.000000 
-0.149405 -0.069797 0.000000 
-0.140093 -0.229346 0.000000 
-0.148617 -0.180648 0.000000 
-0.205981 -0.170411 0.000000 
-0.203197 -0.112207 0.000000 
-0.248777 -0.093061 0.000000 
-0.184111 -0.320310 0.000000 
-0.194039 -0.273219 0.000000 
-0.254475 -0.265919 0.000000 
-0.257893 -0.211809 0.000000 
-0.309886 -0.196437 0.000000 
-0.303554 -0.135892 0.000000 
-0.347255 -0.115734 0.000000 
-0.228129 -0.411274 0.000000 
-0.238687 -0.365049 0.000000 
-0.301302 -0.360097 0.000000 
-0.307162 -0.308058 0.000000 
-0.363386 -0.295937 0.000000 
-0.362692 -0.238426 0.000000 
-0.412122 -0.221133 0.000000 
-0.403017 -0.158986 0.000000 
-0.445733 -0.138407 0.000000 
-0.000000 -0.066211 0.000000 
0.043388 -0.162642 0.000000 
-0.000000 -0.132610 0.000000 
-0.043388 -0.162642 0.000000 
0.087158 -0.254839 0.000000 
0.043769 -0.231140 0.000000 
-0.000000 -0.269606 0.000000 
-0.043769 -0.231140 0.000000 
-0.087158 -0.254839 0.000000 
0.130831 -0.345968 0.000000 
0.087824 -0.324369 0.000000 
0.044436 -0.367069 0.000000 
-0.000000 -0.336004 0.000000 
-0.044436 -0.367069 0.000000 
-0.087824 -0.324369 0.000000 
-0.130831 -0.345968 0.000000 
0.174505 -0.437098 0.000000 
0.131782 -0.416532 0.000000 
0.088871 -0.462398 0.000000 
0.044532 -0.434534 0.000000 
-0.000000 -0.470935 0.000000 
-0.044532 -0.434534 0.000000 
-0.088871 -0.462398 0.000000 
-0.131782 -0.416532 0.000000 
-0.174505 -0.437098 0.000000 
0.046960 -0.043596 0.000000 
0.149405 -0.069797 0.000000 
0.098873 -0.084995 0.000000 
0.095301 -0.137642 0.000000 
0.248777 -0.093061 0.000000 
0.203197 -0.112207 0.000000 
0.205981 -0.170411 0.000000 
0.148617 -0.180648 0.000000 
0.140093 -0.229346 0.000000 
0.347255 -0.115734 0.000000 
0.303554 -0.135892 0.000000 
0.309886 -0.196437 0.000000 
0.257893 -0.211809 0.000000 
0.254475 -0.265919 0.000000 
0.194039 -0.273219 0.000000 
0.184111 -0.320310 0.000000 
0.445733 -0.138407 0.000000 
0.403017 -0.158986 0.000000 
0.412122 -0.221133 0.000000 
0.362692 -0.238426 0.000000 
0.363386 -0.295937 0.000000 
0.307162 -0.308058 0.000000 
0.301302 -0.360097 0.000000 
0.238687 -0.365049 0.000000 
0.228129 -0.411274 0.000000 
0.058559 0.007219 0.000000 
0.142917 0.070977 0.000000 
0.123292 0.021994 0.000000 
0.162226 -0.013624 0.000000 
0.223062 0.134165 0.000000 
0.209613 0.086591 0.000000 
0.256854 0.052478 0.000000 
0.229092 0.001247 0.000000 
0.261851 -0.035780 0.000000 
0.302189 0.197022 0.000000 
0.290702 0.150286 0.000000 
0.341985 0.117487 0.000000 
0.321587 0.067253 0.000000 
0.361761 0.030845 0.000000 
0.329787 -0.020957 0.000000 
0.360414 -0.058080 0.000000 
0.381315 0.259878 0.000000 
0.370772 0.213651 0.000000 
0.425037 0.182022 0.000000 
0.407738 0.132594 0.000000 
0.453135 0.097278 0.000000 
0.427556 0.045763 0.000000 
0.464588 0.008736 0.000000 
0.429420 -0.043306 0.000000 
0.458977 -0.080380 0.000000 
0.026061 0.047970 0.000000 
0.028809 0.153676 0.000000 
0.054870 0.107792 0.000000 
0.106992 0.116025 0.000000 
0.029377 0.255733 0.000000 
0.058186 0.215556 0.000000 
0.114311 0.231222 0.000000 
0.137056 0.177574 0.000000 
0.186430 0.180101 0.000000 
0.029568 0.356787 0.000000 
0.058945 0.318667 0.000000 
0.116563 0.338313 0.000000 
0.143120 0.291044 0.000000 
0.196633 0.299753 0.000000 
0.217198 0.242457 0.000000 
0.265318 0.243256 0.000000 
0.029759 0.457842 0.000000 
0.059328 0.420776 0.000000 
0.117890 0.443481 0.000000 
0.145749 0.399139 0.000000 
0.201664 0.412613 0.000000 
0.225992 0.360496 0.000000 
0.278030 0.366362 0.000000 
0.296791 0.306419 0.000000 
0.344206 0.306412 0.000000 
CELLS 175 350 
1 0 
1 1 
1 2 
1 3 
1 4 
1 5 
1 6 
1 7 
1 8 
1 9 
1 10 
1 11 
1 12 
1 13 
1 14 
1 15 
1 16 
1 17 
1 18 
1 19 
1 20 
1 21 
1 22 
1 23 
1 24 
1 25 
1 26 
1 27 
1 28 
1 29 
1 30 
1 31 
1 32 
1 33 
1 34 
1 35 
1 36 
1 37 
1 38 
1 39 
1 40 
1 41 
1 42 
1 43 
1 44 
1 45 
1 46 
1 47 
1 48 
1 49 
1 50 
1 51 
1 52 
1 53 
1 54 
1 55 
1 56 
1 57 
1 58 
1 59 
1 60 
1 61 
1 62 
1 63 
1 64 
1 65 
1 66 
1 67 
1 68 
1 69 
1 70 
1 71 
1 72 
1 73 
1 74 
1 75 
1 76 
1 77 
1 78 
1 79 
1 80 
1 81 
1 82 
1 83 
1 84 
1 85 
1 86 
1 87 
1 88 
1 89 
1 90 
1 91 
1 92 
1 93 
1 94 
1 95 
1 96 
1 97 
1 98 
1 99 
1 100 
1 101 
1 102 
1 103 
1 104 
1 105 
1 106 
1 107 
1 108 
1 109 
1 110 
1 111 
1 112 
1 113 
1 114 
1 115 
1 116 
1 117 
1 118 
1 119 
1 120 
1 121 
1 122 
1 123 
1 124 
1 125 
1 126 
1 127 
1 128 
1 129 
1 130 
1 131 
1 132 
1 133 
1 134 
1 135 
1 136 
1 137 
1 138 
1 139 
1 140 
1 141 
1 142 
1 143 
1 144 
1 145 
1 146 
1 147 
1 148 
1 149 
1 150 
1 151 
1 152 
1 153 
1 154 
1 155 
1 156 
1 157 
1 158 
1 159 
1 160 
1 161 
1 162 
1 163 
1 164 
1 165 
1 166 
1 167 
1 168 
1 169 
1 170 
1 171 
1 172 
1 173 
1 174 
CELL_TYPES 175 
1 
1 
1 
1 
1 
1 
1 
1 
1 
1 
1 
1 
1 
1 
1 
1 
1 
1 
1 
1 
1 
1 
1 
1 
1 
1 
1 
1 
1 
1 
1 
1 
1 
1 
1 
1 
1 
1 
1 
1 
1 
1 
1 
1 
1 
1 
1 
1 
1 
1 
1 
1 
1 
1 
1 
1 
1 
1 
1 
1 
1 
1 
1 
1 
1 
1 
1 
1 
1 
1 
1 
1 
1 
1 
1 
1 
1 
1 
1 
1 
1 
1 
1 
1 
1 
1 
1 
1 
1 
1 
1 
1 
1 
1 
1 
1 
1 
1 
1 
1 
1 
1 
1 
1 
1 
1 
1 
1 
1 
1 
1 
1 
1 
1 
1 
1 
1 
1 
1 
1 
1 
1 
1 
1 
1 
1 
1 
1 
1 
1 
1 
1 
1 
1 
1 
1 
1 
1 
1 
1 
1 
1 
1 
1 
1 
1 
1 
1 
1 
1 
1 
1 
1 
1 
1 
1 
1 
1 
1 
1 
1 
1 
1 
1 
1 
1 
1 
1 
1 
1 
1 
1 
1 
1 
1 
POINT_DATA 175 
VECTORS X_GC float 
-0.026061 0.047970 0.000000 
-0.106992 0.116025 0.000000 
-0.054870 0.107792 0.000000 
-0.028809 0.153676 0.000000 
-0.186430 0.180101 0.000000 
-0.137056 0.177574 0.000000 
-0.114311 0.231222 0.000000 
-0.058186 0.215556 0.000000 
-0.029377 0.255733 0.000000 
-0.265318 0.243256 0.000000 
-0.217198 0.242457 0.000000 
-0.196633 0.299753 0.000000 
-0.143120 0.291044 0.000000 
-0.116563 0.338313 0.000000 
-0.058945 0.318667 0.000000 
-0.029568 0.356787 0.000000 
-0.344206 0.306412 0.000000 
-0.296791 0.306419 0.000000 
-0.278030 0.366362 0.000000 
-0.225992 0.360496 0.000000 
-0.201664 0.412613 0.000000 
-0.145749 0.399139 0.000000 
-0.117890 0.443481 0.000000 
-0.059328 0.420776 0.000000 
-0.029759 0.457842 0.000000 
-0.058559 0.007219 0.000000 
-0.162226 -0.013624 0.000000 
-0.123292 0.021994 0.000000 
-0.142917 0.070977 0.000000 
-0.261851 -0.035780 0.000000 
-0.229092 0.001247 0.000000 
-0.256854 0.052478 0.000000 
-0.209613 0.086591 0.000000 
-0.223062 0.134165 0.000000 
-0.360414 -0.058080 0.000000 
-0.329787 -0.020957 0.000000 
-0.361761 0.030845 0.000000 
-0.321587 0.067253 0.000000 
-0.341985 0.117487 0.000000 
-0.290702 0.150286 0.000000 
-0.302189 0.197022 0.000000 
-0.458977 -0.080380 0.000000 
-0.429420 -0.043306 0.000000 
-0.464588 0.008736 0.000000 
-0.427556 0.045763 0.000000 
-0.453135 0.097278 0.000000 
-0.407738 0.132594 0.000000 
-0.425037 0.182022 0.000000 
-0.370772 0.213651 0.000000 
-0.381315 0.259878 0.000000 
-0.046960 -0.043596 0.000000 
-0.095301 -0.137642 0.000000 
-0.098873 -0.084995 0.000000 
-0.149405 -0.069797 0.000000 
-0.140093 -0.229346 0.000000 
-0.148617 -0.180648 0.000000 
-0.205981 -0.170411 0.000000 
-0.203197 -0.112207 0.000000 
-0.248777 -0.093061 0.000000 
-0.184111 -0.320310 0.000000 
-0.194039 -0.273219 0.000000 
-0.254475 -0.265919 0.000000 
-0.257893 -0.211809 0.000000 
-0.309886 -0.196437 0.000000 
-0.303554 -0.135892 0.000000 
-0.347255 -0.115734 0.000000 
-0.228129 -0.411274 0.000000 
-0.238687 -0.365049 0.000000 
-0.301302 -0.360097 0.000000 
-0.307162 -0.308058 0.000000 
-0.363386 -0.295937 0.000000 
-0.362692 -0.238426 0.000000 
-0.412122 -0.221133 0.000000 
-0.403017 -0.158986 0.000000 
-0.445733 -0.138407 0.000000 
-0.000000 -0.066211 0.000000 
0.043388 -0.162642 0.000000 
-0.000000 -0.132610 0.000000 
-0.043388 -0.162642 0.000000 
0.087158 -0.254839 0.000000 
0.043769 -0.231140 0.000000 
-0.000000 -0.269606 0.000000 
-0.043769 -0.231140 0.000000 
-0.087158 -0.254839 0.000000 
0.130831 -0.345968 0.000000 
0.087824 -0.324369 0.000000 
0.044436 -0.367069 0.000000 
-0.000000 -0.336004 0.000000 
-0.044436 -0.367069 0.000000 
-0.087824 -0.324369 0.000000 
-0.130831 -0.345968 0.000000 
0.174505 -0.437098 0.000000 
0.131782 -0.416532 0.000000 
0.088871 -0.462398 0.000000 
0.044532 -0.434534 0.000000 
-0.000000 -0.470935 0.000000 
-0.044532 -0.434534 0.000000 
-0.088871 -0.462398 0.000000 
-0.131782 -0.416532 0.000000 
-0.174505 -0.437098 0.000000 
0.046960 -0.043596 0.000000 
0.149405 -0.069797 0.000000 
0.098873 -0.084995 0.000000 
0.095301 -0.137642 0.000000 
0.248777 -0.093061 0.000000 
0.203197 -0.112207 0.000000 
0.205981 -0.170411 0.000000 
0.148617 -0.180648 0.000000 
0.140093 -0.229346 0.000000 
0.347255 -0.115734 0.000000 
0.303554 -0.135892 0.000000 
0.309886 -0.196437 0.000000 
0.257893 -0.211809 0.000000 
0.254475 -0.265919 0.000000 
0.194039 -0.273219 0.000000 
0.184111 -0.320310 0.000000 
0.445733 -0.138407 0.000000 
0.403017 -0.158986 0.000000 
0.412122 -0.221133 0.000000 
0.362692 -0.238426 0.000000 
0.363386 -0.295937 0.000000 
0.307162 -0.308058 0.000000 
0.301302 -0.360097 0.000000 
0.238687 -0.365049 0.000000 
0.228129 -0.411274 0.000000 
0.058559 0.007219 0.000000 
0.142917 0.070977 0.000000 
0.123292 0.021994 0.000000 
0.162226 -0.013624 0.000000 
0.223062 0.134165 0.000000 
0.209613 0.086591 0.000000 
0.256854 0.052478 0.000000 
0.229092 0.001247 0.000000 
0.261851 -0.035780 0.000000 
0.302189 0.197022 0.000000 
0.290702 0.150286 0.000000 
0.341985 0.117487 0.000000 
0.321587 0.067253 0.000000 
0.361761 0.030845 0.000000 
0.329787 -0.020957 0.000000 
0.360414 -0.058080 0.000000 
0.381315 0.259878 0.000000 
0.370772 0.213651 0.000000 
0.425037 0.182022 0.000000 
0.407738 0.132594 0.000000 
0.453135 0.097278 0.000000 
0.427556 0.045763 0.000000 
0.464588 0.008736 0.000000 
0.429420 -0.043306 0.000000 
0.458977 -0.080380 0.000000 
0.026061 0.047970 0.000000 
0.028809 0.153676 0.000000 
0.054870 0.107792 0.000000 
0.106992 0.116025 0.000000 
0.029377 0.255733 0.000000 
0.058186 0.215556 0.000000 
0.114311 0.231222 0.000000 
0.137056 0.177574 0.000000 
0.186430 0.180101 0.000000 
0.029568 0.356787 0.000000 
0.058945 0.318667 0.000000 
0.116563 0.338313 0.000000 
0.143120 0.291044 0.000000 
0.196633 0.299753 0.000000 
0.217198 0.242457 0.000000 
0.265318 0.243256 0.000000 
0.029759 0.457842 0.000000 
0.059328 0.420776 0.000000 
0.117890 0.443481 0.000000 
0.145749 0.399139 0.000000 
0.201664 0.412613 0.000000 
0.225992 0.360496 0.000000 
0.278030 0.366362 0.000000 
0.296791 0.306419 0.000000 
0.344206 0.306412 0.000000 
VECTORS X_EC float 
0.338794 -0.147589 0.000000 
-0.609100 0.933662 0.000000 
0.713312 -0.955197 0.000000 
0.374519 0.425373 0.000000 
0.423588 0.068643 0.000000 
-0.218274 0.102746 0.000000 
-0.513962 -0.621492 0.000000 
0.756418 -0.410006 0.000000 
0.381900 -0.952399 0.000000 
-0.550868 -0.783960 0.000000 
0.823577 -0.773165 0.000000 
0.556234 0.453331 0.000000 
-0.139443 0.570900 0.000000 
-0.484677 -0.067225 0.000000 
0.766286 0.197991 0.000000 
0.384386 -0.316630 0.000000 
0.474677 0.363437 0.000000 
-0.141715 0.363340 0.000000 
-0.385608 -0.445888 0.000000 
0.937896 -0.366693 0.000000 
0.621631 0.929727 0.000000 
-0.105264 -0.888373 0.000000 
-0.467428 0.513000 0.000000 
0.771260 0.819529 0.000000 
0.386873 0.319139 0.000000 
0.761262 0.402545 0.000000 
0.108942 0.683922 0.000000 
-0.397202 0.203082 0.000000 
-0.142083 -0.458193 0.000000 
-0.595936 0.983032 0.000000 
0.978194 0.483166 0.000000 
-0.660903 -0.208459 0.000000 
0.724964 -0.668979 0.000000 
0.899809 0.688773 0.000000 
0.685384 -0.715915 0.000000 
0.287229 0.782926 0.000000 
0.702895 0.083598 0.000000 
0.180633 -0.407921 0.000000 
0.445811 0.913919 0.000000 
-0.220880 0.471133 0.000000 
-0.071546 -0.159792 0.000000 
-0.033296 -0.414863 0.000000 
-0.417537 -0.915373 0.000000 
0.039645 0.382065 0.000000 
-0.441768 -0.117807 0.000000 
-0.109248 -0.813257 0.000000 
-0.699407 0.709987 0.000000 
-0.474522 0.042708 0.000000 
0.820030 -0.384285 0.000000 
0.957100 0.991643 0.000000 
0.610485 -0.911449 0.000000 
-0.761092 0.358171 0.000000 
-0.714655 -0.352567 0.000000 
-0.057734 -0.557734 0.000000 
-0.178789 -0.403825 0.000000 
-0.067979 0.938749 0.000000 
0.677748 0.800545 0.000000 
0.641556 0.014800 0.000000 
-0.765897 -0.243678 0.000000 
0.393446 0.824184 0.000000 
0.522510 0.188454 0.000000 
-0.691820 0.089910 0.000000 
-0.647393 -0.640573 0.000000 
0.028512 -0.848099 0.000000 
-0.053800 0.334540 0.000000 
0.514316 0.062409 0.000000 
0.965681 0.052193 0.000000 
-0.897068 -0.571836 0.000000 
-0.083078 -0.638689 0.000000 
-0.006893 0.658787 0.000000 
0.724017 0.495154 0.000000 
0.714996 -0.281250 0.000000 
-0.642413 -0.514707 0.000000 
-0.760780 0.646312 0.000000 
-0.205471 0.368497 0.000000 
0.000000 -0.606147 0.000000 
-0.564049 0.695666 0.000000 
0.000000 0.290230 0.000000 
0.564049 0.695666 0.000000 
0.866949 -0.059679 0.000000 
-0.569003 -0.379610 0.000000 
0.000000 0.139678 0.000000 
0.569003 -0.379610 0.000000 
-0.866949 -0.059679 0.000000 
0.299194 -0.829429 0.000000 
0.858290 0.878987 0.000000 
-0.577662 -0.544567 0.000000 
0.000000 -0.963945 0.000000 
0.577662 -0.544567 0.000000 
-0.858290 0.878987 0.000000 
-0.299194 -0.829429 0.000000 
-0.268560 0.400821 0.000000 
0.286830 0.123180 0.000000 
0.844677 0.742378 0.000000 
-0.578910 0.366215 0.000000 
0.000000 0.857619 0.000000 
0.578910 0.366215 0.000000 
-0.844677 0.742378 0.000000 
-0.286830 0.123180 0.000000 
0.268560 0.400821 0.000000 
-0.610485 -0.911449 0.000000 
0.057734 -0.557734 0.000000 
0.714655 -0.352567 0.000000 
0.761092 0.358171 0.000000 
0.765897 -0.243678 0.000000 
-0.641556 0.014800 0.000000 
-0.677748 0.800545 0.000000 
0.067979 0.938749 0.000000 
0.178789 -0.403825 0.000000 
-0.514316 0.062409 0.000000 
0.053800 0.334540 0.000000 
-0.028512 -0.848099 0.000000 
0.647393 -0.640573 0.000000 
0.691820 0.089910 0.000000 
-0.522510 0.188454 0.000000 
-0.393446 0.824184 0.000000 
0.205471 0.368497 0.000000 
0.760780 0.646312 0.000000 
0.642413 -0.514707 0.000000 
-0.714996 -0.281250 0.000000 
-0.724017 0.495154 0.000000 
0.006894 0.658787 0.000000 
0.083078 -0.638689 0.000000 
0.897068 -0.571836 0.000000 
-0.965681 0.052193 0.000000 
-0.761262 0.402545 0.000000 
0.142083 -0.458193 0.000000 
0.397202 0.203082 0.000000 
-0.108942 0.683922 0.000000 
-0.899809 0.688773 0.000000 
-0.724964 -0.668979 0.000000 
0.660903 -0.208459 0.000000 
-0.978194 0.483166 0.000000 
0.595936 0.983032 0.000000 
0.071546 -0.159792 0.000000 
0.220880 0.471133 0.000000 
-0.445811 0.913919 0.000000 
-0.180633 -0.407921 0.000000 
-0.702895 0.083598 0.000000 
-0.287229 0.782926 0.000000 
-0.685384 -0.715915 0.000000 
-0.957100 0.991643 0.000000 
-0.820030 -0.384285 0.000000 
0.474522 0.042708 0.000000 
0.699407 0.709987 0.000000 
0.109248 -0.813257 0.000000 
0.441768 -0.117807 0.000000 
-0.039645 0.382065 0.000000 
0.417537 -0.915373 0.000000 
0.033296 -0.414863 0.000000 
-0.338794 -0.147589 0.000000 
-0.374519 0.425373 0.000000 
-0.713312 -0.955197 0.000000 
0.609100 0.933662 0.000000 
-0.381900 -0.952399 0.000000 
-0.756418 -0.410006 0.000000 
0.513962 -0.621492 0.000000 
0.218274 0.102746 0.000000 
-0.423588 0.068643 0.000000 
-0.384386 -0.316630 0.000000 
-0.766286 0.197991 0.000000 
0.484677 -0.067225 0.000000 
0.139443 0.570900 0.000000 
-0.556234 0.453331 0.000000 
-0.823577 -0.773165 0.000000 
0.550868 -0.783960 0.000000 
-0.386873 0.319139 0.000000 
-0.771260 0.819529 0.000000 
0.467428 0.513000 0.000000 
0.105264 -0.888373 0.000000 
-0.621631 0.929727 0.000000 
-0.937896 -0.366693 0.000000 
0.385608 -0.445888 0.000000 
0.141715 0.363340 0.000000 
-0.474677 0.363437 0.000000 
CELL_DATA 175 
SCALARS MASS float 
LOOKUP_TABLE default 
0.078183 
0.086427 
0.094672 
0.086427 
0.088131 
0.092111 
0.085854 
0.092111 
0.088131 
0.088705 
0.091000 
0.086983 
0.091556 
0.086983 
0.091000 
0.088705 
0.089278 
0.091574 
0.089278 
0.092722 
0.089278 
0.092722 
0.089278 
0.091574 
0.089278 
0.078183 
0.086427 
0.094672 
0.086427 
0.088131 
0.092111 
0.085854 
0.092111 
0.088131 
0.088705 
0.091000 
0.086983 
0.091556 
0.086983 
0.091000 
0.088705 
0.089278 
0.091574 
0.089278 
0.092722 
0.089278 
0.092722 
0.089278 
0.091574 
0.089278 
0.078183 
0.086427 
0.094672 
0.086427 
0.088131 
0.092111 
0.085854 
0.092111 
0.088131 
0.088705 
0.091000 
0.086983 
0.091556 
0.086983 
0.091000 
0.088705 
0.089278 
0.091574 
0.089278 
0.092722 
0.089278 
0.092722 
0.089278 
0.091574 
0.089278 
0.078183 
0.086427 
0.094672 
0.086427 
0.088131 
0.092111 
0.085854 
0.092111 
0.088131 
0.088705 
0.091000 
0.086983 
0.091556 
0.086983 
0.091000 
0.088705 
0.089278 
0.091574 
0.089278 
0.092722 
0.089278 
0.092722 
0.089278 
0.091574 
0.089278 
0.078183 
0.086427 
0.094672 
0.086427 
0.088131 
0.092111 
0.085854 
0.092111 
0.088131 
0.088705 
0.091000 
0.086983 
0.091556 
0.086983 
0.091000 
0.088705 
0.089278 
0.091574 
0.089278 
0.092722 
0.089278 
0.092722 
0.089278 
0.091574 
0.089278 
0.078183 
0.086427 
0.094672 
0.086427 
0.088131 
0.092111 
0.085854 
0.092111 
0.088131 
0.088705 
0.091000 
0.086983 
0.091556 
0.086983 
0.091000 
0.088705 
0.089278 
0.091574 
0.089278 
0.092722 
0.089278 
0.092722 
0.089278 
0.091574 
0.089278 
0.078183 
0.086427 
0.094672 
0.086427 
0.088131 
0.092111 
0.085854 
0.092111 
0.088131 
0.088705 
0.091000 
0.086983 
0.091556 
0.086983 
0.091000 
0.088705 
0.089278 
0.091574 
0.089278 
0.092722 
0.089278 
0.092722 
0.089278 
0.091574 
0.089278 
SCALARS MASS float 
LOOKUP_TABLE default 
0.078183 
0.086427 
0.094672 
0.086427 
0.088131 
0.092111 
0.085854 
0.092111 
0.088131 
0.088705 
0.091000 
0.086983 
0.091556 
0.086983 
0.091000 
0.088705 
0.089278 
0.091574 
0.089278 
0.092722 
0.089278 
0.092722 
0.089278 
0.091574 
0.089278 
0.078183 
0.086427 
0.094672 
0.086427 
0.088131 
0.092111 
0.085854 
0.092111 
0.088131 
0.088705 
0.091000 
0.086983 
0.091556 
0.086983 
0.091000 
0.088705 
0.089278 
0.091574 
0.089278 
0.092722 
0.089278 
0.092722 
0.089278 
0.091574 
0.089278 
0.078183 
0.086427 
0.094672 
0.086427 
0.088131 
0.092111 
0.085854 
0.092111 
0.088131 
0.088705 
0.091000 
0.086983 
0.091556 
0.086983 
0.091000 
0.088705 
0.089278 
0.091574 
0.089278 
0.092722 
0.089278 
0.092722 
0.089278 
0.091574 
0.089278 
0.078183 
0.086427 
0.094672 
0.086427 
0.088131 
0.092111 
0.085854 
0.092111 
0.088131 
0.088705 
0.091000 
0.086983 
0.091556 
0.086983 
0.091000 
0.088705 
0.089278 
0.091574 
0.089278 
0.092722 
0.089278 
0.092722 
0.089278 
0.091574 
0.089278 
0.078183 
0.086427 
0.094672 
0.086427 
0.088131 
0.092111 
0.085854 
0.092111 
0.088131 
0.088705 
0.091000 
0.086983 
0.091556 
0.086983 
0.091000 
0.088705 
0.089278 
0.091574 
0.089278 
0.092722 
0.089278 
0.092722 
0.089278 
0.091574 
0.089278 
0.078183 
0.086427 
0.094672 
0.086427 
0.088131 
0.092111 
0.085854 
0.092111 
0.088131 
0.088705 
0.091000 
0.086983 
0.091556 
0.086983 
0.091000 
0.088705 
0.089278 
0.091574 
0.089278 
0.092722 
0.089278 
0.092722 
0.089278 
0.091574 
0.089278 
0.078183 
0.086427 
0.094672 
0.086427 
0.088131 
0.092111 
0.085854 
0.092111 
0.088131 
0.088705 
0.091000 
0.086983 
0.091556 
0.086983 
0.091000 
0.088705 
0.089278 
0.091574 
0.089278 
0.092722 
0.089278 
0.092722 
0.089278 
0.091574 
0.089278 
SCALARS DENSITY float 
LOOKUP_TABLE default 
20.000000 
20.000000 
20.000000 
20.000000 
20.000000 
20.000000 
20.000000 
20.000000 
20.000000 
20.000000 
20.000000 
20.000000 
20.000000 
20.000000 
20.000000 
20.000000 
20.000000 
20.000000 
20.000000 
20.000000 
20.000000 
20.000000 
20.000000 
20.000000 
20.000000 
20.000000 
20.000000 
20.000000 
20.000000 
20.000000 
20.000000 
20.000000 
20.000000 
20.000000 
20.000000 
20.000000 
20.000000 
20.000000 
20.000000 
20.000000 
20.000000 
20.000000 
20.000000 
20.000000 
20.000000 
20.000000 
20.000000 
20.000000 
20.000000 
20.000000 
20.000000 
20.000000 
20.000000 
20.000000 
20.000000 
20.000000 
20.000000 
20.000000 
20.000000 
20.000000 
20.000000 
20.000000 
20.000000 
20.000000 
20.000000 
20.000000 
20.000000 
20.000000 
20.000000 
20.000000 
20.000000 
20.000000 
20.000000 
20.000000 
20.000000 
20.000000 
20.000000 
20.000000 
20.000000 
20.000000 
20.000000 
20.000000 
20.000000 
20.000000 
20.000000 
20.000000 
20.000000 
20.000000 
20.000000 
20.000000 
20.000000 
20.000000 
20.000000 
20.000000 
20.000000 
20.000000 
20.000000 
20.000000 
20.000000 
20.000000 
20.000000 
20.000000 
20.000000 
20.000000 
20.000000 
20.000000 
20.000000 
20.000000 
20.000000 
20.000000 
20.000000 
20.000000 
20.000000 
20.000000 
20.000000 
20.000000 
20.000000 
20.000000 
20.000000 
20.000000 
20.000000 
20.000000 
20.000000 
20.000000 
20.000000 
20.000000 
20.000000 
20.000000 
20.000000 
20.000000 
20.000000 
20.000000 
20.000000 
20.000000 
20.000000 
20.000000 
20.000000 
20.000000 
20.000000 
20.000000 
20.000000 
20.000000 
20.000000 
20.000000 
20.000000 
20.000000 
20.000000 
20.000000 
20.000000 
20.000000 
20.000000 
20.000000 
20.000000 
20.000000 
20.000000 
20.000000 
20.000000 
20.000000 
20.000000 
20.000000 
20.000000 
20.000000 
20.000000 
20.000000 
20.000000 
20.000000 
20.000000 
20.000000 
20.000000 
20.000000 
20.000000 
20.000000 
20.000000 
20.000000 
20.000000 
SCALARS ELEM_i float 
LOOKUP_TABLE default 
182 
210 
182 
183 
210 
210 
210 
183 
183 
237 
210 
211 
211 
211 
184 
184 
238 
238 
238 
211 
212 
211 
212 
185 
185 
182 
209 
209 
209 
236 
209 
236 
209 
210 
235 
236 
236 
236 
237 
237 
237 
262 
262 
263 
263 
263 
264 
264 
237 
238 
181 
208 
208 
208 
207 
208 
208 
208 
235 
207 
207 
234 
234 
234 
235 
235 
206 
233 
233 
234 
234 
234 
261 
262 
262 
181 
181 
181 
181 
153 
180 
180 
180 
207 
152 
153 
179 
179 
179 
207 
206 
152 
152 
152 
179 
179 
179 
206 
206 
206 
181 
154 
154 
154 
127 
154 
154 
154 
153 
127 
127 
126 
126 
126 
153 
153 
100 
100 
99 
126 
126 
126 
125 
125 
152 
182 
155 
155 
155 
156 
155 
128 
155 
128 
129 
129 
129 
128 
128 
128 
127 
130 
129 
102 
102 
101 
101 
101 
100 
100 
182 
183 
182 
156 
183 
183 
156 
156 
156 
184 
184 
157 
157 
157 
156 
129 
185 
185 
158 
157 
158 
157 
130 
130 
130 
VECTORS VELOCITY float 
-0.000000 -0.346882 0.000000 
0.000000 -0.346882 0.000000 
0.000000 -0.346882 0.000000 
-0.000000 -0.346882 0.000000 
-0.000000 -0.346882 0.000000 
-0.000000 -0.346882 0.000000 
-0.000000 -0.346882 0.000000 
-0.000000 -0.346882 0.000000 
-0.000000 -0.346882 0.000000 
-0.000000 -0.346882 0.000000 
-0.000000 -0.346882 0.000000 
-0.000000 -0.346882 0.000000 
-0.000000 -0.346882 0.000000 
-0.000000 -0.346882 0.000000 
-0.000000 -0.346882 0.000000 
-0.000000 -0.346882 0.000000 
0.000000 -0.346882 0.000000 
-0.000000 -0.346882 0.000000 
-0.000000 -0.346882 0.000000 
-0.000000 -0.346882 0.000000 
-0.000000 -0.346882 0.000000 
-0.000000 -0.346882 0.000000 
0.000000 -0.346882 0.000000 
0.000000 -0.346882 0.000000 
0.000000 -0.346882 0.000000 
-0.000000 -0.346882 0.000000 
-0.000000 -0.346882 0.000000 
-0.000000 -0.346882 0.000000 
0.000000 -0.346882 0.000000 
-0.000000 -0.346882 0.000000 
-0.000000 -0.346882 0.000000 
0.000000 -0.346882 0.000000 
0.000000 -0.346882 0.000000 
0.000000 -0.346882 0.000000 
0.000000 -0.346882 0.000000 
0.000000 -0.346882 0.000000 
0.000000 -0.346882 0.000000 
0.000000 -0.346882 0.000000 
0.000000 -0.346882 0.000000 
0.000000 -0.346882 0.000000 
0.000000 -0.346882 0.000000 
-0.000000 -0.346882 0.000000 
0.000000 -0.346882 0.000000 
-0.000000 -0.346882 0.000000 
-0.000000 -0.346882 0.000000 
-0.000000 -0.346882 0.000000 
0.000000 -0.346882 0.000000 
0.000000 -0.346882 0.000000 
0.000000 -0.346882 0.000000 
0.000000 -0.346882 0.000000 
-0.000000 -0.346882 0.000000 
-0.000000 -0.346882 0.000000 
-0.000000 -0.346882 0.000000 
-0.000000 -0.346882 0.000000 
-0.000000 -0.346882 0.000000 
-0.000000 -0.346882 0.000000 
-0.000000 -0.346882 0.000000 
-0.000000 -0.346882 0.000000 
-0.000000 -0.346882 0.000000 
-0.000000 -0.346882 0.000000 
-0.000000 -0.346882 0.000000 
-0.000000 -0.346882 0.000000 
-0.000000 -0.346882 0.000000 
-0.000000 -0.346882 0.000000 
0.000000 -0.346882 0.000000 
0.000000 -0.346882 0.000000 
0.000000 -0.346882 0.000000 
-0.000000 -0.346882 0.000000 
-0.000000 -0.346882 0.000000 
-0.000000 -0.346882 0.000000 
-0.000000 -0.346882 0.000000 
-0.000000 -0.346882 0.000000 
-0.000000 -0.346882 0.000000 
0.000000 -0.346882 0.000000 
0.000000 -0.346882 0.000000 
-0.000000 -0.346882 0.000000 
0.000000 -0.346882 0.000000 
-0.000000 -0.346882 0.000000 
-0.000000 -0.346882 0.000000 
0.000000 -0.346882 0.000000 
0.000000 -0.346882 0.000000 
0.000000 -0.346882 0.000000 
-0.000000 -0.346882 0.000000 
-0.000000 -0.346882 0.000000 
0.000000 -0.346882 0.000000 
0.000000 -0.346882 0.000000 
0.000000 -0.346882 0.000000 
0.000000 -0.346882 0.000000 
0.000000 -0.346882 0.000000 
-0.000000 -0.346882 0.000000 
-0.000000 -0.346882 0.000000 
-0.000000 -0.346882 0.000000 
-0.000000 -0.346882 0.000000 
0.000000 -0.346882 0.000000 
0.000000 -0.346882 0.000000 
0.000000 -0.346882 0.000000 
0.000000 -0.346882 0.000000 
0.000000 -0.346882 0.000000 
0.000000 -0.346882 0.000000 
0.000000 -0.346882 0.000000 
-0.000000 -0.346882 0.000000 
0.000000 -0.346882 0.000000 
-0.000000 -0.346882 0.000000 
0.000000 -0.346882 0.000000 
0.000000 -0.346882 0.000000 
0.000000 -0.346882 0.000000 
0.000000 -0.346882 0.000000 
0.000000 -0.346882 0.000000 
0.000000 -0.346882 0.000000 
-0.000000 -0.346882 0.000000 
0.000000 -0.346882 0.000000 
-0.000000 -0.346882 0.000000 
0.000000 -0.346882 0.000000 
0.000000 -0.346882 0.000000 
0.000000 -0.346882 0.000000 
0.000000 -0.346882 0.000000 
0.000000 -0.346882 0.000000 
-0.000000 -0.346882 0.000000 
0.000000 -0.346882 0.000000 
-0.000000 -0.346882 0.000000 
-0.000000 -0.346882 0.000000 
0.000000 -0.346882 0.000000 
-0.000000 -0.346882 0.000000 
-0.000000 -0.346882 0.000000 
-0.000000 -0.346882 0.000000 
-0.000000 -0.346882 0.000000 
0.000000 -0.346882 0.000000 
0.000000 -0.346882 0.000000 
0.000000 -0.346882 0.000000 
-0.000000 -0.346882 0.000000 
-0.000000 -0.346882 0.000000 
0.000000 -0.346882 0.000000 
0.000000 -0.346882 0.000000 
0.000000 -0.346882 0.000000 
-0.000000 -0.346882 0.000000 
0.000000 -0.346882 0.000000 
0.000000 -0.346882 0.000000 
0.000000 -0.346882 0.000000 
0.000000 -0.346882 0.000000 
0.000000 -0.346882 0.000000 
0.000000 -0.346882 0.000000 
-0.000000 -0.346882 0.000000 
-0.000000 -0.346882 0.000000 
-0.000000 -0.346882 0.000000 
0.000000 -0.346882 0.000000 
-0.000000 -0.346882 0.000000 
0.000000 -0.346882 0.000000 
0.000000 -0.346882 0.000000 
0.000000 -0.346882 0.000000 
0.000000 -0.346882 0.000000 
0.000000 -0.346882 0.000000 
0.000000 -0.346882 0.000000 
0.000000 -0.346882 0.000000 
0.000000 -0.346882 0.000000 
-0.000000 -0.346882 0.000000 
0.000000 -0.346882 0.000000 
0.000000 -0.346882 0.000000 
0.000000 -0.346882 0.000000 
0.000000 -0.346882 0.000000 
-0.000000 -0.346882 0.000000 
-0.000000 -0.346882 0.000000 
-0.000000 -0.346882 0.000000 
0.000000 -0.346882 0.000000 
-0.000000 -0.346882 0.000000 
0.000000 -0.346882 0.000000 
-0.000000 -0.346882 0.000000 
-0.000000 -0.346882 0.000000 
-0.000000 -0.346882 0.000000 
-0.000000 -0.346882 0.000000 
-0.000000 -0.346882 0.000000 
-0.000000 -0.346882 0.000000 
-0.000000 -0.346882 0.000000 
-0.000000 -0.346882 0.000000 
-0.000000 -0.346882 0.000000 
-0.000000 -0.346882 0.000000 
TENSORS STRESS float 
-0.000000 0.000000 0.000000 
0.000000 -0.000000 0.000000 
0.000000 0.000000 0.000000 

0.000000 -0.000000 0.000000 
0.000000 0.000000 0.000000 
0.000000 0.000000 0.000000 

-0.000000 -0.000000 0.000000 
0.000000 0.000000 0.000000 
0.000000 0.000000 0.000000 

0.000000 -0.000000 0.000000 
0.000000 0.000000 0.000000 
0.000000 0.000000 0.000000 

0.000000 -0.000000 0.000000 
0.000000 0.000000 0.000000 
0.000000 0.000000 0.000000 

0.000000 -0.000000 0.000000 
0.000000 0.000000 0.000000 
0.000000 0.000000 0.000000 

0.000000 -0.000000 0.000000 
0.000000 0.000000 0.000000 
0.000000 0.000000 0.000000 

-0.000000 -0.000000 0.000000 
0.000000 0.000000 0.000000 
0.000000 0.000000 0.000000 

-0.000000 0.000000 0.000000 
0.000000 0.000000 0.000000 
0.000000 0.000000 0.000000 

-0.000000 0.000000 0.000000 
0.000000 0.000000 0.000000 
0.000000 0.000000 0.000000 

0.000000 -0.000000 0.000000 
0.000000 0.000000 0.000000 
0.000000 0.000000 0.000000 

0.000000 -0.000000 0.000000 
0.000000 0.000000 0.000000 
0.000000 0.000000 0.000000 

-0.000000 -0.000000 0.000000 
0.000000 -0.000000 0.000000 
0.000000 0.000000 0.000000 

-0.000000 -0.000000 0.000000 
0.000000 -0.000000 0.000000 
0.000000 0.000000 0.000000 

-0.000000 0.000000 0.000000 
0.000000 -0.000000 0.000000 
0.000000 0.000000 0.000000 

-0.000000 0.000000 0.000000 
0.000000 -0.000000 0.000000 
0.000000 0.000000 0.000000 

-0.000000 -0.000000 0.000000 
0.000000 -0.000000 0.000000 
0.000000 0.000000 0.000000 

-0.000000 0.000000 0.000000 
0.000000 -0.000000 0.000000 
0.000000 0.000000 0.000000 

0.000000 0.000000 0.000000 
0.000000 -0.000000 0.000000 
0.000000 0.000000 0.000000 

-0.000000 -0.000000 0.000000 
0.000000 -0.000000 0.000000 
0.000000 0.000000 0.000000 

-0.000000 -0.000000 0.000000 
0.000000 -0.000000 0.000000 
0.000000 0.000000 0.000000 

-0.000000 -0.000000 0.000000 
0.000000 -0.000000 0.000000 
0.000000 0.000000 0.000000 

-0.000000 -0.000000 0.000000 
0.000000 -0.000000 0.000000 
0.000000 0.000000 0.000000 

0.000000 0.000000 0.000000 
0.000000 -0.000000 0.000000 
0.000000 0.000000 0.000000 

0.000000 0.000000 0.000000 
0.000000 -0.000000 0.000000 
0.000000 0.000000 0.000000 

-0.000000 0.000000 0.000000 
0.000000 -0.000000 0.000000 
0.000000 0.000000 0.000000 

-0.000000 0.000000 0.000000 
0.000000 0.000000 0.000000 
0.000000 0.000000 0.000000 

-0.000000 0.000000 0.000000 
0.000000 0.000000 0.000000 
0.000000 0.000000 0.000000 

-0.000000 0.000000 0.000000 
0.000000 0.000000 0.000000 
0.000000 0.000000 0.000000 

0.000000 -0.000000 0.000000 
0.000000 0.000000 0.000000 
0.000000 0.000000 0.000000 

-0.000000 0.000000 0.000000 
0.000000 0.000000 0.000000 
0.000000 0.000000 0.000000 

0.000000 -0.000000 0.000000 
0.000000 0.000000 0.000000 
0.000000 0.000000 0.000000 

0.000000 -0.000000 0.000000 
0.000000 0.000000 0.000000 
0.000000 0.000000 0.000000 

0.000000 -0.000000 0.000000 
0.000000 0.000000 0.000000 
0.000000 0.000000 0.000000 

0.000000 -0.000000 0.000000 
0.000000 -0.000000 0.000000 
0.000000 0.000000 0.000000 

-0.000000 -0.000000 0.000000 
0.000000 -0.000000 0.000000 
0.000000 0.000000 0.000000 

0.000000 -0.000000 0.000000 
0.000000 0.000000 0.000000 
0.000000 0.000000 0.000000 

0.000000 -0.000000 0.000000 
0.000000 -0.000000 0.000000 
0.000000 0.000000 0.000000 

0.000000 0.000000 0.000000 
0.000000 0.000000 0.000000 
0.000000 0.000000 0.000000 

0.000000 0.000000 0.000000 
0.000000 0.000000 0.000000 
0.000000 0.000000 0.000000 

0.000000 0.000000 0.000000 
0.000000 0.000000 0.000000 
0.000000 0.000000 0.000000 

0.000000 0.000000 0.000000 
0.000000 -0.000000 0.000000 
0.000000 0.000000 0.000000 

0.000000 0.000000 0.000000 
0.000000 -0.000000 0.000000 
0.000000 0.000000 0.000000 

0.000000 -0.000000 0.000000 
0.000000 0.000000 0.000000 
0.000000 0.000000 0.000000 

0.000000 -0.000000 0.000000 
0.000000 -0.000000 0.000000 
0.000000 0.000000 0.000000 

-0.000000 -0.000000 0.000000 
0.000000 -0.000000 0.000000 
0.000000 0.000000 0.000000 

0.000000 -0.000000 0.000000 
0.000000 0.000000 0.000000 
0.000000 0.000000 0.000000 

-0.000000 -0.000000 0.000000 
0.000000 0.000000 0.000000 
0.000000 0.000000 0.000000 

-0.000000 0.000000 0.000000 
0.000000 0.000000 0.000000 
0.000000 0.000000 0.000000 

-0.000000 -0.000000 0.000000 
0.000000 -0.000000 0.000000 
0.000000 0.000000 0.000000 

-0.000000 0.000000 0.000000 
0.000000 -0.000000 0.000000 
0.000000 0.000000 0.000000 

0.000000 0.000000 0.000000 
0.000000 -0.000000 0.000000 
0.000000 0.000000 0.000000 

-0.000000 0.000000 0.000000 
0.000000 -0.000000 0.000000 
0.000000 0.000000 0.000000 

-0.000000 0.000000 0.000000 
0.000000 -0.000000 0.000000 
0.000000 0.000000 0.000000 

0.000000 0.000000 0.000000 
0.000000 0.000000 0.000000 
0.000000 0.000000 0.000000 

0.000000 0.000000 0.000000 
0.000000 -0.000000 0.000000 
0.000000 0.000000 0.000000 

0.000000 0.000000 0.000000 
0.000000 -0.000000 0.000000 
0.000000 0.000000 0.000000 

-0.000000 0.000000 0.000000 
0.000000 -0.000000 0.000000 
0.000000 0.000000 0.000000 

0.000000 -0.000000 0.000000 
0.000000 -0.000000 0.000000 
0.000000 0.000000 0.000000 

0.000000 0.000000 0.000000 
0.000000 -0.000000 0.000000 
0.000000 0.000000 0.000000 

0.000000 0.000000 0.000000 
0.000000 0.000000 0.000000 
0.000000 0.000000 0.000000 

0.000000 -0.000000 0.000000 
0.000000 0.000000 0.000000 
0.000000 0.000000 0.000000 

0.000000 -0.000000 0.000000 
0.000000 0.000000 0.000000 
0.000000 0.000000 0.000000 

0.000000 -0.000000 0.000000 
0.000000 0.000000 0.000000 
0.000000 0.000000 0.000000 

-0.000000 -0.000000 0.000000 
0.000000 -0.000000 0.000000 
0.000000 0.000000 0.000000 

0.000000 -0.000000 0.000000 
0.000000 -0.000000 0.000000 
0.000000 0.000000 0.000000 

0.000000 -0.000000 0.000000 
0.000000 -0.000000 0.000000 
0.000000 0.000000 0.000000 

0.000000 -0.000000 0.000000 
0.000000 -0.000000 0.000000 
0.000000 0.000000 0.000000 

0.000000 -0.000000 0.000000 
0.000000 -0.000000 0.000000 
0.000000 0.000000 0.000000 

0.000000 0.000000 0.000000 
0.000000 0.000000 0.000000 
0.000000 0.000000 0.000000 

0.000000 0.000000 0.000000 
0.000000 0.000000 0.000000 
0.000000 0.000000 0.000000 

0.000000 0.000000 0.000000 
0.000000 0.000000 0.000000 
0.000000 0.000000 0.000000 

0.000000 -0.000000 0.000000 
0.000000 -0.000000 0.000000 
0.000000 0.000000 0.000000 

0.000000 -0.000000 0.000000 
0.000000 -0.000000 0.000000 
0.000000 0.000000 0.000000 

0.000000 -0.000000 0.000000 
0.000000 -0.000000 0.000000 
0.000000 0.000000 0.000000 

-0.000000 -0.000000 0.000000 
0.000000 -0.000000 0.000000 
0.000000 0.000000 0.000000 

-0.000000 0.000000 0.000000 
0.000000 -0.000000 0.000000 
0.000000 0.000000 0.000000 

-0.000000 -0.000000 0.000000 
0.000000 -0.000000 0.000000 
0.000000 0.000000 0.000000 

-0.000000 0.000000 0.000000 
0.000000 -0.000000 0.000000 
0.000000 0.000000 0.000000 

-0.000000 -0.000000 0.000000 
0.000000 0.000000 0.000000 
0.000000 0.000000 0.000000 

0.000000 0.000000 0.000000 
0.000000 0.000000 0.000000 
0.000000 0.000000 0.000000 

0.000000 0.000000 0.000000 
0.000000 0.000000 0.000000 
0.000000 0.000000 0.000000 

0.000000 0.000000 0.000000 
0.000000 0.000000 0.000000 
0.000000 0.000000 0.000000 

0.000000 0.000000 0.000000 
0.000000 0.000000 0.000000 
0.000000 0.000000 0.000000 

0.000000 -0.000000 0.000000 
0.000000 0.000000 0.000000 
0.000000 0.000000 0.000000 

0.000000 -0.000000 0.000000 
0.000000 0.000000 0.000000 
0.000000 0.000000 0.000000 

0.000000 -0.000000 0.000000 
0.000000 0.000000 0.000000 
0.000000 0.000000 0.000000 

0.000000 0.000000 0.000000 
0.000000 0.000000 0.000000 
0.000000 0.000000 0.000000 

-0.000000 0.000000 0.000000 
0.000000 -0.000000 0.000000 
0.000000 0.000000 0.000000 

0.000000 0.000000 0.000000 
0.000000 0.000000 0.000000 
0.000000 0.000000 0.000000 

0.000000 0.000000 0.000000 
0.000000 -0.000000 0.000000 
0.000000 0.000000 0.000000 

0.000000 -0.000000 0.000000 
0.000000 0.000000 0.000000 
0.000000 0.000000 0.000000 

0.000000 -0.000000 0.000000 
0.000000 0.000000 0.000000 
0.000000 0.000000 0.000000 

0.000000 -0.000000 0.000000 
0.000000 0.000000 0.000000 
0.000000 0.000000 0.000000 

0.000000 -0.000000 0.000000 
0.000000 0.000000 0.000000 
0.000000 0.000000 0.000000 

0.000000 -0.000000 0.000000 
0.000000 -0.000000 0.000000 
0.000000 0.000000 0.000000 

0.000000 0.000000 0.000000 
0.000000 -0.000000 0.000000 
0.000000 0.000000 0.000000 

-0.000000 0.000000 0.000000 
0.000000 -0.000000 0.000000 
0.000000 0.000000 0.000000 

0.000000 0.000000 0.000000 
0.000000 -0.000000 0.000000 
0.000000 0.000000 0.000000 

0.000000 -0.000000 0.000000 
0.000000 -0.000000 0.000000 
0.000000 0.000000 0.000000 

-0.000000 0.000000 0.000000 
0.000000 -0.000000 0.000000 
0.000000 0.000000 0.000000 

-0.000000 -0.000000 0.000000 
0.000000 -0.000000 0.000000 
0.000000 0.000000 0.000000 

-0.000000 -0.000000 0.000000 
0.000000 -0.000000 0.000000 
0.000000 0.000000 0.000000 

-0.000000 -0.000000 0.000000 
0.000000 -0.000000 0.000000 
0.000000 0.000000 0.000000 

-0.000000 0.000000 0.000000 
0.000000 -0.000000 0.000000 
0.000000 0.000000 0.000000 

-0.000000 -0.000000 0.000000 
0.000000 -0.000000 0.000000 
0.000000 0.000000 0.000000 

-0.000000 -0.000000 0.000000 
0.000000 -0.000000 0.000000 
0.000000 0.000000 0.000000 

-0.000000 -0.000000 0.000000 
0.000000 -0.000000 0.000000 
0.000000 0.000000 0.000000 

-0.000000 -0.000000 0.000000 
0.000000 0.000000 0.000000 
0.000000 0.000000 0.000000 

-0.000000 0.000000 0.000000 
0.000000 -0.000000 0.000000 
0.000000 0.000000 0.000000 

-0.000000 0.000000 0.000000 
0.000000 -0.000000 0.000000 
0.000000 0.000000 0.000000 

0.000000 -0.000000 0.000000 
0.000000 0.000000 0.000000 
0.000000 0.000000 0.000000 

0.000000 -0.000000 0.000000 
0.000000 0.000000 0.000000 
0.000000 0.000000 0.000000 

-0.000000 0.000000 0.000000 
0.000000 -0.000000 0.000000 
0.000000 0.000000 0.000000 

-0.000000 -0.000000 0.000000 
0.000000 0.000000 0.000000 
0.000000 0.000000 0.000000 

0.000000 -0.000000 0.000000 
0.000000 0.000000 0.000000 
0.000000 0.000000 0.000000 

0.000000 0.000000 0.000000 
0.000000 0.000000 0.000000 
0.000000 0.000000 0.000000 

-0.000000 0.000000 0.000000 
0.000000 -0.000000 0.000000 
0.000000 0.000000 0.000000 

-0.000000 -0.000000 0.000000 
0.000000 -0.000000 0.000000 
0.000000 0.000000 0.000000 

0.000000 -0.000000 0.000000 
0.000000 -0.000000 0.000000 
0.000000 0.000000 0.000000 

0.000000 0.000000 0.000000 
0.000000 -0.000000 0.000000 
0.000000 0.000000 0.000000 

0.000000 0.000000 0.000000 
0.000000 0.000000 0.000000 
0.000000 0.000000 0.000000 

0.000000 -0.000000 0.000000 
0.000000 0.000000 0.000000 
0.000000 0.000000 0.000000 

0.000000 -0.000000 0.000000 
0.000000 0.000000 0.000000 
0.000000 0.000000 0.000000 

0.000000 -0.000000 0.000000 
0.000000 0.000000 0.000000 
0.000000 0.000000 0.000000 

-0.000000 0.000000 0.000000 
0.000000 -0.000000 0.000000 
0.000000 0.000000 0.000000 

-0.000000 -0.000000 0.000000 
0.000000 -0.000000 0.000000 
0.000000 0.000000 0.000000 

-0.000000 -0.000000 0.000000 
0.000000 -0.000000 0.000000 
0.000000 0.000000 0.000000 

-0.000000 -0.000000 0.000000 
0.000000 -0.000000 0.000000 
0.000000 0.000000 0.000000 

0.000000 -0.000000 0.000000 
0.000000 0.000000 0.000000 
0.000000 0.000000 0.000000 

-0.000000 0.000000 0.000000 
0.000000 -0.000000 0.000000 
0.000000 0.000000 0.000000 

0.000000 0.000000 0.000000 
0.000000 -0.000000 0.000000 
0.000000 0.000000 0.000000 

-0.000000 -0.000000 0.000000 
0.000000 -0.000000 0.000000 
0.000000 0.000000 0.000000 

0.000000 0.000000 0.000000 
0.000000 -0.000000 0.000000 
0.000000 0.000000 0.000000 

-0.000000 -0.000000 0.000000 
0.000000 0.000000 0.000000 
0.000000 0.000000 0.000000 

0.000000 -0.000000 0.000000 
0.000000 0.000000 0.000000 
0.000000 0.000000 0.000000 

0.000000 -0.000000 0.000000 
0.000000 0.000000 0.000000 
0.000000 0.000000 0.000000 

0.000000 0.000000 0.000000 
0.000000 0.000000 0.000000 
0.000000 0.000000 0.000000 

0.000000 0.000000 0.000000 
0.000000 0.000000 0.000000 
0.000000 0.000000 0.000000 

0.000000 0.000000 0.000000 
0.000000 0.000000 0.000000 
0.000000 0.000000 0.000000 

0.000000 0.000000 0.000000 
0.000000 -0.000000 0.000000 
0.000000 0.000000 0.000000 

-0.000000 -0.000000 0.000000 
0.000000 -0.000000 0.000000 
0.000000 0.000000 0.000000 

-0.000000 -0.000000 0.000000 
0.000000 -0.000000 0.000000 
0.000000 0.000000 0.000000 

0.000000 0.000000 0.000000 
0.000000 0.000000 0.000000 
0.000000 0.000000 0.000000 

0.000000 -0.000000 0.000000 
0.000000 -0.000000 0.000000 
0.000000 0.000000 0.000000 

0.000000 0.000000 0.000000 
0.000000 0.000000 0.000000 
0.000000 0.000000 0.000000 

-0.000000 0.000000 0.000000 
0.000000 -0.000000 0.000000 
0.000000 0.000000 0.000000 

0.000000 0.000000 0.000000 
0.000000 0.000000 0.000000 
0.000000 0.000000 0.000000 

-0.000000 0.000000 0.000000 
0.000000 -0.000000 0.000000 
0.000000 0.000000 0.000000 

-0.000000 0.000000 0.000000 
0.000000 -0.000000 0.000000 
0.000000 0.000000 0.000000 

-0.000000 0.000000 0.000000 
0.000000 -0.000000 0.000000 
0.000000 0.000000 0.000000 

0.000000 -0.000000 0.000000 
0.000000 0.000000 0.000000 
0.000000 0.000000 0.000000 

-0.000000 -0.000000 0.000000 
0.000000 -0.000000 0.000000 
0.000000 0.000000 0.000000 

0.000000 -0.000000 0.000000 
0.000000 0.000000 0.000000 
0.000000 0.000000 0.000000 

0.000000 0.000000 0.000000 
0.000000 0.000000 0.000000 
0.000000 0.000000 0.000000 

0.000000 -0.000000 0.000000 
0.000000 0.000000 0.000000 
0.000000 0.000000 0.000000 

-0.000000 -0.000000 0.000000 
0.000000 0.000000 0.000000 
0.000000 0.000000 0.000000 

0.000000 -0.000000 0.000000 
0.000000 0.000000 0.000000 
0.000000 0.000000 0.000000 

0.000000 -0.000000 0.000000 
0.000000 0.000000 0.000000 
0.000000 0.000000 0.000000 

0.000000 0.000000 0.000000 
0.000000 0.000000 0.000000 
0.000000 0.000000 0.000000 

-0.000000 0.000000 0.000000 
0.000000 0.000000 0.000000 
0.000000 0.000000 0.000000 

-0.000000 0.000000 0.000000 
0.000000 0.000000 0.000000 
0.000000 0.000000 0.000000 

-0.000000 0.000000 0.000000 
0.000000 0.000000 0.000000 
0.000000 0.000000 0.000000 

0.000000 0.000000 0.000000 
0.000000 0.000000 0.000000 
0.000000 0.000000 0.000000 

-0.000000 -0.000000 0.000000 
0.000000 0.000000 0.000000 
0.000000 0.000000 0.000000 

-0.000000 -0.000000 0.000000 
0.000000 0.000000 0.000000 
0.000000 0.000000 0.000000 

0.000000 0.000000 0.000000 
0.000000 0.000000 0.000000 
0.000000 0.000000 0.000000 

0.000000 0.000000 0.000000 
0.000000 0.000000 0.000000 
0.000000 0.000000 0.000000 

0.000000 0.000000 0.000000 
0.000000 0.000000 0.000000 
0.000000 0.000000 0.000000 

-0.000000 0.000000 0.000000 
0.000000 0.000000 0.000000 
0.000000 0.000000 0.000000 

0.000000 0.000000 0.000000 
0.000000 0.000000 0.000000 
0.000000 0.000000 0.000000 

-0.000000 0.000000 0.000000 
0.000000 0.000000 0.000000 
0.000000 0.000000 0.000000 

-0.000000 -0.000000 0.000000 
0.000000 -0.000000 0.000000 
0.000000 0.000000 0.000000 

-0.000000 -0.000000 0.000000 
0.000000 0.000000 0.000000 
0.000000 0.000000 0.000000 

-0.000000 -0.000000 0.000000 
0.000000 -0.000000 0.000000 
0.000000 0.000000 0.000000 

TENSORS STRAIN float 
-0.000000 0.000000 0.000000 
0.000000 -0.000000 0.000000 
0.000000 0.000000 0.000000 

-0.000000 -0.000000 0.000000 
0.000000 0.000000 0.000000 
0.000000 0.000000 0.000000 

-0.000000 -0.000000 0.000000 
0.000000 0.000000 0.000000 
0.000000 0.000000 0.000000 

-0.000000 -0.000000 0.000000 
0.000000 0.000000 0.000000 
0.000000 0.000000 0.000000 

-0.000000 -0.000000 0.000000 
0.000000 0.000000 0.000000 
0.000000 0.000000 0.000000 

-0.000000 -0.000000 0.000000 
0.000000 0.000000 0.000000 
0.000000 0.000000 0.000000 

0.000000 -0.000000 0.000000 
0.000000 0.000000 0.000000 
0.000000 0.000000 0.000000 

-0.000000 -0.000000 0.000000 
0.000000 0.000000 0.000000 
0.000000 0.000000 0.000000 

-0.000000 0.000000 0.000000 
0.000000 0.000000 0.000000 
0.000000 0.000000 0.000000 

-0.000000 0.000000 0.000000 
0.000000 0.000000 0.000000 
0.000000 0.000000 0.000000 

0.000000 -0.000000 0.000000 
0.000000 0.000000 0.000000 
0.000000 0.000000 0.000000 

-0.000000 -0.000000 0.000000 
0.000000 0.000000 0.000000 
0.000000 0.000000 0.000000 

-0.000000 -0.000000 0.000000 
0.000000 -0.000000 0.000000 
0.000000 0.000000 0.000000 

-0.000000 -0.000000 0.000000 
0.000000 0.000000 0.000000 
0.000000 0.000000 0.000000 

-0.000000 0.000000 0.000000 
0.000000 -0.000000 0.000000 
0.000000 0.000000 0.000000 

0.000000 0.000000 0.000000 
0.000000 -0.000000 0.000000 
0.000000 0.000000 0.000000 

-0.000000 -0.000000 0.000000 
0.000000 -0.000000 0.000000 
0.000000 0.000000 0.000000 

-0.000000 0.000000 0.000000 
0.000000 -0.000000 0.000000 
0.000000 0.000000 0.000000 

0.000000 0.000000 0.000000 
0.000000 -0.000000 0.000000 
0.000000 0.000000 0.000000 

-0.000000 -0.000000 0.000000 
0.000000 0.000000 0.000000 
0.000000 0.000000 0.000000 

-0.000000 -0.000000 0.000000 
0.000000 -0.000000 0.000000 
0.000000 0.000000 0.000000 

-0.000000 -0.000000 0.000000 
0.000000 -0.000000 0.000000 
0.000000 0.000000 0.000000 

-0.000000 -0.000000 0.000000 
0.000000 -0.000000 0.000000 
0.000000 0.000000 0.000000 

0.000000 0.000000 0.000000 
0.000000 -0.000000 0.000000 
0.000000 0.000000 0.000000 

0.000000 0.000000 0.000000 
0.000000 -0.000000 0.000000 
0.000000 0.000000 0.000000 

-0.000000 0.000000 0.000000 
0.000000 -0.000000 0.000000 
0.000000 0.000000 0.000000 

-0.000000 0.000000 0.000000 
0.000000 0.000000 0.000000 
0.000000 0.000000 0.000000 

-0.000000 0.000000 0.000000 
0.000000 0.000000 0.000000 
0.000000 0.000000 0.000000 

-0.000000 0.000000 0.000000 
0.000000 0.000000 0.000000 
0.000000 0.000000 0.000000 

0.000000 -0.000000 0.000000 
0.000000 0.000000 0.000000 
0.000000 0.000000 0.000000 

-0.000000 0.000000 0.000000 
0.000000 0.000000 0.000000 
0.000000 0.000000 0.000000 

0.000000 -0.000000 0.000000 
0.000000 0.000000 0.000000 
0.000000 0.000000 0.000000 

-0.000000 -0.000000 0.000000 
0.000000 0.000000 0.000000 
0.000000 0.000000 0.000000 

-0.000000 -0.000000 0.000000 
0.000000 0.000000 0.000000 
0.000000 0.000000 0.000000 

0.000000 -0.000000 0.000000 
0.000000 -0.000000 0.000000 
0.000000 0.000000 0.000000 

0.000000 -0.000000 0.000000 
0.000000 -0.000000 0.000000 
0.000000 0.000000 0.000000 

0.000000 -0.000000 0.000000 
0.000000 -0.000000 0.000000 
0.000000 0.000000 0.000000 

0.000000 -0.000000 0.000000 
0.000000 -0.000000 0.000000 
0.000000 0.000000 0.000000 

0.000000 0.000000 0.000000 
0.000000 -0.000000 0.000000 
0.000000 0.000000 0.000000 

0.000000 0.000000 0.000000 
0.000000 0.000000 0.000000 
0.000000 0.000000 0.000000 

-0.000000 0.000000 0.000000 
0.000000 0.000000 0.000000 
0.000000 0.000000 0.000000 

0.000000 0.000000 0.000000 
0.000000 -0.000000 0.000000 
0.000000 0.000000 0.000000 

0.000000 0.000000 0.000000 
0.000000 -0.000000 0.000000 
0.000000 0.000000 0.000000 

0.000000 -0.000000 0.000000 
0.000000 -0.000000 0.000000 
0.000000 0.000000 0.000000 

0.000000 -0.000000 0.000000 
0.000000 -0.000000 0.000000 
0.000000 0.000000 0.000000 

-0.000000 -0.000000 0.000000 
0.000000 -0.000000 0.000000 
0.000000 0.000000 0.000000 

-0.000000 -0.000000 0.000000 
0.000000 0.000000 0.000000 
0.000000 0.000000 0.000000 

-0.000000 -0.000000 0.000000 
0.000000 0.000000 0.000000 
0.000000 0.000000 0.000000 

-0.000000 0.000000 0.000000 
0.000000 0.000000 0.000000 
0.000000 0.000000 0.000000 

-0.000000 -0.000000 0.000000 
0.000000 -0.000000 0.000000 
0.000000 0.000000 0.000000 

-0.000000 0.000000 0.000000 
0.000000 -0.000000 0.000000 
0.000000 0.000000 0.000000 

0.000000 0.000000 0.000000 
0.000000 -0.000000 0.000000 
0.000000 0.000000 0.000000 

-0.000000 0.000000 0.000000 
0.000000 -0.000000 0.000000 
0.000000 0.000000 0.000000 

-0.000000 0.000000 0.000000 
0.000000 -0.000000 0.000000 
0.000000 0.000000 0.000000 

0.000000 0.000000 0.000000 
0.000000 0.000000 0.000000 
0.000000 0.000000 0.000000 

0.000000 0.000000 0.000000 
0.000000 -0.000000 0.000000 
0.000000 0.000000 0.000000 

0.000000 0.000000 0.000000 
0.000000 -0.000000 0.000000 
0.000000 0.000000 0.000000 

-0.000000 0.000000 0.000000 
0.000000 -0.000000 0.000000 
0.000000 0.000000 0.000000 

0.000000 -0.000000 0.000000 
0.000000 -0.000000 0.000000 
0.000000 0.000000 0.000000 

0.000000 0.000000 0.000000 
0.000000 -0.000000 0.000000 
0.000000 0.000000 0.000000 

0.000000 0.000000 0.000000 
0.000000 -0.000000 0.000000 
0.000000 0.000000 0.000000 

0.000000 -0.000000 0.000000 
0.000000 0.000000 0.000000 
0.000000 0.000000 0.000000 

0.000000 -0.000000 0.000000 
0.000000 -0.000000 0.000000 
0.000000 0.000000 0.000000 

0.000000 -0.000000 0.000000 
0.000000 0.000000 0.000000 
0.000000 0.000000 0.000000 

0.000000 -0.000000 0.000000 
0.000000 -0.000000 0.000000 
0.000000 0.000000 0.000000 

0.000000 -0.000000 0.000000 
0.000000 -0.000000 0.000000 
0.000000 0.000000 0.000000 

0.000000 -0.000000 0.000000 
0.000000 -0.000000 0.000000 
0.000000 0.000000 0.000000 

0.000000 -0.000000 0.000000 
0.000000 -0.000000 0.000000 
0.000000 0.000000 0.000000 

0.000000 -0.000000 0.000000 
0.000000 -0.000000 0.000000 
0.000000 0.000000 0.000000 

0.000000 0.000000 0.000000 
0.000000 0.000000 0.000000 
0.000000 0.000000 0.000000 

0.000000 0.000000 0.000000 
0.000000 0.000000 0.000000 
0.000000 0.000000 0.000000 

0.000000 0.000000 0.000000 
0.000000 0.000000 0.000000 
0.000000 0.000000 0.000000 

0.000000 -0.000000 0.000000 
0.000000 -0.000000 0.000000 
0.000000 0.000000 0.000000 

0.000000 -0.000000 0.000000 
0.000000 -0.000000 0.000000 
0.000000 0.000000 0.000000 

0.000000 -0.000000 0.000000 
0.000000 -0.000000 0.000000 
0.000000 0.000000 0.000000 

-0.000000 -0.000000 0.000000 
0.000000 -0.000000 0.000000 
0.000000 0.000000 0.000000 

-0.000000 0.000000 0.000000 
0.000000 -0.000000 0.000000 
0.000000 0.000000 0.000000 

-0.000000 -0.000000 0.000000 
0.000000 -0.000000 0.000000 
0.000000 0.000000 0.000000 

-0.000000 0.000000 0.000000 
0.000000 0.000000 0.000000 
0.000000 0.000000 0.000000 

-0.000000 -0.000000 0.000000 
0.000000 0.000000 0.000000 
0.000000 0.000000 0.000000 

-0.000000 0.000000 0.000000 
0.000000 0.000000 0.000000 
0.000000 0.000000 0.000000 

-0.000000 0.000000 0.000000 
0.000000 0.000000 0.000000 
0.000000 0.000000 0.000000 

-0.000000 0.000000 0.000000 
0.000000 0.000000 0.000000 
0.000000 0.000000 0.000000 

0.000000 0.000000 0.000000 
0.000000 0.000000 0.000000 
0.000000 0.000000 0.000000 

-0.000000 -0.000000 0.000000 
0.000000 0.000000 0.000000 
0.000000 0.000000 0.000000 

-0.000000 -0.000000 0.000000 
0.000000 0.000000 0.000000 
0.000000 0.000000 0.000000 

0.000000 -0.000000 0.000000 
0.000000 0.000000 0.000000 
0.000000 0.000000 0.000000 

-0.000000 0.000000 0.000000 
0.000000 0.000000 0.000000 
0.000000 0.000000 0.000000 

0.000000 0.000000 0.000000 
0.000000 -0.000000 0.000000 
0.000000 0.000000 0.000000 

0.000000 0.000000 0.000000 
0.000000 -0.000000 0.000000 
0.000000 0.000000 0.000000 

0.000000 0.000000 0.000000 
0.000000 -0.000000 0.000000 
0.000000 0.000000 0.000000 

0.000000 -0.000000 0.000000 
0.000000 0.000000 0.000000 
0.000000 0.000000 0.000000 

0.000000 -0.000000 0.000000 
0.000000 0.000000 0.000000 
0.000000 0.000000 0.000000 

0.000000 -0.000000 0.000000 
0.000000 0.000000 0.000000 
0.000000 0.000000 0.000000 

0.000000 -0.000000 0.000000 
0.000000 0.000000 0.000000 
0.000000 0.000000 0.000000 

0.000000 -0.000000 0.000000 
0.000000 -0.000000 0.000000 
0.000000 0.000000 0.000000 

0.000000 0.000000 0.000000 
0.000000 -0.000000 0.000000 
0.000000 0.000000 0.000000 

0.000000 0.000000 0.000000 
0.000000 -0.000000 0.000000 
0.000000 0.000000 0.000000 

0.000000 0.000000 0.000000 
0.000000 -0.000000 0.000000 
0.000000 0.000000 0.000000 

0.000000 -0.000000 0.000000 
0.000000 -0.000000 0.000000 
0.000000 0.000000 0.000000 

-0.000000 0.000000 0.000000 
0.000000 -0.000000 0.000000 
0.000000 0.000000 0.000000 

-0.000000 -0.000000 0.000000 
0.000000 -0.000000 0.000000 
0.000000 0.000000 0.000000 

-0.000000 -0.000000 0.000000 
0.000000 -0.000000 0.000000 
0.000000 0.000000 0.000000 

-0.000000 -0.000000 0.000000 
0.000000 -0.000000 0.000000 
0.000000 0.000000 0.000000 

0.000000 0.000000 0.000000 
0.000000 -0.000000 0.000000 
0.000000 0.000000 0.000000 

-0.000000 -0.000000 0.000000 
0.000000 -0.000000 0.000000 
0.000000 0.000000 0.000000 

-0.000000 -0.000000 0.000000 
0.000000 -0.000000 0.000000 
0.000000 0.000000 0.000000 

-0.000000 -0.000000 0.000000 
0.000000 -0.000000 0.000000 
0.000000 0.000000 0.000000 

-0.000000 -0.000000 0.000000 
0.000000 0.000000 0.000000 
0.000000 0.000000 0.000000 

0.000000 0.000000 0.000000 
0.000000 -0.000000 0.000000 
0.000000 0.000000 0.000000 

0.000000 0.000000 0.000000 
0.000000 -0.000000 0.000000 
0.000000 0.000000 0.000000 

-0.000000 -0.000000 0.000000 
0.000000 0.000000 0.000000 
0.000000 0.000000 0.000000 

0.000000 -0.000000 0.000000 
0.000000 0.000000 0.000000 
0.000000 0.000000 0.000000 

0.000000 0.000000 0.000000 
0.000000 -0.000000 0.000000 
0.000000 0.000000 0.000000 

-0.000000 -0.000000 0.000000 
0.000000 0.000000 0.000000 
0.000000 0.000000 0.000000 

-0.000000 -0.000000 0.000000 
0.000000 0.000000 0.000000 
0.000000 0.000000 0.000000 

0.000000 0.000000 0.000000 
0.000000 0.000000 0.000000 
0.000000 0.000000 0.000000 

0.000000 0.000000 0.000000 
0.000000 -0.000000 0.000000 
0.000000 0.000000 0.000000 

-0.000000 -0.000000 0.000000 
0.000000 -0.000000 0.000000 
0.000000 0.000000 0.000000 

0.000000 -0.000000 0.000000 
0.000000 -0.000000 0.000000 
0.000000 0.000000 0.000000 

0.000000 0.000000 0.000000 
0.000000 -0.000000 0.000000 
0.000000 0.000000 0.000000 

0.000000 0.000000 0.000000 
0.000000 0.000000 0.000000 
0.000000 0.000000 0.000000 

0.000000 -0.000000 0.000000 
0.000000 0.000000 0.000000 
0.000000 0.000000 0.000000 

0.000000 -0.000000 0.000000 
0.000000 0.000000 0.000000 
0.000000 0.000000 0.000000 

0.000000 -0.000000 0.000000 
0.000000 0.000000 0.000000 
0.000000 0.000000 0.000000 

-0.000000 0.000000 0.000000 
0.000000 -0.000000 0.000000 
0.000000 0.000000 0.000000 

0.000000 -0.000000 0.000000 
0.000000 -0.000000 0.000000 
0.000000 0.000000 0.000000 

0.000000 -0.000000 0.000000 
0.000000 -0.000000 0.000000 
0.000000 0.000000 0.000000 

0.000000 -0.000000 0.000000 
0.000000 -0.000000 0.000000 
0.000000 0.000000 0.000000 

-0.000000 -0.000000 0.000000 
0.000000 0.000000 0.000000 
0.000000 0.000000 0.000000 

0.000000 0.000000 0.000000 
0.000000 -0.000000 0.000000 
0.000000 0.000000 0.000000 

0.000000 0.000000 0.000000 
0.000000 -0.000000 0.000000 
0.000000 0.000000 0.000000 

0.000000 -0.000000 0.000000 
0.000000 -0.000000 0.000000 
0.000000 0.000000 0.000000 

0.000000 0.000000 0.000000 
0.000000 -0.000000 0.000000 
0.000000 0.000000 0.000000 

-0.000000 -0.000000 0.000000 
0.000000 0.000000 0.000000 
0.000000 0.000000 0.000000 

-0.000000 -0.000000 0.000000 
0.000000 0.000000 0.000000 
0.000000 0.000000 0.000000 

0.000000 -0.000000 0.000000 
0.000000 0.000000 0.000000 
0.000000 0.000000 0.000000 

0.000000 0.000000 0.000000 
0.000000 0.000000 0.000000 
0.000000 0.000000 0.000000 

0.000000 0.000000 0.000000 
0.000000 0.000000 0.000000 
0.000000 0.000000 0.000000 

0.000000 0.000000 0.000000 
0.000000 0.000000 0.000000 
0.000000 0.000000 0.000000 

0.000000 0.000000 0.000000 
0.000000 -0.000000 0.000000 
0.000000 0.000000 0.000000 

-0.000000 -0.000000 0.000000 
0.000000 -0.000000 0.000000 
0.000000 0.000000 0.000000 

-0.000000 -0.000000 0.000000 
0.000000 0.000000 0.000000 
0.000000 0.000000 0.000000 

0.000000 0.000000 0.000000 
0.000000 0.000000 0.000000 
0.000000 0.000000 0.000000 

0.000000 -0.000000 0.000000 
0.000000 -0.000000 0.000000 
0.000000 0.000000 0.000000 

-0.000000 0.000000 0.000000 
0.000000 0.000000 0.000000 
0.000000 0.000000 0.000000 

-0.000000 0.000000 0.000000 
0.000000 -0.000000 0.000000 
0.000000 0.000000 0.000000 

-0.000000 0.000000 0.000000 
0.000000 0.000000 0.000000 
0.000000 0.000000 0.000000 

-0.000000 0.000000 0.000000 
0.000000 -0.000000 0.000000 
0.000000 0.000000 0.000000 

0.000000 0.000000 0.000000 
0.000000 -0.000000 0.000000 
0.000000 0.000000 0.000000 

-0.000000 0.000000 0.000000 
0.000000 -0.000000 0.000000 
0.000000 0.000000 0.000000 

-0.000000 -0.000000 0.000000 
0.000000 0.000000 0.000000 
0.000000 0.000000 0.000000 

-0.000000 -0.000000 0.000000 
0.000000 -0.000000 0.000000 
0.000000 0.000000 0.000000 

0.000000 -0.000000 0.000000 
0.000000 0.000000 0.000000 
0.000000 0.000000 0.000000 

-0.000000 0.000000 0.000000 
0.000000 0.000000 0.000000 
0.000000 0.000000 0.000000 

-0.000000 -0.000000 0.000000 
0.000000 0.000000 0.000000 
0.000000 0.000000 0.000000 

-0.000000 -0.000000 0.000000 
0.000000 0.000000 0.000000 
0.000000 0.000000 0.000000 

-0.000000 -0.000000 0.000000 
0.000000 0.000000 0.000000 
0.000000 0.000000 0.000000 

-0.000000 -0.000000 0.000000 
0.000000 0.000000 0.000000 
0.000000 0.000000 0.000000 

0.000000 0.000000 0.000000 
0.000000 -0.000000 0.000000 
0.000000 0.000000 0.000000 

-0.000000 0.000000 0.000000 
0.000000 0.000000 0.000000 
0.000000 0.000000 0.000000 

-0.000000 0.000000 0.000000 
0.000000 0.000000 0.000000 
0.000000 0.000000 0.000000 

-0.000000 0.000000 0.000000 
0.000000 0.000000 0.000000 
0.000000 0.000000 0.000000 

-0.000000 0.000000 0.000000 
0.000000 0.000000 0.000000 
0.000000 0.000000 0.000000 

-0.000000 -0.000000 0.000000 
0.000000 0.000000 0.000000 
0.000000 0.000000 0.000000 

-0.000000 -0.000000 0.000000 
0.000000 0.000000 0.000000 
0.000000 0.000000 0.000000 

0.000000 0.000000 0.000000 
0.000000 0.000000 0.000000 
0.000000 0.000000 0.000000 

0.000000 0.000000 0.000000 
0.000000 0.000000 0.000000 
0.000000 0.000000 0.000000 

0.000000 0.000000 0.000000 
0.000000 0.000000 0.000000 
0.000000 0.000000 0.000000 

-0.000000 0.000000 0.000000 
0.000000 0.000000 0.000000 
0.000000 0.000000 0.000000 

-0.000000 0.000000 0.000000 
0.000000 0.000000 0.000000 
0.000000 0.000000 0.000000 

-0.000000 0.000000 0.000000 
0.000000 0.000000 0.000000 
0.000000 0.000000 0.000000 

-0.000000 -0.000000 0.000000 
0.000000 -0.000000 0.000000 
0.000000 0.000000 0.000000 

-0.000000 -0.000000 0.000000 
0.000000 0.000000 0.000000 
0.000000 0.000000 0.000000 

-0.000000 -0.000000 0.000000 
0.000000 0.000000 0.000000 
0.000000 0.000000 0.000000 

