# vtk DataFile Version 3.0 
vtk output 
ASCII 
DATASET UNSTRUCTURED_GRID 
POINTS 175 float 
-0.026061 -1.034014 0.000000 
-0.106992 -0.965958 0.000000 
-0.054870 -0.974191 0.000000 
-0.028809 -0.928307 0.000000 
-0.186430 -0.901883 0.000000 
-0.137056 -0.904409 0.000000 
-0.114311 -0.850762 0.000000 
-0.058186 -0.866427 0.000000 
-0.029377 -0.826250 0.000000 
-0.265318 -0.838727 0.000000 
-0.217198 -0.839527 0.000000 
-0.196633 -0.782230 0.000000 
-0.143120 -0.790939 0.000000 
-0.116563 -0.743670 0.000000 
-0.058945 -0.763316 0.000000 
-0.029568 -0.725196 0.000000 
-0.344206 -0.775571 0.000000 
-0.296791 -0.775564 0.000000 
-0.278030 -0.715621 0.000000 
-0.225992 -0.721488 0.000000 
-0.201664 -0.669371 0.000000 
-0.145749 -0.682845 0.000000 
-0.117890 -0.638502 0.000000 
-0.059328 -0.661208 0.000000 
-0.029759 -0.624142 0.000000 
-0.058559 -1.074764 0.000000 
-0.162226 -1.095607 0.000000 
-0.123292 -1.059989 0.000000 
-0.142917 -1.011006 0.000000 
-0.261851 -1.117764 0.000000 
-0.229092 -1.080736 0.000000 
-0.256854 -1.029505 0.000000 
-0.209613 -0.995392 0.000000 
-0.223062 -0.947818 0.000000 
-0.360414 -1.140064 0.000000 
-0.329787 -1.102941 0.000000 
-0.361761 -1.051139 0.000000 
-0.321587 -1.014730 0.000000 
-0.341985 -0.964496 0.000000 
-0.290702 -0.931697 0.000000 
-0.302189 -0.884962 0.000000 
-0.458977 -1.162364 0.000000 
-0.429420 -1.125289 0.000000 
-0.464588 -1.073247 0.000000 
-0.427556 -1.036220 0.000000 
-0.453135 -0.984705 0.000000 
-0.407738 -0.949390 0.000000 
-0.425037 -0.899962 0.000000 
-0.370772 -0.868333 0.000000 
-0.381315 -0.822105 0.000000 
-0.046960 -1.125580 0.000000 
-0.095301 -1.219626 0.000000 
-0.098873 -1.166978 0.000000 
-0.149405 -1.151781 0.000000 
-0.140093 -1.311330 0.000000 
-0.148617 -1.262631 0.000000 
-0.205981 -1.252394 0.000000 
-0.203197 -1.194191 0.000000 
-0.248777 -1.175044 0.000000 
-0.184111 -1.402293 0.000000 
-0.194039 -1.355202 0.000000 
-0.254475 -1.347903 0.000000 
-0.257893 -1.293793 0.000000 
-0.309886 -1.278420 0.000000 
-0.303554 -1.217875 0.000000 
-0.347255 -1.197717 0.000000 
-0.228129 -1.493257 0.000000 
-0.238687 -1.447033 0.000000 
-0.301302 -1.442080 0.000000 
-0.307162 -1.390042 0.000000 
-0.363386 -1.377921 0.000000 
-0.362692 -1.320409 0.000000 
-0.412122 -1.303116 0.000000 
-0.403017 -1.240969 0.000000 
-0.445733 -1.220391 0.000000 
-0.000000 -1.148195 0.000000 
0.043388 -1.244625 0.000000 
-0.000000 -1.214593 0.000000 
-0.043388 -1.244625 0.000000 
0.087158 -1.336822 0.000000 
0.043769 -1.313123 0.000000 
-0.000000 -1.351589 0.000000 
-0.043769 -1.313123 0.000000 
-0.087158 -1.336822 0.000000 
0.130831 -1.427952 0.000000 
0.087824 -1.406353 0.000000 
0.044436 -1.449052 0.000000 
-0.000000 -1.417987 0.000000 
-0.044436 -1.449052 0.000000 
-0.087824 -1.406353 0.000000 
-0.130831 -1.427952 0.000000 
0.174505 -1.519081 0.000000 
0.131782 -1.498515 0.000000 
0.088871 -1.544382 0.000000 
0.044532 -1.516518 0.000000 
-0.000000 -1.552918 0.000000 
-0.044532 -1.516518 0.000000 
-0.088871 -1.544382 0.000000 
-0.131782 -1.498515 0.000000 
-0.174505 -1.519081 0.000000 
0.046960 -1.125580 0.000000 
0.149405 -1.151781 0.000000 
0.098873 -1.166978 0.000000 
0.095301 -1.219626 0.000000 
0.248777 -1.175044 0.000000 
0.203197 -1.194191 0.000000 
0.205981 -1.252394 0.000000 
0.148617 -1.262631 0.000000 
0.140093 -1.311330 0.000000 
0.347255 -1.197717 0.000000 
0.303554 -1.217875 0.000000 
0.309886 -1.278420 0.000000 
0.257893 -1.293793 0.000000 
0.254475 -1.347903 0.000000 
0.194039 -1.355202 0.000000 
0.184111 -1.402293 0.000000 
0.445733 -1.220391 0.000000 
0.403017 -1.240969 0.000000 
0.412122 -1.303116 0.000000 
0.362692 -1.320409 0.000000 
0.363386 -1.377921 0.000000 
0.307162 -1.390042 0.000000 
0.301302 -1.442080 0.000000 
0.238687 -1.447033 0.000000 
0.228129 -1.493257 0.000000 
0.058559 -1.074764 0.000000 
0.142917 -1.011006 0.000000 
0.123292 -1.059989 0.000000 
0.162226 -1.095607 0.000000 
0.223062 -0.947818 0.000000 
0.209613 -0.995392 0.000000 
0.256854 -1.029505 0.000000 
0.229092 -1.080736 0.000000 
0.261851 -1.117764 0.000000 
0.302189 -0.884962 0.000000 
0.290702 -0.931697 0.000000 
0.341985 -0.964496 0.000000 
0.321587 -1.014730 0.000000 
0.361761 -1.051139 0.000000 
0.329787 -1.102941 0.000000 
0.360414 -1.140064 0.000000 
0.381315 -0.822105 0.000000 
0.370772 -0.868333 0.000000 
0.425037 -0.899962 0.000000 
0.407738 -0.949390 0.000000 
0.453135 -0.984705 0.000000 
0.427556 -1.036220 0.000000 
0.464588 -1.073247 0.000000 
0.429420 -1.125289 0.000000 
0.458977 -1.162364 0.000000 
0.026061 -1.034014 0.000000 
0.028809 -0.928307 0.000000 
0.054870 -0.974191 0.000000 
0.106992 -0.965958 0.000000 
0.029377 -0.826250 0.000000 
0.058186 -0.866427 0.000000 
0.114311 -0.850762 0.000000 
0.137056 -0.904409 0.000000 
0.186430 -0.901883 0.000000 
0.029568 -0.725196 0.000000 
0.058945 -0.763316 0.000000 
0.116563 -0.743670 0.000000 
0.143120 -0.790939 0.000000 
0.196633 -0.782230 0.000000 
0.217198 -0.839527 0.000000 
0.265318 -0.838727 0.000000 
0.029759 -0.624142 0.000000 
0.059328 -0.661208 0.000000 
0.117890 -0.638502 0.000000 
0.145749 -0.682845 0.000000 
0.201664 -0.669371 0.000000 
0.225992 -0.721488 0.000000 
0.278030 -0.715621 0.000000 
0.296791 -0.775564 0.000000 
0.344206 -0.775571 0.000000 
CELLS 175 350 
1 0 
1 1 
1 2 
1 3 
1 4 
1 5 
1 6 
1 7 
1 8 
1 9 
1 10 
1 11 
1 12 
1 13 
1 14 
1 15 
1 16 
1 17 
1 18 
1 19 
1 20 
1 21 
1 22 
1 23 
1 24 
1 25 
1 26 
1 27 
1 28 
1 29 
1 30 
1 31 
1 32 
1 33 
1 34 
1 35 
1 36 
1 37 
1 38 
1 39 
1 40 
1 41 
1 42 
1 43 
1 44 
1 45 
1 46 
1 47 
1 48 
1 49 
1 50 
1 51 
1 52 
1 53 
1 54 
1 55 
1 56 
1 57 
1 58 
1 59 
1 60 
1 61 
1 62 
1 63 
1 64 
1 65 
1 66 
1 67 
1 68 
1 69 
1 70 
1 71 
1 72 
1 73 
1 74 
1 75 
1 76 
1 77 
1 78 
1 79 
1 80 
1 81 
1 82 
1 83 
1 84 
1 85 
1 86 
1 87 
1 88 
1 89 
1 90 
1 91 
1 92 
1 93 
1 94 
1 95 
1 96 
1 97 
1 98 
1 99 
1 100 
1 101 
1 102 
1 103 
1 104 
1 105 
1 106 
1 107 
1 108 
1 109 
1 110 
1 111 
1 112 
1 113 
1 114 
1 115 
1 116 
1 117 
1 118 
1 119 
1 120 
1 121 
1 122 
1 123 
1 124 
1 125 
1 126 
1 127 
1 128 
1 129 
1 130 
1 131 
1 132 
1 133 
1 134 
1 135 
1 136 
1 137 
1 138 
1 139 
1 140 
1 141 
1 142 
1 143 
1 144 
1 145 
1 146 
1 147 
1 148 
1 149 
1 150 
1 151 
1 152 
1 153 
1 154 
1 155 
1 156 
1 157 
1 158 
1 159 
1 160 
1 161 
1 162 
1 163 
1 164 
1 165 
1 166 
1 167 
1 168 
1 169 
1 170 
1 171 
1 172 
1 173 
1 174 
CELL_TYPES 175 
1 
1 
1 
1 
1 
1 
1 
1 
1 
1 
1 
1 
1 
1 
1 
1 
1 
1 
1 
1 
1 
1 
1 
1 
1 
1 
1 
1 
1 
1 
1 
1 
1 
1 
1 
1 
1 
1 
1 
1 
1 
1 
1 
1 
1 
1 
1 
1 
1 
1 
1 
1 
1 
1 
1 
1 
1 
1 
1 
1 
1 
1 
1 
1 
1 
1 
1 
1 
1 
1 
1 
1 
1 
1 
1 
1 
1 
1 
1 
1 
1 
1 
1 
1 
1 
1 
1 
1 
1 
1 
1 
1 
1 
1 
1 
1 
1 
1 
1 
1 
1 
1 
1 
1 
1 
1 
1 
1 
1 
1 
1 
1 
1 
1 
1 
1 
1 
1 
1 
1 
1 
1 
1 
1 
1 
1 
1 
1 
1 
1 
1 
1 
1 
1 
1 
1 
1 
1 
1 
1 
1 
1 
1 
1 
1 
1 
1 
1 
1 
1 
1 
1 
1 
1 
1 
1 
1 
1 
1 
1 
1 
1 
1 
1 
1 
1 
1 
1 
1 
1 
1 
1 
1 
1 
1 
POINT_DATA 175 
VECTORS X_GC float 
-0.026061 -1.034014 0.000000 
-0.106992 -0.965958 0.000000 
-0.054870 -0.974191 0.000000 
-0.028809 -0.928307 0.000000 
-0.186430 -0.901883 0.000000 
-0.137056 -0.904409 0.000000 
-0.114311 -0.850762 0.000000 
-0.058186 -0.866427 0.000000 
-0.029377 -0.826250 0.000000 
-0.265318 -0.838727 0.000000 
-0.217198 -0.839527 0.000000 
-0.196633 -0.782230 0.000000 
-0.143120 -0.790939 0.000000 
-0.116563 -0.743670 0.000000 
-0.058945 -0.763316 0.000000 
-0.029568 -0.725196 0.000000 
-0.344206 -0.775571 0.000000 
-0.296791 -0.775564 0.000000 
-0.278030 -0.715621 0.000000 
-0.225992 -0.721488 0.000000 
-0.201664 -0.669371 0.000000 
-0.145749 -0.682845 0.000000 
-0.117890 -0.638502 0.000000 
-0.059328 -0.661208 0.000000 
-0.029759 -0.624142 0.000000 
-0.058559 -1.074764 0.000000 
-0.162226 -1.095607 0.000000 
-0.123292 -1.059989 0.000000 
-0.142917 -1.011006 0.000000 
-0.261851 -1.117764 0.000000 
-0.229092 -1.080736 0.000000 
-0.256854 -1.029505 0.000000 
-0.209613 -0.995392 0.000000 
-0.223062 -0.947818 0.000000 
-0.360414 -1.140064 0.000000 
-0.329787 -1.102941 0.000000 
-0.361761 -1.051139 0.000000 
-0.321587 -1.014730 0.000000 
-0.341985 -0.964496 0.000000 
-0.290702 -0.931697 0.000000 
-0.302189 -0.884962 0.000000 
-0.458977 -1.162364 0.000000 
-0.429420 -1.125289 0.000000 
-0.464588 -1.073247 0.000000 
-0.427556 -1.036220 0.000000 
-0.453135 -0.984705 0.000000 
-0.407738 -0.949390 0.000000 
-0.425037 -0.899962 0.000000 
-0.370772 -0.868333 0.000000 
-0.381315 -0.822105 0.000000 
-0.046960 -1.125580 0.000000 
-0.095301 -1.219626 0.000000 
-0.098873 -1.166978 0.000000 
-0.149405 -1.151781 0.000000 
-0.140093 -1.311330 0.000000 
-0.148617 -1.262631 0.000000 
-0.205981 -1.252394 0.000000 
-0.203197 -1.194191 0.000000 
-0.248777 -1.175044 0.000000 
-0.184111 -1.402293 0.000000 
-0.194039 -1.355202 0.000000 
-0.254475 -1.347903 0.000000 
-0.257893 -1.293793 0.000000 
-0.309886 -1.278420 0.000000 
-0.303554 -1.217875 0.000000 
-0.347255 -1.197717 0.000000 
-0.228129 -1.493257 0.000000 
-0.238687 -1.447033 0.000000 
-0.301302 -1.442080 0.000000 
-0.307162 -1.390042 0.000000 
-0.363386 -1.377921 0.000000 
-0.362692 -1.320409 0.000000 
-0.412122 -1.303116 0.000000 
-0.403017 -1.240969 0.000000 
-0.445733 -1.220391 0.000000 
-0.000000 -1.148195 0.000000 
0.043388 -1.244625 0.000000 
-0.000000 -1.214593 0.000000 
-0.043388 -1.244625 0.000000 
0.087158 -1.336822 0.000000 
0.043769 -1.313123 0.000000 
-0.000000 -1.351589 0.000000 
-0.043769 -1.313123 0.000000 
-0.087158 -1.336822 0.000000 
0.130831 -1.427952 0.000000 
0.087824 -1.406353 0.000000 
0.044436 -1.449052 0.000000 
-0.000000 -1.417987 0.000000 
-0.044436 -1.449052 0.000000 
-0.087824 -1.406353 0.000000 
-0.130831 -1.427952 0.000000 
0.174505 -1.519081 0.000000 
0.131782 -1.498515 0.000000 
0.088871 -1.544382 0.000000 
0.044532 -1.516518 0.000000 
-0.000000 -1.552918 0.000000 
-0.044532 -1.516518 0.000000 
-0.088871 -1.544382 0.000000 
-0.131782 -1.498515 0.000000 
-0.174505 -1.519081 0.000000 
0.046960 -1.125580 0.000000 
0.149405 -1.151781 0.000000 
0.098873 -1.166978 0.000000 
0.095301 -1.219626 0.000000 
0.248777 -1.175044 0.000000 
0.203197 -1.194191 0.000000 
0.205981 -1.252394 0.000000 
0.148617 -1.262631 0.000000 
0.140093 -1.311330 0.000000 
0.347255 -1.197717 0.000000 
0.303554 -1.217875 0.000000 
0.309886 -1.278420 0.000000 
0.257893 -1.293793 0.000000 
0.254475 -1.347903 0.000000 
0.194039 -1.355202 0.000000 
0.184111 -1.402293 0.000000 
0.445733 -1.220391 0.000000 
0.403017 -1.240969 0.000000 
0.412122 -1.303116 0.000000 
0.362692 -1.320409 0.000000 
0.363386 -1.377921 0.000000 
0.307162 -1.390042 0.000000 
0.301302 -1.442080 0.000000 
0.238687 -1.447033 0.000000 
0.228129 -1.493257 0.000000 
0.058559 -1.074764 0.000000 
0.142917 -1.011006 0.000000 
0.123292 -1.059989 0.000000 
0.162226 -1.095607 0.000000 
0.223062 -0.947818 0.000000 
0.209613 -0.995392 0.000000 
0.256854 -1.029505 0.000000 
0.229092 -1.080736 0.000000 
0.261851 -1.117764 0.000000 
0.302189 -0.884962 0.000000 
0.290702 -0.931697 0.000000 
0.341985 -0.964496 0.000000 
0.321587 -1.014730 0.000000 
0.361761 -1.051139 0.000000 
0.329787 -1.102941 0.000000 
0.360414 -1.140064 0.000000 
0.381315 -0.822105 0.000000 
0.370772 -0.868333 0.000000 
0.425037 -0.899962 0.000000 
0.407738 -0.949390 0.000000 
0.453135 -0.984705 0.000000 
0.427556 -1.036220 0.000000 
0.464588 -1.073247 0.000000 
0.429420 -1.125289 0.000000 
0.458977 -1.162364 0.000000 
0.026061 -1.034014 0.000000 
0.028809 -0.928307 0.000000 
0.054870 -0.974191 0.000000 
0.106992 -0.965958 0.000000 
0.029377 -0.826250 0.000000 
0.058186 -0.866427 0.000000 
0.114311 -0.850762 0.000000 
0.137056 -0.904409 0.000000 
0.186430 -0.901883 0.000000 
0.029568 -0.725196 0.000000 
0.058945 -0.763316 0.000000 
0.116563 -0.743670 0.000000 
0.143120 -0.790939 0.000000 
0.196633 -0.782230 0.000000 
0.217198 -0.839527 0.000000 
0.265318 -0.838727 0.000000 
0.029759 -0.624142 0.000000 
0.059328 -0.661208 0.000000 
0.117890 -0.638502 0.000000 
0.145749 -0.682845 0.000000 
0.201664 -0.669371 0.000000 
0.225992 -0.721488 0.000000 
0.278030 -0.715621 0.000000 
0.296791 -0.775564 0.000000 
0.344206 -0.775571 0.000000 
VECTORS X_EC float 
0.338794 0.459186 0.000000 
-0.609100 -0.459563 0.000000 
0.713312 -0.348422 0.000000 
0.374519 -0.967851 0.000000 
0.423588 0.675418 0.000000 
-0.218274 0.709522 0.000000 
-0.513962 -0.014717 0.000000 
0.756418 0.196769 0.000000 
0.381900 -0.345623 0.000000 
-0.550868 -0.177185 0.000000 
0.823577 -0.166389 0.000000 
0.556234 -0.939893 0.000000 
-0.139443 -0.822325 0.000000 
-0.484677 0.539551 0.000000 
0.766286 0.804766 0.000000 
0.384386 0.290146 0.000000 
0.474677 0.970212 0.000000 
-0.141715 0.970115 0.000000 
-0.385608 0.160887 0.000000 
0.937896 0.240083 0.000000 
0.621631 -0.463497 0.000000 
-0.105264 -0.281598 0.000000 
-0.467428 -0.880224 0.000000 
0.771260 -0.573696 0.000000 
0.386873 0.925915 0.000000 
0.761262 -0.990680 0.000000 
0.108942 -0.709303 0.000000 
-0.397202 0.809858 0.000000 
-0.142083 0.148582 0.000000 
-0.595936 -0.410192 0.000000 
0.978194 -0.910058 0.000000 
-0.660903 0.398317 0.000000 
0.724964 -0.062203 0.000000 
0.899809 -0.704452 0.000000 
0.685384 -0.109140 0.000000 
0.287229 -0.610299 0.000000 
0.702895 0.690373 0.000000 
0.180633 0.198854 0.000000 
0.445811 -0.479305 0.000000 
-0.220880 -0.922091 0.000000 
-0.071546 0.446983 0.000000 
-0.033296 0.191912 0.000000 
-0.417537 -0.308598 0.000000 
0.039645 0.988840 0.000000 
-0.441768 0.488969 0.000000 
-0.109248 -0.206482 0.000000 
-0.699407 -0.683238 0.000000 
-0.474522 0.649483 0.000000 
0.820030 0.222490 0.000000 
0.957100 -0.401582 0.000000 
0.610485 -0.304673 0.000000 
-0.761092 0.964946 0.000000 
-0.714655 0.254209 0.000000 
-0.057734 0.049041 0.000000 
-0.178789 0.202950 0.000000 
-0.067979 -0.454476 0.000000 
0.677748 -0.592679 0.000000 
0.641556 0.621576 0.000000 
-0.765897 0.363097 0.000000 
0.393446 -0.569041 0.000000 
0.522510 0.795229 0.000000 
-0.691820 0.696685 0.000000 
-0.647393 -0.033797 0.000000 
0.028512 -0.241324 0.000000 
-0.053800 0.941316 0.000000 
0.514316 0.669185 0.000000 
0.965681 0.658968 0.000000 
-0.897068 0.034940 0.000000 
-0.083078 -0.031913 0.000000 
-0.006893 -0.734438 0.000000 
0.724017 -0.898071 0.000000 
0.714996 0.325526 0.000000 
-0.642413 0.092068 0.000000 
-0.760780 -0.746912 0.000000 
-0.205471 0.975272 0.000000 
0.000000 0.000628 0.000000 
-0.564049 -0.697559 0.000000 
0.000000 0.897005 0.000000 
0.564049 -0.697559 0.000000 
0.866949 0.547096 0.000000 
-0.569003 0.227165 0.000000 
0.000000 0.746453 0.000000 
0.569003 0.227165 0.000000 
-0.866949 0.547096 0.000000 
0.299194 -0.222653 0.000000 
0.858290 -0.514237 0.000000 
-0.577662 0.062208 0.000000 
0.000000 -0.357170 0.000000 
0.577662 0.062208 0.000000 
-0.858290 -0.514237 0.000000 
-0.299194 -0.222653 0.000000 
-0.268560 -0.992403 0.000000 
0.286830 0.729955 0.000000 
0.844677 -0.650847 0.000000 
-0.578910 0.972990 0.000000 
0.000000 -0.535606 0.000000 
0.578910 0.972990 0.000000 
-0.844677 -0.650847 0.000000 
-0.286830 0.729955 0.000000 
0.268560 -0.992403 0.000000 
-0.610485 -0.304673 0.000000 
0.057734 0.049041 0.000000 
0.714655 0.254209 0.000000 
0.761092 0.964946 0.000000 
0.765897 0.363097 0.000000 
-0.641556 0.621576 0.000000 
-0.677748 -0.592679 0.000000 
0.067979 -0.454476 0.000000 
0.178789 0.202950 0.000000 
-0.514316 0.669185 0.000000 
0.053800 0.941316 0.000000 
-0.028512 -0.241324 0.000000 
0.647393 -0.033797 0.000000 
0.691820 0.696685 0.000000 
-0.522510 0.795229 0.000000 
-0.393446 -0.569041 0.000000 
0.205471 0.975272 0.000000 
0.760780 -0.746912 0.000000 
0.642413 0.092068 0.000000 
-0.714996 0.325526 0.000000 
-0.724017 -0.898071 0.000000 
0.006894 -0.734438 0.000000 
0.083078 -0.031913 0.000000 
0.897068 0.034940 0.000000 
-0.965681 0.658968 0.000000 
-0.761262 -0.990680 0.000000 
0.142083 0.148582 0.000000 
0.397202 0.809858 0.000000 
-0.108942 -0.709303 0.000000 
-0.899809 -0.704452 0.000000 
-0.724964 -0.062203 0.000000 
0.660903 0.398317 0.000000 
-0.978194 -0.910058 0.000000 
0.595936 -0.410192 0.000000 
0.071546 0.446983 0.000000 
0.220880 -0.922091 0.000000 
-0.445811 -0.479305 0.000000 
-0.180633 0.198854 0.000000 
-0.702895 0.690373 0.000000 
-0.287229 -0.610299 0.000000 
-0.685384 -0.109140 0.000000 
-0.957100 -0.401582 0.000000 
-0.820030 0.222490 0.000000 
0.474522 0.649483 0.000000 
0.699407 -0.683237 0.000000 
0.109248 -0.206482 0.000000 
0.441768 0.488969 0.000000 
-0.039645 0.988840 0.000000 
0.417537 -0.308598 0.000000 
0.033296 0.191912 0.000000 
-0.338794 0.459186 0.000000 
-0.374519 -0.967851 0.000000 
-0.713312 -0.348422 0.000000 
0.609100 -0.459563 0.000000 
-0.381900 -0.345623 0.000000 
-0.756418 0.196769 0.000000 
0.513962 -0.014717 0.000000 
0.218274 0.709522 0.000000 
-0.423588 0.675418 0.000000 
-0.384386 0.290146 0.000000 
-0.766286 0.804766 0.000000 
0.484677 0.539551 0.000000 
0.139443 -0.822325 0.000000 
-0.556234 -0.939893 0.000000 
-0.823577 -0.166389 0.000000 
0.550868 -0.177185 0.000000 
-0.386873 0.925915 0.000000 
-0.771260 -0.573696 0.000000 
0.467428 -0.880224 0.000000 
0.105264 -0.281598 0.000000 
-0.621631 -0.463497 0.000000 
-0.937896 0.240083 0.000000 
0.385608 0.160887 0.000000 
0.141715 0.970115 0.000000 
-0.474677 0.970212 0.000000 
CELL_DATA 175 
SCALARS MASS float 
LOOKUP_TABLE default 
0.078183 
0.086427 
0.094672 
0.086427 
0.088131 
0.092111 
0.085854 
0.092111 
0.088131 
0.088705 
0.091000 
0.086983 
0.091556 
0.086983 
0.091000 
0.088705 
0.089278 
0.091574 
0.089278 
0.092722 
0.089278 
0.092722 
0.089278 
0.091574 
0.089278 
0.078183 
0.086427 
0.094672 
0.086427 
0.088131 
0.092111 
0.085854 
0.092111 
0.088131 
0.088705 
0.091000 
0.086983 
0.091556 
0.086983 
0.091000 
0.088705 
0.089278 
0.091574 
0.089278 
0.092722 
0.089278 
0.092722 
0.089278 
0.091574 
0.089278 
0.078183 
0.086427 
0.094672 
0.086427 
0.088131 
0.092111 
0.085854 
0.092111 
0.088131 
0.088705 
0.091000 
0.086983 
0.091556 
0.086983 
0.091000 
0.088705 
0.089278 
0.091574 
0.089278 
0.092722 
0.089278 
0.092722 
0.089278 
0.091574 
0.089278 
0.078183 
0.086427 
0.094672 
0.086427 
0.088131 
0.092111 
0.085854 
0.092111 
0.088131 
0.088705 
0.091000 
0.086983 
0.091556 
0.086983 
0.091000 
0.088705 
0.089278 
0.091574 
0.089278 
0.092722 
0.089278 
0.092722 
0.089278 
0.091574 
0.089278 
0.078183 
0.086427 
0.094672 
0.086427 
0.088131 
0.092111 
0.085854 
0.092111 
0.088131 
0.088705 
0.091000 
0.086983 
0.091556 
0.086983 
0.091000 
0.088705 
0.089278 
0.091574 
0.089278 
0.092722 
0.089278 
0.092722 
0.089278 
0.091574 
0.089278 
0.078183 
0.086427 
0.094672 
0.086427 
0.088131 
0.092111 
0.085854 
0.092111 
0.088131 
0.088705 
0.091000 
0.086983 
0.091556 
0.086983 
0.091000 
0.088705 
0.089278 
0.091574 
0.089278 
0.092722 
0.089278 
0.092722 
0.089278 
0.091574 
0.089278 
0.078183 
0.086427 
0.094672 
0.086427 
0.088131 
0.092111 
0.085854 
0.092111 
0.088131 
0.088705 
0.091000 
0.086983 
0.091556 
0.086983 
0.091000 
0.088705 
0.089278 
0.091574 
0.089278 
0.092722 
0.089278 
0.092722 
0.089278 
0.091574 
0.089278 
SCALARS MASS float 
LOOKUP_TABLE default 
0.078183 
0.086427 
0.094672 
0.086427 
0.088131 
0.092111 
0.085854 
0.092111 
0.088131 
0.088705 
0.091000 
0.086983 
0.091556 
0.086983 
0.091000 
0.088705 
0.089278 
0.091574 
0.089278 
0.092722 
0.089278 
0.092722 
0.089278 
0.091574 
0.089278 
0.078183 
0.086427 
0.094672 
0.086427 
0.088131 
0.092111 
0.085854 
0.092111 
0.088131 
0.088705 
0.091000 
0.086983 
0.091556 
0.086983 
0.091000 
0.088705 
0.089278 
0.091574 
0.089278 
0.092722 
0.089278 
0.092722 
0.089278 
0.091574 
0.089278 
0.078183 
0.086427 
0.094672 
0.086427 
0.088131 
0.092111 
0.085854 
0.092111 
0.088131 
0.088705 
0.091000 
0.086983 
0.091556 
0.086983 
0.091000 
0.088705 
0.089278 
0.091574 
0.089278 
0.092722 
0.089278 
0.092722 
0.089278 
0.091574 
0.089278 
0.078183 
0.086427 
0.094672 
0.086427 
0.088131 
0.092111 
0.085854 
0.092111 
0.088131 
0.088705 
0.091000 
0.086983 
0.091556 
0.086983 
0.091000 
0.088705 
0.089278 
0.091574 
0.089278 
0.092722 
0.089278 
0.092722 
0.089278 
0.091574 
0.089278 
0.078183 
0.086427 
0.094672 
0.086427 
0.088131 
0.092111 
0.085854 
0.092111 
0.088131 
0.088705 
0.091000 
0.086983 
0.091556 
0.086983 
0.091000 
0.088705 
0.089278 
0.091574 
0.089278 
0.092722 
0.089278 
0.092722 
0.089278 
0.091574 
0.089278 
0.078183 
0.086427 
0.094672 
0.086427 
0.088131 
0.092111 
0.085854 
0.092111 
0.088131 
0.088705 
0.091000 
0.086983 
0.091556 
0.086983 
0.091000 
0.088705 
0.089278 
0.091574 
0.089278 
0.092722 
0.089278 
0.092722 
0.089278 
0.091574 
0.089278 
0.078183 
0.086427 
0.094672 
0.086427 
0.088131 
0.092111 
0.085854 
0.092111 
0.088131 
0.088705 
0.091000 
0.086983 
0.091556 
0.086983 
0.091000 
0.088705 
0.089278 
0.091574 
0.089278 
0.092722 
0.089278 
0.092722 
0.089278 
0.091574 
0.089278 
SCALARS DENSITY float 
LOOKUP_TABLE default 
20.000000 
20.000000 
20.000000 
20.000000 
20.000000 
20.000000 
20.000000 
20.000000 
20.000000 
20.000000 
20.000000 
20.000000 
20.000000 
20.000000 
20.000000 
20.000000 
20.000000 
20.000000 
20.000000 
20.000000 
20.000000 
20.000000 
20.000000 
20.000000 
20.000000 
20.000000 
20.000000 
20.000000 
20.000000 
20.000000 
20.000000 
20.000000 
20.000000 
20.000000 
20.000000 
20.000000 
20.000000 
20.000000 
20.000000 
20.000000 
20.000000 
20.000000 
20.000000 
20.000000 
20.000000 
20.000000 
20.000000 
20.000000 
20.000000 
20.000000 
20.000000 
20.000000 
20.000000 
20.000000 
20.000000 
20.000000 
20.000000 
20.000000 
20.000000 
20.000000 
20.000000 
20.000000 
20.000000 
20.000000 
20.000000 
20.000000 
20.000000 
20.000000 
20.000000 
20.000000 
20.000000 
20.000000 
20.000000 
20.000000 
20.000000 
20.000000 
20.000000 
20.000000 
20.000000 
20.000000 
20.000000 
20.000000 
20.000000 
20.000000 
20.000000 
20.000000 
20.000000 
20.000000 
20.000000 
20.000000 
20.000000 
20.000000 
20.000000 
20.000000 
20.000000 
20.000000 
20.000000 
20.000000 
20.000000 
20.000000 
20.000000 
20.000000 
20.000000 
20.000000 
20.000000 
20.000000 
20.000000 
20.000000 
20.000000 
20.000000 
20.000000 
20.000000 
20.000000 
20.000000 
20.000000 
20.000000 
20.000000 
20.000000 
20.000000 
20.000000 
20.000000 
20.000000 
20.000000 
20.000000 
20.000000 
20.000000 
20.000000 
20.000000 
20.000000 
20.000000 
20.000000 
20.000000 
20.000000 
20.000000 
20.000000 
20.000000 
20.000000 
20.000000 
20.000000 
20.000000 
20.000000 
20.000000 
20.000000 
20.000000 
20.000000 
20.000000 
20.000000 
20.000000 
20.000000 
20.000000 
20.000000 
20.000000 
20.000000 
20.000000 
20.000000 
20.000000 
20.000000 
20.000000 
20.000000 
20.000000 
20.000000 
20.000000 
20.000000 
20.000000 
20.000000 
20.000000 
20.000000 
20.000000 
20.000000 
20.000000 
20.000000 
20.000000 
20.000000 
20.000000 
20.000000 
SCALARS ELEM_i float 
LOOKUP_TABLE default 
175 
202 
175 
175 
203 
203 
203 
176 
176 
230 
203 
203 
203 
204 
177 
177 
231 
231 
231 
204 
204 
204 
204 
177 
178 
174 
201 
202 
202 
228 
201 
229 
202 
202 
228 
228 
229 
229 
229 
229 
230 
255 
255 
256 
256 
256 
256 
257 
230 
230 
174 
201 
201 
201 
200 
200 
200 
201 
228 
199 
200 
227 
227 
227 
228 
228 
199 
226 
226 
226 
226 
227 
254 
254 
255 
174 
173 
174 
173 
146 
173 
173 
173 
200 
145 
145 
172 
172 
172 
199 
199 
144 
145 
144 
172 
171 
172 
198 
199 
198 
174 
147 
147 
147 
120 
147 
146 
146 
146 
120 
120 
119 
119 
119 
146 
145 
93 
92 
92 
119 
118 
118 
118 
118 
145 
174 
148 
148 
147 
148 
148 
121 
147 
120 
122 
121 
121 
121 
121 
120 
120 
122 
122 
95 
94 
94 
94 
94 
93 
93 
175 
175 
175 
148 
176 
176 
149 
149 
149 
177 
177 
150 
149 
149 
149 
122 
178 
177 
150 
150 
150 
150 
123 
123 
123 
VECTORS VELOCITY float 
-0.000000 -4.620118 0.000000 
-0.000000 -4.620118 0.000000 
-0.000000 -4.620118 0.000000 
-0.000000 -4.620118 0.000000 
0.000000 -4.620118 0.000000 
0.000000 -4.620118 0.000000 
0.000000 -4.620118 0.000000 
0.000000 -4.620118 0.000000 
0.000000 -4.620118 0.000000 
-0.000000 -4.620118 0.000000 
-0.000000 -4.620118 0.000000 
-0.000000 -4.620118 0.000000 
0.000000 -4.620118 0.000000 
-0.000000 -4.620118 0.000000 
0.000000 -4.620118 0.000000 
-0.000000 -4.620118 0.000000 
-0.000000 -4.620118 0.000000 
-0.000000 -4.620118 0.000000 
0.000000 -4.620118 0.000000 
0.000000 -4.620118 0.000000 
0.000000 -4.620118 0.000000 
-0.000000 -4.620118 0.000000 
-0.000000 -4.620118 0.000000 
-0.000000 -4.620118 0.000000 
-0.000000 -4.620118 0.000000 
0.000000 -4.620118 0.000000 
0.000000 -4.620118 0.000000 
0.000000 -4.620118 0.000000 
0.000000 -4.620118 0.000000 
0.000000 -4.620118 0.000000 
0.000000 -4.620118 0.000000 
0.000000 -4.620118 0.000000 
0.000000 -4.620118 0.000000 
0.000000 -4.620118 0.000000 
0.000000 -4.620118 0.000000 
-0.000000 -4.620118 0.000000 
-0.000000 -4.620118 0.000000 
-0.000000 -4.620118 0.000000 
0.000000 -4.620118 0.000000 
0.000000 -4.620118 0.000000 
0.000000 -4.620118 0.000000 
-0.000000 -4.620118 0.000000 
-0.000000 -4.620118 0.000000 
-0.000000 -4.620118 0.000000 
0.000000 -4.620118 0.000000 
0.000000 -4.620118 0.000000 
0.000000 -4.620118 0.000000 
0.000000 -4.620118 0.000000 
-0.000000 -4.620118 0.000000 
-0.000000 -4.620118 0.000000 
-0.000000 -4.620118 0.000000 
-0.000000 -4.620118 0.000000 
-0.000000 -4.620118 0.000000 
-0.000000 -4.620118 0.000000 
0.000000 -4.620118 0.000000 
0.000000 -4.620118 0.000000 
-0.000000 -4.620118 0.000000 
-0.000000 -4.620118 0.000000 
-0.000000 -4.620118 0.000000 
-0.000000 -4.620118 0.000000 
0.000000 -4.620118 0.000000 
0.000000 -4.620118 0.000000 
-0.000000 -4.620118 0.000000 
-0.000000 -4.620118 0.000000 
-0.000000 -4.620118 0.000000 
0.000000 -4.620118 0.000000 
-0.000000 -4.620118 0.000000 
-0.000000 -4.620118 0.000000 
-0.000000 -4.620118 0.000000 
-0.000000 -4.620118 0.000000 
-0.000000 -4.620118 0.000000 
-0.000000 -4.620118 0.000000 
0.000000 -4.620118 0.000000 
0.000000 -4.620118 0.000000 
0.000000 -4.620118 0.000000 
-0.000000 -4.620118 0.000000 
-0.000000 -4.620118 0.000000 
-0.000000 -4.620118 0.000000 
0.000000 -4.620118 0.000000 
-0.000000 -4.620118 0.000000 
-0.000000 -4.620118 0.000000 
0.000000 -4.620118 0.000000 
0.000000 -4.620118 0.000000 
0.000000 -4.620118 0.000000 
0.000000 -4.620118 0.000000 
-0.000000 -4.620118 0.000000 
-0.000000 -4.620118 0.000000 
-0.000000 -4.620118 0.000000 
0.000000 -4.620118 0.000000 
-0.000000 -4.620118 0.000000 
-0.000000 -4.620118 0.000000 
0.000000 -4.620118 0.000000 
0.000000 -4.620118 0.000000 
0.000000 -4.620118 0.000000 
0.000000 -4.620118 0.000000 
-0.000000 -4.620118 0.000000 
0.000000 -4.620118 0.000000 
-0.000000 -4.620118 0.000000 
-0.000000 -4.620118 0.000000 
-0.000000 -4.620118 0.000000 
-0.000000 -4.620118 0.000000 
0.000000 -4.620118 0.000000 
-0.000000 -4.620118 0.000000 
-0.000000 -4.620118 0.000000 
0.000000 -4.620118 0.000000 
0.000000 -4.620118 0.000000 
0.000000 -4.620118 0.000000 
-0.000000 -4.620118 0.000000 
-0.000000 -4.620118 0.000000 
0.000000 -4.620118 0.000000 
0.000000 -4.620118 0.000000 
-0.000000 -4.620118 0.000000 
0.000000 -4.620118 0.000000 
-0.000000 -4.620118 0.000000 
-0.000000 -4.620118 0.000000 
0.000000 -4.620118 0.000000 
0.000000 -4.620118 0.000000 
0.000000 -4.620118 0.000000 
-0.000000 -4.620118 0.000000 
-0.000000 -4.620118 0.000000 
0.000000 -4.620118 0.000000 
-0.000000 -4.620118 0.000000 
-0.000000 -4.620118 0.000000 
-0.000000 -4.620118 0.000000 
-0.000000 -4.620118 0.000000 
0.000000 -4.620118 0.000000 
-0.000000 -4.620118 0.000000 
-0.000000 -4.620118 0.000000 
-0.000000 -4.620118 0.000000 
0.000000 -4.620118 0.000000 
-0.000000 -4.620118 0.000000 
-0.000000 -4.620118 0.000000 
-0.000000 -4.620118 0.000000 
0.000000 -4.620118 0.000000 
0.000000 -4.620118 0.000000 
0.000000 -4.620118 0.000000 
0.000000 -4.620118 0.000000 
0.000000 -4.620118 0.000000 
0.000000 -4.620118 0.000000 
0.000000 -4.620118 0.000000 
0.000000 -4.620118 0.000000 
-0.000000 -4.620118 0.000000 
-0.000000 -4.620118 0.000000 
-0.000000 -4.620118 0.000000 
0.000000 -4.620118 0.000000 
-0.000000 -4.620118 0.000000 
0.000000 -4.620118 0.000000 
0.000000 -4.620118 0.000000 
-0.000000 -4.620118 0.000000 
0.000000 -4.620118 0.000000 
0.000000 -4.620118 0.000000 
-0.000000 -4.620118 0.000000 
-0.000000 -4.620118 0.000000 
-0.000000 -4.620118 0.000000 
0.000000 -4.620118 0.000000 
0.000000 -4.620118 0.000000 
0.000000 -4.620118 0.000000 
0.000000 -4.620118 0.000000 
0.000000 -4.620118 0.000000 
-0.000000 -4.620118 0.000000 
-0.000000 -4.620118 0.000000 
-0.000000 -4.620118 0.000000 
0.000000 -4.620118 0.000000 
0.000000 -4.620118 0.000000 
0.000000 -4.620118 0.000000 
0.000000 -4.620118 0.000000 
0.000000 -4.620118 0.000000 
0.000000 -4.620118 0.000000 
0.000000 -4.620118 0.000000 
0.000000 -4.620118 0.000000 
0.000000 -4.620118 0.000000 
0.000000 -4.620118 0.000000 
0.000000 -4.620118 0.000000 
0.000000 -4.620118 0.000000 
-0.000000 -4.620118 0.000000 
TENSORS STRESS float 
0.000000 0.000000 0.000000 
0.000000 -0.000000 0.000000 
0.000000 0.000000 0.000000 

0.000000 -0.000000 0.000000 
0.000000 0.000000 0.000000 
0.000000 0.000000 0.000000 

0.000000 -0.000000 0.000000 
0.000000 0.000000 0.000000 
0.000000 0.000000 0.000000 

0.000000 -0.000000 0.000000 
0.000000 0.000000 0.000000 
0.000000 0.000000 0.000000 

-0.000000 0.000000 0.000000 
0.000000 -0.000000 0.000000 
0.000000 0.000000 0.000000 

0.000000 0.000000 0.000000 
0.000000 0.000000 0.000000 
0.000000 0.000000 0.000000 

0.000000 0.000000 0.000000 
0.000000 0.000000 0.000000 
0.000000 0.000000 0.000000 

-0.000000 -0.000000 0.000000 
0.000000 -0.000000 0.000000 
0.000000 0.000000 0.000000 

-0.000000 0.000000 0.000000 
0.000000 -0.000000 0.000000 
0.000000 0.000000 0.000000 

-0.000000 0.000000 0.000000 
0.000000 -0.000000 0.000000 
0.000000 0.000000 0.000000 

-0.000000 -0.000000 0.000000 
0.000000 -0.000000 0.000000 
0.000000 0.000000 0.000000 

0.000000 0.000000 0.000000 
0.000000 0.000000 0.000000 
0.000000 0.000000 0.000000 

0.000000 0.000000 0.000000 
0.000000 -0.000000 0.000000 
0.000000 0.000000 0.000000 

0.000000 -0.000000 0.000000 
0.000000 -0.000000 0.000000 
0.000000 0.000000 0.000000 

-0.000000 -0.000000 0.000000 
0.000000 -0.000000 0.000000 
0.000000 0.000000 0.000000 

0.000000 -0.000000 0.000000 
0.000000 0.000000 0.000000 
0.000000 0.000000 0.000000 

0.000000 0.000000 0.000000 
0.000000 0.000000 0.000000 
0.000000 0.000000 0.000000 

0.000000 0.000000 0.000000 
0.000000 0.000000 0.000000 
0.000000 0.000000 0.000000 

-0.000000 -0.000000 0.000000 
0.000000 -0.000000 0.000000 
0.000000 0.000000 0.000000 

-0.000000 -0.000000 0.000000 
0.000000 -0.000000 0.000000 
0.000000 0.000000 0.000000 

0.000000 0.000000 0.000000 
0.000000 0.000000 0.000000 
0.000000 0.000000 0.000000 

0.000000 -0.000000 0.000000 
0.000000 0.000000 0.000000 
0.000000 0.000000 0.000000 

0.000000 0.000000 0.000000 
0.000000 0.000000 0.000000 
0.000000 0.000000 0.000000 

0.000000 -0.000000 0.000000 
0.000000 0.000000 0.000000 
0.000000 0.000000 0.000000 

-0.000000 0.000000 0.000000 
0.000000 -0.000000 0.000000 
0.000000 0.000000 0.000000 

0.000000 0.000000 0.000000 
0.000000 0.000000 0.000000 
0.000000 0.000000 0.000000 

0.000000 0.000000 0.000000 
0.000000 0.000000 0.000000 
0.000000 0.000000 0.000000 

0.000000 0.000000 0.000000 
0.000000 0.000000 0.000000 
0.000000 0.000000 0.000000 

-0.000000 0.000000 0.000000 
0.000000 -0.000000 0.000000 
0.000000 0.000000 0.000000 

-0.000000 0.000000 0.000000 
0.000000 -0.000000 0.000000 
0.000000 0.000000 0.000000 

0.000000 0.000000 0.000000 
0.000000 0.000000 0.000000 
0.000000 0.000000 0.000000 

-0.000000 -0.000000 0.000000 
0.000000 -0.000000 0.000000 
0.000000 0.000000 0.000000 

0.000000 -0.000000 0.000000 
0.000000 0.000000 0.000000 
0.000000 0.000000 0.000000 

-0.000000 -0.000000 0.000000 
0.000000 0.000000 0.000000 
0.000000 0.000000 0.000000 

-0.000000 -0.000000 0.000000 
0.000000 -0.000000 0.000000 
0.000000 0.000000 0.000000 

-0.000000 0.000000 0.000000 
0.000000 0.000000 0.000000 
0.000000 0.000000 0.000000 

-0.000000 -0.000000 0.000000 
0.000000 -0.000000 0.000000 
0.000000 0.000000 0.000000 

-0.000000 0.000000 0.000000 
0.000000 -0.000000 0.000000 
0.000000 0.000000 0.000000 

0.000000 0.000000 0.000000 
0.000000 0.000000 0.000000 
0.000000 0.000000 0.000000 

-0.000000 0.000000 0.000000 
0.000000 -0.000000 0.000000 
0.000000 0.000000 0.000000 

-0.000000 0.000000 0.000000 
0.000000 0.000000 0.000000 
0.000000 0.000000 0.000000 

0.000000 0.000000 0.000000 
0.000000 -0.000000 0.000000 
0.000000 0.000000 0.000000 

0.000000 0.000000 0.000000 
0.000000 0.000000 0.000000 
0.000000 0.000000 0.000000 

0.000000 -0.000000 0.000000 
0.000000 0.000000 0.000000 
0.000000 0.000000 0.000000 

0.000000 0.000000 0.000000 
0.000000 0.000000 0.000000 
0.000000 0.000000 0.000000 

-0.000000 0.000000 0.000000 
0.000000 -0.000000 0.000000 
0.000000 0.000000 0.000000 

0.000000 0.000000 0.000000 
0.000000 -0.000000 0.000000 
0.000000 0.000000 0.000000 

0.000000 0.000000 0.000000 
0.000000 0.000000 0.000000 
0.000000 0.000000 0.000000 

-0.000000 -0.000000 0.000000 
0.000000 -0.000000 0.000000 
0.000000 0.000000 0.000000 

-0.000000 -0.000000 0.000000 
0.000000 -0.000000 0.000000 
0.000000 0.000000 0.000000 

0.000000 -0.000000 0.000000 
0.000000 0.000000 0.000000 
0.000000 0.000000 0.000000 

0.000000 0.000000 0.000000 
0.000000 -0.000000 0.000000 
0.000000 0.000000 0.000000 

0.000000 -0.000000 0.000000 
0.000000 0.000000 0.000000 
0.000000 0.000000 0.000000 

0.000000 0.000000 0.000000 
0.000000 0.000000 0.000000 
0.000000 0.000000 0.000000 

-0.000000 0.000000 0.000000 
0.000000 -0.000000 0.000000 
0.000000 0.000000 0.000000 

0.000000 0.000000 0.000000 
0.000000 -0.000000 0.000000 
0.000000 0.000000 0.000000 

0.000000 0.000000 0.000000 
0.000000 0.000000 0.000000 
0.000000 0.000000 0.000000 

0.000000 0.000000 0.000000 
0.000000 -0.000000 0.000000 
0.000000 0.000000 0.000000 

0.000000 -0.000000 0.000000 
0.000000 0.000000 0.000000 
0.000000 0.000000 0.000000 

-0.000000 -0.000000 0.000000 
0.000000 -0.000000 0.000000 
0.000000 0.000000 0.000000 

0.000000 0.000000 0.000000 
0.000000 0.000000 0.000000 
0.000000 0.000000 0.000000 

0.000000 0.000000 0.000000 
0.000000 0.000000 0.000000 
0.000000 0.000000 0.000000 

-0.000000 0.000000 0.000000 
0.000000 0.000000 0.000000 
0.000000 0.000000 0.000000 

-0.000000 -0.000000 0.000000 
0.000000 0.000000 0.000000 
0.000000 0.000000 0.000000 

0.000000 -0.000000 0.000000 
0.000000 -0.000000 0.000000 
0.000000 0.000000 0.000000 

-0.000000 -0.000000 0.000000 
0.000000 -0.000000 0.000000 
0.000000 0.000000 0.000000 

-0.000000 -0.000000 0.000000 
0.000000 -0.000000 0.000000 
0.000000 0.000000 0.000000 

0.000000 0.000000 0.000000 
0.000000 -0.000000 0.000000 
0.000000 0.000000 0.000000 

0.000000 0.000000 0.000000 
0.000000 -0.000000 0.000000 
0.000000 0.000000 0.000000 

0.000000 -0.000000 0.000000 
0.000000 0.000000 0.000000 
0.000000 0.000000 0.000000 

0.000000 0.000000 0.000000 
0.000000 -0.000000 0.000000 
0.000000 0.000000 0.000000 

-0.000000 -0.000000 0.000000 
0.000000 -0.000000 0.000000 
0.000000 0.000000 0.000000 

-0.000000 -0.000000 0.000000 
0.000000 -0.000000 0.000000 
0.000000 0.000000 0.000000 

0.000000 -0.000000 0.000000 
0.000000 -0.000000 0.000000 
0.000000 0.000000 0.000000 

0.000000 0.000000 0.000000 
0.000000 0.000000 0.000000 
0.000000 0.000000 0.000000 

-0.000000 -0.000000 0.000000 
0.000000 -0.000000 0.000000 
0.000000 0.000000 0.000000 

-0.000000 -0.000000 0.000000 
0.000000 -0.000000 0.000000 
0.000000 0.000000 0.000000 

-0.000000 -0.000000 0.000000 
0.000000 -0.000000 0.000000 
0.000000 0.000000 0.000000 

0.000000 -0.000000 0.000000 
0.000000 0.000000 0.000000 
0.000000 0.000000 0.000000 

-0.000000 -0.000000 0.000000 
0.000000 -0.000000 0.000000 
0.000000 0.000000 0.000000 

0.000000 -0.000000 0.000000 
0.000000 -0.000000 0.000000 
0.000000 0.000000 0.000000 

-0.000000 0.000000 0.000000 
0.000000 -0.000000 0.000000 
0.000000 0.000000 0.000000 

-0.000000 -0.000000 0.000000 
0.000000 -0.000000 0.000000 
0.000000 0.000000 0.000000 

0.000000 0.000000 0.000000 
0.000000 0.000000 0.000000 
0.000000 0.000000 0.000000 

-0.000000 0.000000 0.000000 
0.000000 -0.000000 0.000000 
0.000000 0.000000 0.000000 

0.000000 0.000000 0.000000 
0.000000 0.000000 0.000000 
0.000000 0.000000 0.000000 

0.000000 -0.000000 0.000000 
0.000000 0.000000 0.000000 
0.000000 0.000000 0.000000 

-0.000000 -0.000000 0.000000 
0.000000 -0.000000 0.000000 
0.000000 0.000000 0.000000 

-0.000000 0.000000 0.000000 
0.000000 0.000000 0.000000 
0.000000 0.000000 0.000000 

0.000000 -0.000000 0.000000 
0.000000 0.000000 0.000000 
0.000000 0.000000 0.000000 

0.000000 -0.000000 0.000000 
0.000000 0.000000 0.000000 
0.000000 0.000000 0.000000 

-0.000000 -0.000000 0.000000 
0.000000 0.000000 0.000000 
0.000000 0.000000 0.000000 

-0.000000 -0.000000 0.000000 
0.000000 -0.000000 0.000000 
0.000000 0.000000 0.000000 

-0.000000 -0.000000 0.000000 
0.000000 0.000000 0.000000 
0.000000 0.000000 0.000000 

0.000000 0.000000 0.000000 
0.000000 0.000000 0.000000 
0.000000 0.000000 0.000000 

0.000000 0.000000 0.000000 
0.000000 0.000000 0.000000 
0.000000 0.000000 0.000000 

0.000000 0.000000 0.000000 
0.000000 -0.000000 0.000000 
0.000000 0.000000 0.000000 

0.000000 0.000000 0.000000 
0.000000 0.000000 0.000000 
0.000000 0.000000 0.000000 

-0.000000 -0.000000 0.000000 
0.000000 -0.000000 0.000000 
0.000000 0.000000 0.000000 

0.000000 0.000000 0.000000 
0.000000 0.000000 0.000000 
0.000000 0.000000 0.000000 

0.000000 -0.000000 0.000000 
0.000000 0.000000 0.000000 
0.000000 0.000000 0.000000 

-0.000000 0.000000 0.000000 
0.000000 -0.000000 0.000000 
0.000000 0.000000 0.000000 

0.000000 0.000000 0.000000 
0.000000 -0.000000 0.000000 
0.000000 0.000000 0.000000 

0.000000 -0.000000 0.000000 
0.000000 0.000000 0.000000 
0.000000 0.000000 0.000000 

0.000000 0.000000 0.000000 
0.000000 0.000000 0.000000 
0.000000 0.000000 0.000000 

0.000000 -0.000000 0.000000 
0.000000 0.000000 0.000000 
0.000000 0.000000 0.000000 

-0.000000 -0.000000 0.000000 
0.000000 0.000000 0.000000 
0.000000 0.000000 0.000000 

-0.000000 -0.000000 0.000000 
0.000000 -0.000000 0.000000 
0.000000 0.000000 0.000000 

-0.000000 -0.000000 0.000000 
0.000000 -0.000000 0.000000 
0.000000 0.000000 0.000000 

0.000000 0.000000 0.000000 
0.000000 -0.000000 0.000000 
0.000000 0.000000 0.000000 

0.000000 -0.000000 0.000000 
0.000000 0.000000 0.000000 
0.000000 0.000000 0.000000 

-0.000000 -0.000000 0.000000 
0.000000 -0.000000 0.000000 
0.000000 0.000000 0.000000 

-0.000000 0.000000 0.000000 
0.000000 0.000000 0.000000 
0.000000 0.000000 0.000000 

-0.000000 -0.000000 0.000000 
0.000000 -0.000000 0.000000 
0.000000 0.000000 0.000000 

0.000000 -0.000000 0.000000 
0.000000 -0.000000 0.000000 
0.000000 0.000000 0.000000 

0.000000 0.000000 0.000000 
0.000000 0.000000 0.000000 
0.000000 0.000000 0.000000 

-0.000000 0.000000 0.000000 
0.000000 -0.000000 0.000000 
0.000000 0.000000 0.000000 

-0.000000 0.000000 0.000000 
0.000000 -0.000000 0.000000 
0.000000 0.000000 0.000000 

-0.000000 0.000000 0.000000 
0.000000 0.000000 0.000000 
0.000000 0.000000 0.000000 

-0.000000 -0.000000 0.000000 
0.000000 -0.000000 0.000000 
0.000000 0.000000 0.000000 

-0.000000 -0.000000 0.000000 
0.000000 -0.000000 0.000000 
0.000000 0.000000 0.000000 

0.000000 0.000000 0.000000 
0.000000 0.000000 0.000000 
0.000000 0.000000 0.000000 

-0.000000 0.000000 0.000000 
0.000000 -0.000000 0.000000 
0.000000 0.000000 0.000000 

0.000000 -0.000000 0.000000 
0.000000 0.000000 0.000000 
0.000000 0.000000 0.000000 

-0.000000 0.000000 0.000000 
0.000000 -0.000000 0.000000 
0.000000 0.000000 0.000000 

0.000000 -0.000000 0.000000 
0.000000 -0.000000 0.000000 
0.000000 0.000000 0.000000 

0.000000 -0.000000 0.000000 
0.000000 -0.000000 0.000000 
0.000000 0.000000 0.000000 

0.000000 -0.000000 0.000000 
0.000000 0.000000 0.000000 
0.000000 0.000000 0.000000 

-0.000000 -0.000000 0.000000 
0.000000 -0.000000 0.000000 
0.000000 0.000000 0.000000 

0.000000 0.000000 0.000000 
0.000000 0.000000 0.000000 
0.000000 0.000000 0.000000 

0.000000 0.000000 0.000000 
0.000000 0.000000 0.000000 
0.000000 0.000000 0.000000 

-0.000000 0.000000 0.000000 
0.000000 -0.000000 0.000000 
0.000000 0.000000 0.000000 

0.000000 -0.000000 0.000000 
0.000000 0.000000 0.000000 
0.000000 0.000000 0.000000 

0.000000 0.000000 0.000000 
0.000000 -0.000000 0.000000 
0.000000 0.000000 0.000000 

0.000000 -0.000000 0.000000 
0.000000 0.000000 0.000000 
0.000000 0.000000 0.000000 

0.000000 -0.000000 0.000000 
0.000000 -0.000000 0.000000 
0.000000 0.000000 0.000000 

0.000000 0.000000 0.000000 
0.000000 0.000000 0.000000 
0.000000 0.000000 0.000000 

0.000000 0.000000 0.000000 
0.000000 0.000000 0.000000 
0.000000 0.000000 0.000000 

0.000000 -0.000000 0.000000 
0.000000 0.000000 0.000000 
0.000000 0.000000 0.000000 

0.000000 -0.000000 0.000000 
0.000000 0.000000 0.000000 
0.000000 0.000000 0.000000 

0.000000 -0.000000 0.000000 
0.000000 0.000000 0.000000 
0.000000 0.000000 0.000000 

0.000000 0.000000 0.000000 
0.000000 0.000000 0.000000 
0.000000 0.000000 0.000000 

0.000000 -0.000000 0.000000 
0.000000 0.000000 0.000000 
0.000000 0.000000 0.000000 

0.000000 0.000000 0.000000 
0.000000 0.000000 0.000000 
0.000000 0.000000 0.000000 

0.000000 -0.000000 0.000000 
0.000000 0.000000 0.000000 
0.000000 0.000000 0.000000 

-0.000000 -0.000000 0.000000 
0.000000 -0.000000 0.000000 
0.000000 0.000000 0.000000 

-0.000000 -0.000000 0.000000 
0.000000 0.000000 0.000000 
0.000000 0.000000 0.000000 

-0.000000 0.000000 0.000000 
0.000000 -0.000000 0.000000 
0.000000 0.000000 0.000000 

-0.000000 0.000000 0.000000 
0.000000 0.000000 0.000000 
0.000000 0.000000 0.000000 

-0.000000 0.000000 0.000000 
0.000000 -0.000000 0.000000 
0.000000 0.000000 0.000000 

0.000000 0.000000 0.000000 
0.000000 -0.000000 0.000000 
0.000000 0.000000 0.000000 

0.000000 -0.000000 0.000000 
0.000000 0.000000 0.000000 
0.000000 0.000000 0.000000 

0.000000 -0.000000 0.000000 
0.000000 0.000000 0.000000 
0.000000 0.000000 0.000000 

0.000000 0.000000 0.000000 
0.000000 -0.000000 0.000000 
0.000000 0.000000 0.000000 

-0.000000 -0.000000 0.000000 
0.000000 -0.000000 0.000000 
0.000000 0.000000 0.000000 

0.000000 -0.000000 0.000000 
0.000000 -0.000000 0.000000 
0.000000 0.000000 0.000000 

0.000000 0.000000 0.000000 
0.000000 0.000000 0.000000 
0.000000 0.000000 0.000000 

-0.000000 -0.000000 0.000000 
0.000000 -0.000000 0.000000 
0.000000 0.000000 0.000000 

0.000000 0.000000 0.000000 
0.000000 0.000000 0.000000 
0.000000 0.000000 0.000000 

0.000000 0.000000 0.000000 
0.000000 0.000000 0.000000 
0.000000 0.000000 0.000000 

0.000000 -0.000000 0.000000 
0.000000 0.000000 0.000000 
0.000000 0.000000 0.000000 

0.000000 -0.000000 0.000000 
0.000000 0.000000 0.000000 
0.000000 0.000000 0.000000 

0.000000 -0.000000 0.000000 
0.000000 0.000000 0.000000 
0.000000 0.000000 0.000000 

0.000000 0.000000 0.000000 
0.000000 0.000000 0.000000 
0.000000 0.000000 0.000000 

0.000000 -0.000000 0.000000 
0.000000 0.000000 0.000000 
0.000000 0.000000 0.000000 

0.000000 -0.000000 0.000000 
0.000000 -0.000000 0.000000 
0.000000 0.000000 0.000000 

-0.000000 -0.000000 0.000000 
0.000000 -0.000000 0.000000 
0.000000 0.000000 0.000000 

0.000000 -0.000000 0.000000 
0.000000 0.000000 0.000000 
0.000000 0.000000 0.000000 

-0.000000 0.000000 0.000000 
0.000000 -0.000000 0.000000 
0.000000 0.000000 0.000000 

-0.000000 0.000000 0.000000 
0.000000 -0.000000 0.000000 
0.000000 0.000000 0.000000 

0.000000 -0.000000 0.000000 
0.000000 0.000000 0.000000 
0.000000 0.000000 0.000000 

-0.000000 -0.000000 0.000000 
0.000000 -0.000000 0.000000 
0.000000 0.000000 0.000000 

-0.000000 0.000000 0.000000 
0.000000 0.000000 0.000000 
0.000000 0.000000 0.000000 

-0.000000 -0.000000 0.000000 
0.000000 0.000000 0.000000 
0.000000 0.000000 0.000000 

0.000000 -0.000000 0.000000 
0.000000 0.000000 0.000000 
0.000000 0.000000 0.000000 

TENSORS STRAIN float 
0.000000 0.000000 0.000000 
0.000000 -0.000000 0.000000 
0.000000 0.000000 0.000000 

-0.000000 -0.000000 0.000000 
0.000000 0.000000 0.000000 
0.000000 0.000000 0.000000 

0.000000 -0.000000 0.000000 
0.000000 -0.000000 0.000000 
0.000000 0.000000 0.000000 

0.000000 -0.000000 0.000000 
0.000000 -0.000000 0.000000 
0.000000 0.000000 0.000000 

-0.000000 0.000000 0.000000 
0.000000 -0.000000 0.000000 
0.000000 0.000000 0.000000 

-0.000000 0.000000 0.000000 
0.000000 0.000000 0.000000 
0.000000 0.000000 0.000000 

-0.000000 0.000000 0.000000 
0.000000 0.000000 0.000000 
0.000000 0.000000 0.000000 

0.000000 -0.000000 0.000000 
0.000000 -0.000000 0.000000 
0.000000 0.000000 0.000000 

0.000000 0.000000 0.000000 
0.000000 -0.000000 0.000000 
0.000000 0.000000 0.000000 

-0.000000 0.000000 0.000000 
0.000000 0.000000 0.000000 
0.000000 0.000000 0.000000 

-0.000000 -0.000000 0.000000 
0.000000 -0.000000 0.000000 
0.000000 0.000000 0.000000 

-0.000000 0.000000 0.000000 
0.000000 0.000000 0.000000 
0.000000 0.000000 0.000000 

0.000000 0.000000 0.000000 
0.000000 -0.000000 0.000000 
0.000000 0.000000 0.000000 

0.000000 -0.000000 0.000000 
0.000000 -0.000000 0.000000 
0.000000 0.000000 0.000000 

-0.000000 -0.000000 0.000000 
0.000000 -0.000000 0.000000 
0.000000 0.000000 0.000000 

-0.000000 -0.000000 0.000000 
0.000000 0.000000 0.000000 
0.000000 0.000000 0.000000 

0.000000 0.000000 0.000000 
0.000000 0.000000 0.000000 
0.000000 0.000000 0.000000 

0.000000 0.000000 0.000000 
0.000000 0.000000 0.000000 
0.000000 0.000000 0.000000 

-0.000000 -0.000000 0.000000 
0.000000 0.000000 0.000000 
0.000000 0.000000 0.000000 

0.000000 -0.000000 0.000000 
0.000000 -0.000000 0.000000 
0.000000 0.000000 0.000000 

-0.000000 0.000000 0.000000 
0.000000 0.000000 0.000000 
0.000000 0.000000 0.000000 

-0.000000 -0.000000 0.000000 
0.000000 0.000000 0.000000 
0.000000 0.000000 0.000000 

0.000000 0.000000 0.000000 
0.000000 0.000000 0.000000 
0.000000 0.000000 0.000000 

0.000000 -0.000000 0.000000 
0.000000 0.000000 0.000000 
0.000000 0.000000 0.000000 

-0.000000 0.000000 0.000000 
0.000000 -0.000000 0.000000 
0.000000 0.000000 0.000000 

0.000000 0.000000 0.000000 
0.000000 0.000000 0.000000 
0.000000 0.000000 0.000000 

0.000000 0.000000 0.000000 
0.000000 -0.000000 0.000000 
0.000000 0.000000 0.000000 

0.000000 0.000000 0.000000 
0.000000 0.000000 0.000000 
0.000000 0.000000 0.000000 

0.000000 0.000000 0.000000 
0.000000 -0.000000 0.000000 
0.000000 0.000000 0.000000 

-0.000000 0.000000 0.000000 
0.000000 -0.000000 0.000000 
0.000000 0.000000 0.000000 

0.000000 0.000000 0.000000 
0.000000 0.000000 0.000000 
0.000000 0.000000 0.000000 

-0.000000 -0.000000 0.000000 
0.000000 -0.000000 0.000000 
0.000000 0.000000 0.000000 

0.000000 -0.000000 0.000000 
0.000000 0.000000 0.000000 
0.000000 0.000000 0.000000 

-0.000000 -0.000000 0.000000 
0.000000 0.000000 0.000000 
0.000000 0.000000 0.000000 

-0.000000 -0.000000 0.000000 
0.000000 -0.000000 0.000000 
0.000000 0.000000 0.000000 

-0.000000 0.000000 0.000000 
0.000000 0.000000 0.000000 
0.000000 0.000000 0.000000 

-0.000000 -0.000000 0.000000 
0.000000 -0.000000 0.000000 
0.000000 0.000000 0.000000 

0.000000 0.000000 0.000000 
0.000000 -0.000000 0.000000 
0.000000 0.000000 0.000000 

0.000000 0.000000 0.000000 
0.000000 0.000000 0.000000 
0.000000 0.000000 0.000000 

0.000000 0.000000 0.000000 
0.000000 -0.000000 0.000000 
0.000000 0.000000 0.000000 

-0.000000 0.000000 0.000000 
0.000000 0.000000 0.000000 
0.000000 0.000000 0.000000 

0.000000 0.000000 0.000000 
0.000000 -0.000000 0.000000 
0.000000 0.000000 0.000000 

0.000000 0.000000 0.000000 
0.000000 0.000000 0.000000 
0.000000 0.000000 0.000000 

0.000000 -0.000000 0.000000 
0.000000 -0.000000 0.000000 
0.000000 0.000000 0.000000 

0.000000 0.000000 0.000000 
0.000000 0.000000 0.000000 
0.000000 0.000000 0.000000 

-0.000000 0.000000 0.000000 
0.000000 -0.000000 0.000000 
0.000000 0.000000 0.000000 

0.000000 0.000000 0.000000 
0.000000 -0.000000 0.000000 
0.000000 0.000000 0.000000 

0.000000 0.000000 0.000000 
0.000000 0.000000 0.000000 
0.000000 0.000000 0.000000 

-0.000000 -0.000000 0.000000 
0.000000 -0.000000 0.000000 
0.000000 0.000000 0.000000 

-0.000000 -0.000000 0.000000 
0.000000 -0.000000 0.000000 
0.000000 0.000000 0.000000 

0.000000 -0.000000 0.000000 
0.000000 0.000000 0.000000 
0.000000 0.000000 0.000000 

0.000000 0.000000 0.000000 
0.000000 -0.000000 0.000000 
0.000000 0.000000 0.000000 

0.000000 -0.000000 0.000000 
0.000000 0.000000 0.000000 
0.000000 0.000000 0.000000 

0.000000 0.000000 0.000000 
0.000000 0.000000 0.000000 
0.000000 0.000000 0.000000 

0.000000 0.000000 0.000000 
0.000000 -0.000000 0.000000 
0.000000 0.000000 0.000000 

0.000000 0.000000 0.000000 
0.000000 -0.000000 0.000000 
0.000000 0.000000 0.000000 

0.000000 0.000000 0.000000 
0.000000 0.000000 0.000000 
0.000000 0.000000 0.000000 

0.000000 0.000000 0.000000 
0.000000 -0.000000 0.000000 
0.000000 0.000000 0.000000 

-0.000000 -0.000000 0.000000 
0.000000 0.000000 0.000000 
0.000000 0.000000 0.000000 

0.000000 -0.000000 0.000000 
0.000000 -0.000000 0.000000 
0.000000 0.000000 0.000000 

0.000000 0.000000 0.000000 
0.000000 0.000000 0.000000 
0.000000 0.000000 0.000000 

-0.000000 0.000000 0.000000 
0.000000 0.000000 0.000000 
0.000000 0.000000 0.000000 

-0.000000 0.000000 0.000000 
0.000000 0.000000 0.000000 
0.000000 0.000000 0.000000 

-0.000000 -0.000000 0.000000 
0.000000 0.000000 0.000000 
0.000000 0.000000 0.000000 

0.000000 -0.000000 0.000000 
0.000000 -0.000000 0.000000 
0.000000 0.000000 0.000000 

-0.000000 -0.000000 0.000000 
0.000000 -0.000000 0.000000 
0.000000 0.000000 0.000000 

0.000000 -0.000000 0.000000 
0.000000 -0.000000 0.000000 
0.000000 0.000000 0.000000 

0.000000 0.000000 0.000000 
0.000000 -0.000000 0.000000 
0.000000 0.000000 0.000000 

0.000000 0.000000 0.000000 
0.000000 -0.000000 0.000000 
0.000000 0.000000 0.000000 

0.000000 -0.000000 0.000000 
0.000000 0.000000 0.000000 
0.000000 0.000000 0.000000 

0.000000 0.000000 0.000000 
0.000000 -0.000000 0.000000 
0.000000 0.000000 0.000000 

-0.000000 -0.000000 0.000000 
0.000000 -0.000000 0.000000 
0.000000 0.000000 0.000000 

0.000000 -0.000000 0.000000 
0.000000 -0.000000 0.000000 
0.000000 0.000000 0.000000 

0.000000 -0.000000 0.000000 
0.000000 -0.000000 0.000000 
0.000000 0.000000 0.000000 

0.000000 0.000000 0.000000 
0.000000 0.000000 0.000000 
0.000000 0.000000 0.000000 

0.000000 -0.000000 0.000000 
0.000000 -0.000000 0.000000 
0.000000 0.000000 0.000000 

-0.000000 -0.000000 0.000000 
0.000000 -0.000000 0.000000 
0.000000 0.000000 0.000000 

0.000000 -0.000000 0.000000 
0.000000 -0.000000 0.000000 
0.000000 0.000000 0.000000 

-0.000000 -0.000000 0.000000 
0.000000 0.000000 0.000000 
0.000000 0.000000 0.000000 

-0.000000 -0.000000 0.000000 
0.000000 -0.000000 0.000000 
0.000000 0.000000 0.000000 

0.000000 -0.000000 0.000000 
0.000000 -0.000000 0.000000 
0.000000 0.000000 0.000000 

0.000000 0.000000 0.000000 
0.000000 -0.000000 0.000000 
0.000000 0.000000 0.000000 

0.000000 -0.000000 0.000000 
0.000000 -0.000000 0.000000 
0.000000 0.000000 0.000000 

0.000000 0.000000 0.000000 
0.000000 0.000000 0.000000 
0.000000 0.000000 0.000000 

-0.000000 0.000000 0.000000 
0.000000 -0.000000 0.000000 
0.000000 0.000000 0.000000 

0.000000 0.000000 0.000000 
0.000000 0.000000 0.000000 
0.000000 0.000000 0.000000 

-0.000000 -0.000000 0.000000 
0.000000 0.000000 0.000000 
0.000000 0.000000 0.000000 

-0.000000 -0.000000 0.000000 
0.000000 -0.000000 0.000000 
0.000000 0.000000 0.000000 

-0.000000 0.000000 0.000000 
0.000000 0.000000 0.000000 
0.000000 0.000000 0.000000 

0.000000 -0.000000 0.000000 
0.000000 0.000000 0.000000 
0.000000 0.000000 0.000000 

0.000000 -0.000000 0.000000 
0.000000 0.000000 0.000000 
0.000000 0.000000 0.000000 

-0.000000 -0.000000 0.000000 
0.000000 0.000000 0.000000 
0.000000 0.000000 0.000000 

-0.000000 -0.000000 0.000000 
0.000000 -0.000000 0.000000 
0.000000 0.000000 0.000000 

-0.000000 -0.000000 0.000000 
0.000000 0.000000 0.000000 
0.000000 0.000000 0.000000 

0.000000 0.000000 0.000000 
0.000000 0.000000 0.000000 
0.000000 0.000000 0.000000 

0.000000 0.000000 0.000000 
0.000000 0.000000 0.000000 
0.000000 0.000000 0.000000 

0.000000 0.000000 0.000000 
0.000000 -0.000000 0.000000 
0.000000 0.000000 0.000000 

0.000000 0.000000 0.000000 
0.000000 0.000000 0.000000 
0.000000 0.000000 0.000000 

0.000000 -0.000000 0.000000 
0.000000 -0.000000 0.000000 
0.000000 0.000000 0.000000 

0.000000 0.000000 0.000000 
0.000000 0.000000 0.000000 
0.000000 0.000000 0.000000 

0.000000 -0.000000 0.000000 
0.000000 0.000000 0.000000 
0.000000 0.000000 0.000000 

0.000000 0.000000 0.000000 
0.000000 -0.000000 0.000000 
0.000000 0.000000 0.000000 

0.000000 0.000000 0.000000 
0.000000 -0.000000 0.000000 
0.000000 0.000000 0.000000 

-0.000000 -0.000000 0.000000 
0.000000 0.000000 0.000000 
0.000000 0.000000 0.000000 

0.000000 0.000000 0.000000 
0.000000 0.000000 0.000000 
0.000000 0.000000 0.000000 

0.000000 -0.000000 0.000000 
0.000000 0.000000 0.000000 
0.000000 0.000000 0.000000 

-0.000000 -0.000000 0.000000 
0.000000 0.000000 0.000000 
0.000000 0.000000 0.000000 

-0.000000 -0.000000 0.000000 
0.000000 -0.000000 0.000000 
0.000000 0.000000 0.000000 

0.000000 -0.000000 0.000000 
0.000000 -0.000000 0.000000 
0.000000 0.000000 0.000000 

0.000000 0.000000 0.000000 
0.000000 -0.000000 0.000000 
0.000000 0.000000 0.000000 

0.000000 -0.000000 0.000000 
0.000000 0.000000 0.000000 
0.000000 0.000000 0.000000 

-0.000000 -0.000000 0.000000 
0.000000 -0.000000 0.000000 
0.000000 0.000000 0.000000 

-0.000000 0.000000 0.000000 
0.000000 0.000000 0.000000 
0.000000 0.000000 0.000000 

0.000000 -0.000000 0.000000 
0.000000 -0.000000 0.000000 
0.000000 0.000000 0.000000 

0.000000 -0.000000 0.000000 
0.000000 -0.000000 0.000000 
0.000000 0.000000 0.000000 

0.000000 0.000000 0.000000 
0.000000 0.000000 0.000000 
0.000000 0.000000 0.000000 

-0.000000 0.000000 0.000000 
0.000000 -0.000000 0.000000 
0.000000 0.000000 0.000000 

0.000000 0.000000 0.000000 
0.000000 -0.000000 0.000000 
0.000000 0.000000 0.000000 

-0.000000 0.000000 0.000000 
0.000000 0.000000 0.000000 
0.000000 0.000000 0.000000 

-0.000000 -0.000000 0.000000 
0.000000 -0.000000 0.000000 
0.000000 0.000000 0.000000 

0.000000 -0.000000 0.000000 
0.000000 -0.000000 0.000000 
0.000000 0.000000 0.000000 

0.000000 0.000000 0.000000 
0.000000 0.000000 0.000000 
0.000000 0.000000 0.000000 

-0.000000 0.000000 0.000000 
0.000000 -0.000000 0.000000 
0.000000 0.000000 0.000000 

-0.000000 -0.000000 0.000000 
0.000000 0.000000 0.000000 
0.000000 0.000000 0.000000 

-0.000000 0.000000 0.000000 
0.000000 -0.000000 0.000000 
0.000000 0.000000 0.000000 

0.000000 -0.000000 0.000000 
0.000000 -0.000000 0.000000 
0.000000 0.000000 0.000000 

0.000000 -0.000000 0.000000 
0.000000 -0.000000 0.000000 
0.000000 0.000000 0.000000 

0.000000 -0.000000 0.000000 
0.000000 0.000000 0.000000 
0.000000 0.000000 0.000000 

0.000000 -0.000000 0.000000 
0.000000 -0.000000 0.000000 
0.000000 0.000000 0.000000 

0.000000 0.000000 0.000000 
0.000000 -0.000000 0.000000 
0.000000 0.000000 0.000000 

0.000000 0.000000 0.000000 
0.000000 0.000000 0.000000 
0.000000 0.000000 0.000000 

0.000000 0.000000 0.000000 
0.000000 -0.000000 0.000000 
0.000000 0.000000 0.000000 

0.000000 -0.000000 0.000000 
0.000000 0.000000 0.000000 
0.000000 0.000000 0.000000 

0.000000 0.000000 0.000000 
0.000000 -0.000000 0.000000 
0.000000 0.000000 0.000000 

0.000000 -0.000000 0.000000 
0.000000 0.000000 0.000000 
0.000000 0.000000 0.000000 

0.000000 -0.000000 0.000000 
0.000000 -0.000000 0.000000 
0.000000 0.000000 0.000000 

0.000000 0.000000 0.000000 
0.000000 -0.000000 0.000000 
0.000000 0.000000 0.000000 

0.000000 0.000000 0.000000 
0.000000 0.000000 0.000000 
0.000000 0.000000 0.000000 

0.000000 -0.000000 0.000000 
0.000000 0.000000 0.000000 
0.000000 0.000000 0.000000 

0.000000 -0.000000 0.000000 
0.000000 -0.000000 0.000000 
0.000000 0.000000 0.000000 

0.000000 -0.000000 0.000000 
0.000000 0.000000 0.000000 
0.000000 0.000000 0.000000 

0.000000 0.000000 0.000000 
0.000000 0.000000 0.000000 
0.000000 0.000000 0.000000 

0.000000 -0.000000 0.000000 
0.000000 0.000000 0.000000 
0.000000 0.000000 0.000000 

-0.000000 0.000000 0.000000 
0.000000 0.000000 0.000000 
0.000000 0.000000 0.000000 

-0.000000 -0.000000 0.000000 
0.000000 0.000000 0.000000 
0.000000 0.000000 0.000000 

-0.000000 -0.000000 0.000000 
0.000000 -0.000000 0.000000 
0.000000 0.000000 0.000000 

-0.000000 -0.000000 0.000000 
0.000000 0.000000 0.000000 
0.000000 0.000000 0.000000 

-0.000000 0.000000 0.000000 
0.000000 -0.000000 0.000000 
0.000000 0.000000 0.000000 

-0.000000 0.000000 0.000000 
0.000000 0.000000 0.000000 
0.000000 0.000000 0.000000 

-0.000000 0.000000 0.000000 
0.000000 -0.000000 0.000000 
0.000000 0.000000 0.000000 

0.000000 0.000000 0.000000 
0.000000 -0.000000 0.000000 
0.000000 0.000000 0.000000 

0.000000 -0.000000 0.000000 
0.000000 0.000000 0.000000 
0.000000 0.000000 0.000000 

0.000000 -0.000000 0.000000 
0.000000 -0.000000 0.000000 
0.000000 0.000000 0.000000 

0.000000 0.000000 0.000000 
0.000000 -0.000000 0.000000 
0.000000 0.000000 0.000000 

0.000000 -0.000000 0.000000 
0.000000 -0.000000 0.000000 
0.000000 0.000000 0.000000 

0.000000 -0.000000 0.000000 
0.000000 -0.000000 0.000000 
0.000000 0.000000 0.000000 

0.000000 0.000000 0.000000 
0.000000 0.000000 0.000000 
0.000000 0.000000 0.000000 

0.000000 -0.000000 0.000000 
0.000000 -0.000000 0.000000 
0.000000 0.000000 0.000000 

0.000000 0.000000 0.000000 
0.000000 0.000000 0.000000 
0.000000 0.000000 0.000000 

-0.000000 0.000000 0.000000 
0.000000 0.000000 0.000000 
0.000000 0.000000 0.000000 

-0.000000 -0.000000 0.000000 
0.000000 0.000000 0.000000 
0.000000 0.000000 0.000000 

0.000000 -0.000000 0.000000 
0.000000 0.000000 0.000000 
0.000000 0.000000 0.000000 

0.000000 -0.000000 0.000000 
0.000000 0.000000 0.000000 
0.000000 0.000000 0.000000 

0.000000 0.000000 0.000000 
0.000000 0.000000 0.000000 
0.000000 0.000000 0.000000 

0.000000 -0.000000 0.000000 
0.000000 0.000000 0.000000 
0.000000 0.000000 0.000000 

0.000000 -0.000000 0.000000 
0.000000 -0.000000 0.000000 
0.000000 0.000000 0.000000 

-0.000000 -0.000000 0.000000 
0.000000 -0.000000 0.000000 
0.000000 0.000000 0.000000 

0.000000 -0.000000 0.000000 
0.000000 0.000000 0.000000 
0.000000 0.000000 0.000000 

0.000000 0.000000 0.000000 
0.000000 -0.000000 0.000000 
0.000000 0.000000 0.000000 

0.000000 0.000000 0.000000 
0.000000 -0.000000 0.000000 
0.000000 0.000000 0.000000 

0.000000 -0.000000 0.000000 
0.000000 0.000000 0.000000 
0.000000 0.000000 0.000000 

-0.000000 -0.000000 0.000000 
0.000000 -0.000000 0.000000 
0.000000 0.000000 0.000000 

-0.000000 0.000000 0.000000 
0.000000 0.000000 0.000000 
0.000000 0.000000 0.000000 

-0.000000 -0.000000 0.000000 
0.000000 0.000000 0.000000 
0.000000 0.000000 0.000000 

-0.000000 -0.000000 0.000000 
0.000000 0.000000 0.000000 
0.000000 0.000000 0.000000 

