# vtk DataFile Version 3.0 
vtk output 
ASCII 
DATASET UNSTRUCTURED_GRID 
POINTS 175 float 
-0.026061 -2.352905 0.000000 
-0.106992 -2.284850 0.000000 
-0.054870 -2.293083 0.000000 
-0.028809 -2.247199 0.000000 
-0.186430 -2.220775 0.000000 
-0.137056 -2.223301 0.000000 
-0.114311 -2.169654 0.000000 
-0.058186 -2.185319 0.000000 
-0.029377 -2.145142 0.000000 
-0.265318 -2.157619 0.000000 
-0.217198 -2.158419 0.000000 
-0.196633 -2.101122 0.000000 
-0.143120 -2.109831 0.000000 
-0.116563 -2.062562 0.000000 
-0.058945 -2.082208 0.000000 
-0.029568 -2.044088 0.000000 
-0.344206 -2.094463 0.000000 
-0.296791 -2.094456 0.000000 
-0.278030 -2.034513 0.000000 
-0.225992 -2.040380 0.000000 
-0.201664 -1.988263 0.000000 
-0.145749 -2.001737 0.000000 
-0.117890 -1.957394 0.000000 
-0.059328 -1.980100 0.000000 
-0.029759 -1.943034 0.000000 
-0.058559 -2.393655 0.000000 
-0.162227 -2.414498 0.000000 
-0.123292 -2.378881 0.000000 
-0.142917 -2.329898 0.000000 
-0.261852 -2.436654 0.000000 
-0.229092 -2.399628 0.000000 
-0.256854 -2.348396 0.000000 
-0.209613 -2.314284 0.000000 
-0.223062 -2.266710 0.000000 
-0.360415 -2.458954 0.000000 
-0.329788 -2.421832 0.000000 
-0.361762 -2.370030 0.000000 
-0.321587 -2.333622 0.000000 
-0.341986 -2.283388 0.000000 
-0.290702 -2.250589 0.000000 
-0.302189 -2.203854 0.000000 
-0.458979 -2.481254 0.000000 
-0.429421 -2.444180 0.000000 
-0.464588 -2.392139 0.000000 
-0.427557 -2.355112 0.000000 
-0.453135 -2.303597 0.000000 
-0.407738 -2.268282 0.000000 
-0.425037 -2.218854 0.000000 
-0.370772 -2.187225 0.000000 
-0.381315 -2.140997 0.000000 
-0.046960 -2.444471 0.000000 
-0.095301 -2.538518 0.000000 
-0.098873 -2.485870 0.000000 
-0.149406 -2.470672 0.000000 
-0.140110 -2.630176 0.000000 
-0.148623 -2.581510 0.000000 
-0.205986 -2.571279 0.000000 
-0.203198 -2.513080 0.000000 
-0.248779 -2.493933 0.000000 
-0.184167 -2.721116 0.000000 
-0.194069 -2.674047 0.000000 
-0.254501 -2.666771 0.000000 
-0.257907 -2.612671 0.000000 
-0.309894 -2.597304 0.000000 
-0.303556 -2.536764 0.000000 
-0.347257 -2.516607 0.000000 
-0.228310 -2.811996 0.000000 
-0.238800 -2.765827 0.000000 
-0.301374 -2.760916 0.000000 
-0.307189 -2.708910 0.000000 
-0.363401 -2.696800 0.000000 
-0.362702 -2.639293 0.000000 
-0.412128 -2.622003 0.000000 
-0.403020 -2.559858 0.000000 
-0.445735 -2.539280 0.000000 
-0.000000 -2.467087 0.000000 
0.043389 -2.563516 0.000000 
-0.000000 -2.533486 0.000000 
-0.043389 -2.563516 0.000000 
0.087179 -2.655630 0.000000 
0.043778 -2.631950 0.000000 
-0.000000 -2.670379 0.000000 
-0.043778 -2.631950 0.000000 
-0.087179 -2.655630 0.000000 
0.130927 -2.746773 0.000000 
0.087884 -2.725142 0.000000 
0.044514 -2.767920 0.000000 
-0.000000 -2.736795 0.000000 
-0.044514 -2.767920 0.000000 
-0.087884 -2.725142 0.000000 
-0.130927 -2.746773 0.000000 
0.174735 -2.837895 0.000000 
0.131992 -2.817394 0.000000 
0.089174 -2.863180 0.000000 
0.044678 -2.835514 0.000000 
-0.000000 -2.871321 0.000000 
-0.044678 -2.835514 0.000000 
-0.089174 -2.863180 0.000000 
-0.131992 -2.817394 0.000000 
-0.174735 -2.837895 0.000000 
0.046960 -2.444471 0.000000 
0.149406 -2.470672 0.000000 
0.098873 -2.485870 0.000000 
0.095301 -2.538518 0.000000 
0.248779 -2.493933 0.000000 
0.203198 -2.513080 0.000000 
0.205986 -2.571279 0.000000 
0.148623 -2.581510 0.000000 
0.140110 -2.630176 0.000000 
0.347257 -2.516607 0.000000 
0.303556 -2.536764 0.000000 
0.309894 -2.597304 0.000000 
0.257907 -2.612671 0.000000 
0.254501 -2.666771 0.000000 
0.194069 -2.674047 0.000000 
0.184167 -2.721116 0.000000 
0.445735 -2.539280 0.000000 
0.403020 -2.559858 0.000000 
0.412128 -2.622003 0.000000 
0.362702 -2.639293 0.000000 
0.363401 -2.696800 0.000000 
0.307189 -2.708910 0.000000 
0.301374 -2.760916 0.000000 
0.238800 -2.765827 0.000000 
0.228310 -2.811996 0.000000 
0.058559 -2.393655 0.000000 
0.142917 -2.329898 0.000000 
0.123292 -2.378881 0.000000 
0.162227 -2.414498 0.000000 
0.223062 -2.266710 0.000000 
0.209613 -2.314284 0.000000 
0.256854 -2.348396 0.000000 
0.229092 -2.399628 0.000000 
0.261852 -2.436654 0.000000 
0.302189 -2.203854 0.000000 
0.290702 -2.250589 0.000000 
0.341986 -2.283388 0.000000 
0.321587 -2.333622 0.000000 
0.361762 -2.370030 0.000000 
0.329788 -2.421832 0.000000 
0.360415 -2.458954 0.000000 
0.381315 -2.140997 0.000000 
0.370772 -2.187225 0.000000 
0.425037 -2.218854 0.000000 
0.407738 -2.268282 0.000000 
0.453135 -2.303597 0.000000 
0.427557 -2.355112 0.000000 
0.464588 -2.392139 0.000000 
0.429421 -2.444180 0.000000 
0.458979 -2.481254 0.000000 
0.026061 -2.352905 0.000000 
0.028809 -2.247199 0.000000 
0.054870 -2.293083 0.000000 
0.106992 -2.284850 0.000000 
0.029377 -2.145142 0.000000 
0.058186 -2.185319 0.000000 
0.114311 -2.169654 0.000000 
0.137056 -2.223301 0.000000 
0.186430 -2.220775 0.000000 
0.029568 -2.044088 0.000000 
0.058945 -2.082208 0.000000 
0.116563 -2.062562 0.000000 
0.143120 -2.109831 0.000000 
0.196633 -2.101122 0.000000 
0.217198 -2.158419 0.000000 
0.265318 -2.157619 0.000000 
0.029759 -1.943034 0.000000 
0.059328 -1.980100 0.000000 
0.117890 -1.957394 0.000000 
0.145749 -2.001737 0.000000 
0.201664 -1.988263 0.000000 
0.225992 -2.040380 0.000000 
0.278030 -2.034513 0.000000 
0.296791 -2.094456 0.000000 
0.344206 -2.094463 0.000000 
CELLS 175 350 
1 0 
1 1 
1 2 
1 3 
1 4 
1 5 
1 6 
1 7 
1 8 
1 9 
1 10 
1 11 
1 12 
1 13 
1 14 
1 15 
1 16 
1 17 
1 18 
1 19 
1 20 
1 21 
1 22 
1 23 
1 24 
1 25 
1 26 
1 27 
1 28 
1 29 
1 30 
1 31 
1 32 
1 33 
1 34 
1 35 
1 36 
1 37 
1 38 
1 39 
1 40 
1 41 
1 42 
1 43 
1 44 
1 45 
1 46 
1 47 
1 48 
1 49 
1 50 
1 51 
1 52 
1 53 
1 54 
1 55 
1 56 
1 57 
1 58 
1 59 
1 60 
1 61 
1 62 
1 63 
1 64 
1 65 
1 66 
1 67 
1 68 
1 69 
1 70 
1 71 
1 72 
1 73 
1 74 
1 75 
1 76 
1 77 
1 78 
1 79 
1 80 
1 81 
1 82 
1 83 
1 84 
1 85 
1 86 
1 87 
1 88 
1 89 
1 90 
1 91 
1 92 
1 93 
1 94 
1 95 
1 96 
1 97 
1 98 
1 99 
1 100 
1 101 
1 102 
1 103 
1 104 
1 105 
1 106 
1 107 
1 108 
1 109 
1 110 
1 111 
1 112 
1 113 
1 114 
1 115 
1 116 
1 117 
1 118 
1 119 
1 120 
1 121 
1 122 
1 123 
1 124 
1 125 
1 126 
1 127 
1 128 
1 129 
1 130 
1 131 
1 132 
1 133 
1 134 
1 135 
1 136 
1 137 
1 138 
1 139 
1 140 
1 141 
1 142 
1 143 
1 144 
1 145 
1 146 
1 147 
1 148 
1 149 
1 150 
1 151 
1 152 
1 153 
1 154 
1 155 
1 156 
1 157 
1 158 
1 159 
1 160 
1 161 
1 162 
1 163 
1 164 
1 165 
1 166 
1 167 
1 168 
1 169 
1 170 
1 171 
1 172 
1 173 
1 174 
CELL_TYPES 175 
1 
1 
1 
1 
1 
1 
1 
1 
1 
1 
1 
1 
1 
1 
1 
1 
1 
1 
1 
1 
1 
1 
1 
1 
1 
1 
1 
1 
1 
1 
1 
1 
1 
1 
1 
1 
1 
1 
1 
1 
1 
1 
1 
1 
1 
1 
1 
1 
1 
1 
1 
1 
1 
1 
1 
1 
1 
1 
1 
1 
1 
1 
1 
1 
1 
1 
1 
1 
1 
1 
1 
1 
1 
1 
1 
1 
1 
1 
1 
1 
1 
1 
1 
1 
1 
1 
1 
1 
1 
1 
1 
1 
1 
1 
1 
1 
1 
1 
1 
1 
1 
1 
1 
1 
1 
1 
1 
1 
1 
1 
1 
1 
1 
1 
1 
1 
1 
1 
1 
1 
1 
1 
1 
1 
1 
1 
1 
1 
1 
1 
1 
1 
1 
1 
1 
1 
1 
1 
1 
1 
1 
1 
1 
1 
1 
1 
1 
1 
1 
1 
1 
1 
1 
1 
1 
1 
1 
1 
1 
1 
1 
1 
1 
1 
1 
1 
1 
1 
1 
1 
1 
1 
1 
1 
1 
POINT_DATA 175 
VECTORS X_GC float 
-0.026061 -2.352905 0.000000 
-0.106992 -2.284850 0.000000 
-0.054870 -2.293083 0.000000 
-0.028809 -2.247199 0.000000 
-0.186430 -2.220775 0.000000 
-0.137056 -2.223301 0.000000 
-0.114311 -2.169654 0.000000 
-0.058186 -2.185319 0.000000 
-0.029377 -2.145142 0.000000 
-0.265318 -2.157619 0.000000 
-0.217198 -2.158419 0.000000 
-0.196633 -2.101122 0.000000 
-0.143120 -2.109831 0.000000 
-0.116563 -2.062562 0.000000 
-0.058945 -2.082208 0.000000 
-0.029568 -2.044088 0.000000 
-0.344206 -2.094463 0.000000 
-0.296791 -2.094456 0.000000 
-0.278030 -2.034513 0.000000 
-0.225992 -2.040380 0.000000 
-0.201664 -1.988263 0.000000 
-0.145749 -2.001737 0.000000 
-0.117890 -1.957394 0.000000 
-0.059328 -1.980100 0.000000 
-0.029759 -1.943034 0.000000 
-0.058559 -2.393655 0.000000 
-0.162227 -2.414498 0.000000 
-0.123292 -2.378881 0.000000 
-0.142917 -2.329898 0.000000 
-0.261852 -2.436654 0.000000 
-0.229092 -2.399628 0.000000 
-0.256854 -2.348396 0.000000 
-0.209613 -2.314284 0.000000 
-0.223062 -2.266710 0.000000 
-0.360415 -2.458954 0.000000 
-0.329788 -2.421832 0.000000 
-0.361762 -2.370030 0.000000 
-0.321587 -2.333622 0.000000 
-0.341986 -2.283388 0.000000 
-0.290702 -2.250589 0.000000 
-0.302189 -2.203854 0.000000 
-0.458979 -2.481254 0.000000 
-0.429421 -2.444180 0.000000 
-0.464588 -2.392139 0.000000 
-0.427557 -2.355112 0.000000 
-0.453135 -2.303597 0.000000 
-0.407738 -2.268282 0.000000 
-0.425037 -2.218854 0.000000 
-0.370772 -2.187225 0.000000 
-0.381315 -2.140997 0.000000 
-0.046960 -2.444471 0.000000 
-0.095301 -2.538518 0.000000 
-0.098873 -2.485870 0.000000 
-0.149406 -2.470672 0.000000 
-0.140110 -2.630176 0.000000 
-0.148623 -2.581510 0.000000 
-0.205986 -2.571279 0.000000 
-0.203198 -2.513080 0.000000 
-0.248779 -2.493933 0.000000 
-0.184167 -2.721116 0.000000 
-0.194069 -2.674047 0.000000 
-0.254501 -2.666771 0.000000 
-0.257907 -2.612671 0.000000 
-0.309894 -2.597304 0.000000 
-0.303556 -2.536764 0.000000 
-0.347257 -2.516607 0.000000 
-0.228310 -2.811996 0.000000 
-0.238800 -2.765827 0.000000 
-0.301374 -2.760916 0.000000 
-0.307189 -2.708910 0.000000 
-0.363401 -2.696800 0.000000 
-0.362702 -2.639293 0.000000 
-0.412128 -2.622003 0.000000 
-0.403020 -2.559858 0.000000 
-0.445735 -2.539280 0.000000 
-0.000000 -2.467087 0.000000 
0.043389 -2.563516 0.000000 
-0.000000 -2.533486 0.000000 
-0.043389 -2.563516 0.000000 
0.087179 -2.655630 0.000000 
0.043778 -2.631950 0.000000 
-0.000000 -2.670379 0.000000 
-0.043778 -2.631950 0.000000 
-0.087179 -2.655630 0.000000 
0.130927 -2.746773 0.000000 
0.087884 -2.725142 0.000000 
0.044514 -2.767920 0.000000 
-0.000000 -2.736795 0.000000 
-0.044514 -2.767920 0.000000 
-0.087884 -2.725142 0.000000 
-0.130927 -2.746773 0.000000 
0.174735 -2.837895 0.000000 
0.131992 -2.817394 0.000000 
0.089174 -2.863180 0.000000 
0.044678 -2.835514 0.000000 
-0.000000 -2.871321 0.000000 
-0.044678 -2.835514 0.000000 
-0.089174 -2.863180 0.000000 
-0.131992 -2.817394 0.000000 
-0.174735 -2.837895 0.000000 
0.046960 -2.444471 0.000000 
0.149406 -2.470672 0.000000 
0.098873 -2.485870 0.000000 
0.095301 -2.538518 0.000000 
0.248779 -2.493933 0.000000 
0.203198 -2.513080 0.000000 
0.205986 -2.571279 0.000000 
0.148623 -2.581510 0.000000 
0.140110 -2.630176 0.000000 
0.347257 -2.516607 0.000000 
0.303556 -2.536764 0.000000 
0.309894 -2.597304 0.000000 
0.257907 -2.612671 0.000000 
0.254501 -2.666771 0.000000 
0.194069 -2.674047 0.000000 
0.184167 -2.721116 0.000000 
0.445735 -2.539280 0.000000 
0.403020 -2.559858 0.000000 
0.412128 -2.622003 0.000000 
0.362702 -2.639293 0.000000 
0.363401 -2.696800 0.000000 
0.307189 -2.708910 0.000000 
0.301374 -2.760916 0.000000 
0.238800 -2.765827 0.000000 
0.228310 -2.811996 0.000000 
0.058559 -2.393655 0.000000 
0.142917 -2.329898 0.000000 
0.123292 -2.378881 0.000000 
0.162227 -2.414498 0.000000 
0.223062 -2.266710 0.000000 
0.209613 -2.314284 0.000000 
0.256854 -2.348396 0.000000 
0.229092 -2.399628 0.000000 
0.261852 -2.436654 0.000000 
0.302189 -2.203854 0.000000 
0.290702 -2.250589 0.000000 
0.341986 -2.283388 0.000000 
0.321587 -2.333622 0.000000 
0.361762 -2.370030 0.000000 
0.329788 -2.421832 0.000000 
0.360415 -2.458954 0.000000 
0.381315 -2.140997 0.000000 
0.370772 -2.187225 0.000000 
0.425037 -2.218854 0.000000 
0.407738 -2.268282 0.000000 
0.453135 -2.303597 0.000000 
0.427557 -2.355112 0.000000 
0.464588 -2.392139 0.000000 
0.429421 -2.444180 0.000000 
0.458979 -2.481254 0.000000 
0.026061 -2.352905 0.000000 
0.028809 -2.247199 0.000000 
0.054870 -2.293083 0.000000 
0.106992 -2.284850 0.000000 
0.029377 -2.145142 0.000000 
0.058186 -2.185319 0.000000 
0.114311 -2.169654 0.000000 
0.137056 -2.223301 0.000000 
0.186430 -2.220775 0.000000 
0.029568 -2.044088 0.000000 
0.058945 -2.082208 0.000000 
0.116563 -2.062562 0.000000 
0.143120 -2.109831 0.000000 
0.196633 -2.101122 0.000000 
0.217198 -2.158419 0.000000 
0.265318 -2.157619 0.000000 
0.029759 -1.943034 0.000000 
0.059328 -1.980100 0.000000 
0.117890 -1.957394 0.000000 
0.145749 -2.001737 0.000000 
0.201664 -1.988263 0.000000 
0.225992 -2.040380 0.000000 
0.278030 -2.034513 0.000000 
0.296791 -2.094456 0.000000 
0.344206 -2.094463 0.000000 
VECTORS X_EC float 
0.338794 0.264218 0.000000 
-0.609100 -0.654522 0.000000 
0.713313 -0.543383 0.000000 
0.374519 0.837191 0.000000 
0.423588 0.480461 0.000000 
-0.218274 0.514564 0.000000 
-0.513962 -0.209674 0.000000 
0.756418 0.001812 0.000000 
0.381900 -0.540581 0.000000 
-0.550868 -0.372142 0.000000 
0.823577 -0.361347 0.000000 
0.556234 0.865149 0.000000 
-0.139443 0.982718 0.000000 
-0.484677 0.344593 0.000000 
0.766286 0.609809 0.000000 
0.384386 0.095188 0.000000 
0.474677 0.775255 0.000000 
-0.141715 0.775158 0.000000 
-0.385608 -0.034070 0.000000 
0.937896 0.045126 0.000000 
0.621631 -0.658454 0.000000 
-0.105264 -0.476555 0.000000 
-0.467428 0.924819 0.000000 
0.771260 -0.768653 0.000000 
0.386873 0.730958 0.000000 
0.761265 0.814348 0.000000 
0.108948 -0.904275 0.000000 
-0.397198 0.614888 0.000000 
-0.142081 -0.046382 0.000000 
-0.595924 -0.605170 0.000000 
0.978201 0.894972 0.000000 
-0.660899 0.203352 0.000000 
0.724966 -0.257166 0.000000 
0.899809 -0.899410 0.000000 
0.685400 -0.304119 0.000000 
0.287238 -0.805269 0.000000 
0.702900 0.495409 0.000000 
0.180636 0.003892 0.000000 
0.445812 -0.674265 0.000000 
-0.220880 0.882951 0.000000 
-0.071546 0.252025 0.000000 
-0.033279 -0.003065 0.000000 
-0.417526 -0.503569 0.000000 
0.039650 0.793877 0.000000 
-0.441764 0.294007 0.000000 
-0.109246 -0.401442 0.000000 
-0.699406 -0.878196 0.000000 
-0.474521 0.454525 0.000000 
0.820030 0.027532 0.000000 
0.957100 -0.596539 0.000000 
0.610486 -0.499638 0.000000 
-0.761089 0.769998 0.000000 
-0.714652 0.059249 0.000000 
-0.057724 -0.145932 0.000000 
-0.178565 0.007376 0.000000 
-0.067900 -0.649620 0.000000 
0.677813 -0.787733 0.000000 
0.641578 0.426582 0.000000 
-0.765874 0.168100 0.000000 
0.394166 -0.764936 0.000000 
0.522893 0.599640 0.000000 
-0.691482 0.501406 0.000000 
-0.647210 -0.228940 0.000000 
0.028625 -0.436397 0.000000 
-0.053768 0.746310 0.000000 
0.514345 0.474189 0.000000 
0.968027 0.461952 0.000000 
-0.895605 -0.161332 0.000000 
-0.082135 -0.227631 0.000000 
-0.006538 -0.929710 0.000000 
0.724218 0.906806 0.000000 
0.715129 0.130451 0.000000 
-0.642330 -0.102962 0.000000 
-0.760743 -0.941914 0.000000 
-0.205443 0.780282 0.000000 
0.000000 -0.194331 0.000000 
-0.564052 -0.892538 0.000000 
0.000000 0.702065 0.000000 
0.564052 -0.892538 0.000000 
0.866668 0.351004 0.000000 
-0.569120 0.031319 0.000000 
0.000000 0.550115 0.000000 
0.569120 0.031319 0.000000 
-0.866668 0.351004 0.000000 
0.297951 -0.418562 0.000000 
0.857505 -0.710585 0.000000 
-0.578676 -0.133086 0.000000 
0.000000 -0.553267 0.000000 
0.578676 -0.133086 0.000000 
-0.857505 -0.710585 0.000000 
-0.297951 -0.418562 0.000000 
-0.271557 0.811578 0.000000 
0.284110 0.534818 0.000000 
0.840736 -0.847075 0.000000 
-0.580818 0.779438 0.000000 
0.000000 -0.737160 0.000000 
0.580818 0.779438 0.000000 
-0.840736 -0.847075 0.000000 
-0.284110 0.534818 0.000000 
0.271557 0.811578 0.000000 
-0.610486 -0.499638 0.000000 
0.057724 -0.145932 0.000000 
0.714652 0.059249 0.000000 
0.761089 0.769998 0.000000 
0.765874 0.168100 0.000000 
-0.641578 0.426582 0.000000 
-0.677813 -0.787733 0.000000 
0.067900 -0.649620 0.000000 
0.178565 0.007376 0.000000 
-0.514345 0.474189 0.000000 
0.053768 0.746310 0.000000 
-0.028625 -0.436397 0.000000 
0.647210 -0.228940 0.000000 
0.691482 0.501406 0.000000 
-0.522893 0.599640 0.000000 
-0.394166 -0.764936 0.000000 
0.205443 0.780282 0.000000 
0.760743 -0.941914 0.000000 
0.642330 -0.102962 0.000000 
-0.715129 0.130451 0.000000 
-0.724218 0.906806 0.000000 
0.006538 -0.929710 0.000000 
0.082135 -0.227631 0.000000 
0.895605 -0.161332 0.000000 
-0.968027 0.461952 0.000000 
-0.761265 0.814348 0.000000 
0.142081 -0.046382 0.000000 
0.397198 0.614888 0.000000 
-0.108948 -0.904275 0.000000 
-0.899809 -0.899410 0.000000 
-0.724966 -0.257166 0.000000 
0.660899 0.203352 0.000000 
-0.978201 0.894972 0.000000 
0.595924 -0.605170 0.000000 
0.071546 0.252025 0.000000 
0.220880 0.882951 0.000000 
-0.445812 -0.674265 0.000000 
-0.180636 0.003892 0.000000 
-0.702900 0.495409 0.000000 
-0.287238 -0.805269 0.000000 
-0.685400 -0.304119 0.000000 
-0.957100 -0.596539 0.000000 
-0.820030 0.027532 0.000000 
0.474521 0.454525 0.000000 
0.699406 -0.878196 0.000000 
0.109246 -0.401442 0.000000 
0.441764 0.294007 0.000000 
-0.039650 0.793877 0.000000 
0.417526 -0.503569 0.000000 
0.033279 -0.003065 0.000000 
-0.338794 0.264218 0.000000 
-0.374519 0.837191 0.000000 
-0.713313 -0.543383 0.000000 
0.609100 -0.654522 0.000000 
-0.381900 -0.540581 0.000000 
-0.756418 0.001812 0.000000 
0.513962 -0.209674 0.000000 
0.218274 0.514564 0.000000 
-0.423588 0.480461 0.000000 
-0.384386 0.095188 0.000000 
-0.766286 0.609809 0.000000 
0.484677 0.344593 0.000000 
0.139443 0.982718 0.000000 
-0.556234 0.865149 0.000000 
-0.823577 -0.361347 0.000000 
0.550868 -0.372142 0.000000 
-0.386873 0.730958 0.000000 
-0.771260 -0.768653 0.000000 
0.467428 0.924819 0.000000 
0.105264 -0.476555 0.000000 
-0.621631 -0.658454 0.000000 
-0.937896 0.045126 0.000000 
0.385608 -0.034070 0.000000 
0.141715 0.775158 0.000000 
-0.474677 0.775255 0.000000 
CELL_DATA 175 
SCALARS MASS float 
LOOKUP_TABLE default 
0.078183 
0.086427 
0.094672 
0.086427 
0.088131 
0.092111 
0.085854 
0.092111 
0.088131 
0.088705 
0.091000 
0.086983 
0.091556 
0.086983 
0.091000 
0.088705 
0.089278 
0.091574 
0.089278 
0.092722 
0.089278 
0.092722 
0.089278 
0.091574 
0.089278 
0.078183 
0.086427 
0.094672 
0.086427 
0.088131 
0.092111 
0.085854 
0.092111 
0.088131 
0.088705 
0.091000 
0.086983 
0.091556 
0.086983 
0.091000 
0.088705 
0.089278 
0.091574 
0.089278 
0.092722 
0.089278 
0.092722 
0.089278 
0.091574 
0.089278 
0.078183 
0.086427 
0.094672 
0.086427 
0.088131 
0.092111 
0.085854 
0.092111 
0.088131 
0.088705 
0.091000 
0.086983 
0.091556 
0.086983 
0.091000 
0.088705 
0.089278 
0.091574 
0.089278 
0.092722 
0.089278 
0.092722 
0.089278 
0.091574 
0.089278 
0.078183 
0.086427 
0.094672 
0.086427 
0.088131 
0.092111 
0.085854 
0.092111 
0.088131 
0.088705 
0.091000 
0.086983 
0.091556 
0.086983 
0.091000 
0.088705 
0.089278 
0.091574 
0.089278 
0.092722 
0.089278 
0.092722 
0.089278 
0.091574 
0.089278 
0.078183 
0.086427 
0.094672 
0.086427 
0.088131 
0.092111 
0.085854 
0.092111 
0.088131 
0.088705 
0.091000 
0.086983 
0.091556 
0.086983 
0.091000 
0.088705 
0.089278 
0.091574 
0.089278 
0.092722 
0.089278 
0.092722 
0.089278 
0.091574 
0.089278 
0.078183 
0.086427 
0.094672 
0.086427 
0.088131 
0.092111 
0.085854 
0.092111 
0.088131 
0.088705 
0.091000 
0.086983 
0.091556 
0.086983 
0.091000 
0.088705 
0.089278 
0.091574 
0.089278 
0.092722 
0.089278 
0.092722 
0.089278 
0.091574 
0.089278 
0.078183 
0.086427 
0.094672 
0.086427 
0.088131 
0.092111 
0.085854 
0.092111 
0.088131 
0.088705 
0.091000 
0.086983 
0.091556 
0.086983 
0.091000 
0.088705 
0.089278 
0.091574 
0.089278 
0.092722 
0.089278 
0.092722 
0.089278 
0.091574 
0.089278 
SCALARS MASS float 
LOOKUP_TABLE default 
0.078183 
0.086427 
0.094672 
0.086427 
0.088131 
0.092111 
0.085854 
0.092111 
0.088131 
0.088705 
0.091000 
0.086983 
0.091556 
0.086983 
0.091000 
0.088705 
0.089278 
0.091574 
0.089278 
0.092722 
0.089278 
0.092722 
0.089278 
0.091574 
0.089278 
0.078183 
0.086427 
0.094672 
0.086427 
0.088131 
0.092111 
0.085854 
0.092111 
0.088131 
0.088705 
0.091000 
0.086983 
0.091556 
0.086983 
0.091000 
0.088705 
0.089278 
0.091574 
0.089278 
0.092722 
0.089278 
0.092722 
0.089278 
0.091574 
0.089278 
0.078183 
0.086427 
0.094672 
0.086427 
0.088131 
0.092111 
0.085854 
0.092111 
0.088131 
0.088705 
0.091000 
0.086983 
0.091556 
0.086983 
0.091000 
0.088705 
0.089278 
0.091574 
0.089278 
0.092722 
0.089278 
0.092722 
0.089278 
0.091574 
0.089278 
0.078183 
0.086427 
0.094672 
0.086427 
0.088131 
0.092111 
0.085854 
0.092111 
0.088131 
0.088705 
0.091000 
0.086983 
0.091556 
0.086983 
0.091000 
0.088705 
0.089278 
0.091574 
0.089278 
0.092722 
0.089278 
0.092722 
0.089278 
0.091574 
0.089278 
0.078183 
0.086427 
0.094672 
0.086427 
0.088131 
0.092111 
0.085854 
0.092111 
0.088131 
0.088705 
0.091000 
0.086983 
0.091556 
0.086983 
0.091000 
0.088705 
0.089278 
0.091574 
0.089278 
0.092722 
0.089278 
0.092722 
0.089278 
0.091574 
0.089278 
0.078183 
0.086427 
0.094672 
0.086427 
0.088131 
0.092111 
0.085854 
0.092111 
0.088131 
0.088705 
0.091000 
0.086983 
0.091556 
0.086983 
0.091000 
0.088705 
0.089278 
0.091574 
0.089278 
0.092722 
0.089278 
0.092722 
0.089278 
0.091574 
0.089278 
0.078183 
0.086427 
0.094672 
0.086427 
0.088131 
0.092111 
0.085854 
0.092111 
0.088131 
0.088705 
0.091000 
0.086983 
0.091556 
0.086983 
0.091000 
0.088705 
0.089278 
0.091574 
0.089278 
0.092722 
0.089278 
0.092722 
0.089278 
0.091574 
0.089278 
SCALARS DENSITY float 
LOOKUP_TABLE default 
20.000137 
20.000163 
20.000166 
19.999999 
20.000000 
19.999999 
19.999999 
19.999999 
19.999998 
20.000002 
20.000001 
20.000001 
20.000001 
20.000001 
20.000001 
20.000001 
20.000001 
20.000001 
20.000001 
20.000001 
20.000001 
20.000001 
20.000000 
20.000001 
20.000000 
20.000117 
19.999897 
20.000131 
20.000139 
20.000345 
20.000092 
20.000130 
20.000123 
20.000117 
20.000336 
20.000358 
20.000090 
20.000101 
20.000086 
20.000000 
20.000002 
20.000332 
20.000338 
20.000067 
20.000070 
20.000057 
20.000058 
20.000003 
20.000004 
20.000005 
19.999346 
19.999185 
19.999313 
19.999664 
20.013506 
20.012619 
20.006393 
19.999920 
20.000308 
19.997987 
20.007689 
20.006335 
20.004858 
20.003240 
20.000283 
20.000298 
20.026687 
20.031953 
20.021990 
20.011745 
20.004549 
20.003082 
20.001005 
20.000659 
20.000397 
19.999380 
20.016397 
19.999482 
20.016397 
20.019176 
20.016309 
20.013794 
20.016309 
20.019176 
19.970440 
19.946011 
19.907367 
19.919582 
19.907367 
19.946011 
19.970440 
19.998966 
19.974719 
21.576668 
19.880866 
22.825430 
19.880866 
21.576668 
19.974719 
19.998966 
19.999346 
19.999664 
19.999313 
19.999185 
20.000308 
19.999920 
20.006393 
20.012619 
20.013506 
20.000298 
20.000283 
20.003240 
20.004858 
20.006335 
20.007689 
19.997987 
20.000397 
20.000659 
20.001005 
20.003082 
20.004549 
20.011745 
20.021990 
20.031953 
20.026687 
20.000117 
20.000139 
20.000131 
19.999897 
20.000117 
20.000123 
20.000130 
20.000092 
20.000345 
20.000002 
20.000000 
20.000086 
20.000101 
20.000090 
20.000358 
20.000336 
20.000005 
20.000004 
20.000003 
20.000058 
20.000057 
20.000070 
20.000067 
20.000338 
20.000332 
20.000137 
19.999999 
20.000166 
20.000163 
19.999998 
19.999999 
19.999999 
19.999999 
20.000000 
20.000001 
20.000001 
20.000001 
20.000001 
20.000001 
20.000001 
20.000002 
20.000000 
20.000001 
20.000000 
20.000001 
20.000001 
20.000001 
20.000001 
20.000001 
20.000001 
SCALARS ELEM_i float 
LOOKUP_TABLE default 
166 
193 
166 
167 
194 
194 
194 
167 
167 
221 
194 
195 
195 
195 
168 
168 
222 
222 
222 
195 
195 
195 
196 
168 
169 
166 
192 
193 
193 
219 
193 
220 
193 
193 
219 
219 
220 
220 
220 
221 
221 
246 
246 
247 
247 
247 
247 
248 
221 
221 
165 
192 
192 
192 
191 
191 
191 
192 
219 
190 
191 
218 
218 
218 
219 
219 
190 
217 
217 
217 
218 
218 
245 
245 
246 
165 
164 
165 
164 
137 
164 
164 
164 
191 
136 
136 
163 
163 
163 
190 
190 
136 
136 
135 
163 
162 
163 
189 
190 
190 
165 
138 
138 
138 
111 
138 
137 
137 
137 
111 
111 
110 
110 
110 
137 
136 
84 
83 
83 
110 
110 
109 
109 
109 
136 
166 
139 
139 
138 
139 
139 
112 
139 
111 
113 
113 
112 
112 
112 
111 
111 
113 
113 
86 
85 
85 
85 
85 
84 
84 
166 
167 
166 
139 
167 
167 
140 
140 
140 
168 
168 
141 
141 
141 
140 
113 
169 
168 
142 
141 
141 
141 
114 
114 
114 
VECTORS VELOCITY float 
0.000045 -6.872105 0.000000 
0.000009 -6.871670 0.000000 
0.000022 -6.871736 0.000000 
-0.000007 -6.871564 0.000000 
-0.000042 -6.871599 0.000000 
-0.000031 -6.871594 0.000000 
-0.000012 -6.871651 0.000000 
-0.000008 -6.871633 0.000000 
-0.000001 -6.871677 0.000000 
-0.000020 -6.871668 0.000000 
-0.000020 -6.871664 0.000000 
0.000001 -6.871709 0.000000 
0.000001 -6.871710 0.000000 
0.000000 -6.871709 0.000000 
0.000000 -6.871710 0.000000 
0.000000 -6.871709 0.000000 
-0.000001 -6.871705 0.000000 
0.000000 -6.871707 0.000000 
-0.000000 -6.871707 0.000000 
0.000000 -6.871708 0.000000 
-0.000000 -6.871707 0.000000 
-0.000000 -6.871708 0.000000 
-0.000000 -6.871707 0.000000 
-0.000000 -6.871708 0.000000 
-0.000000 -6.871708 0.000000 
0.000156 -6.872356 0.000000 
0.000055 -6.871746 0.000000 
0.000184 -6.872131 0.000000 
0.000089 -6.871855 0.000000 
-0.001327 -6.869776 0.000000 
0.000244 -6.871873 0.000000 
0.000075 -6.871697 0.000000 
0.000049 -6.871702 0.000000 
-0.000062 -6.871569 0.000000 
-0.001667 -6.869766 0.000000 
-0.000477 -6.871017 0.000000 
-0.000146 -6.871444 0.000000 
-0.000053 -6.871566 0.000000 
-0.000070 -6.871578 0.000000 
-0.000063 -6.871590 0.000000 
-0.000041 -6.871632 0.000000 
-0.001431 -6.870214 0.000000 
-0.000942 -6.870666 0.000000 
-0.000340 -6.871254 0.000000 
-0.000231 -6.871374 0.000000 
-0.000171 -6.871470 0.000000 
-0.000082 -6.871583 0.000000 
-0.000059 -6.871618 0.000000 
-0.000031 -6.871656 0.000000 
-0.000012 -6.871687 0.000000 
-0.000683 -6.867784 0.000000 
-0.005285 -6.855184 0.000000 
-0.003059 -6.862374 0.000000 
-0.002925 -6.865144 0.000000 
0.008564 -6.900912 0.000000 
-0.002900 -6.867680 0.000000 
-0.007258 -6.859259 0.000000 
-0.006192 -6.861560 0.000000 
-0.005023 -6.864738 0.000000 
-0.015349 -6.859210 0.000000 
0.011672 -6.889185 0.000000 
0.002376 -6.860202 0.000000 
-0.003538 -6.859870 0.000000 
-0.006497 -6.861231 0.000000 
-0.005973 -6.864013 0.000000 
-0.003841 -6.867196 0.000000 
-0.309354 -6.831414 0.000000 
-0.159837 -6.856753 0.000000 
-0.092932 -6.857263 0.000000 
-0.007576 -6.856317 0.000000 
-0.016455 -6.852694 0.000000 
-0.011476 -6.858480 0.000000 
-0.009740 -6.862038 0.000000 
-0.003720 -6.868037 0.000000 
-0.002509 -6.869197 0.000000 
0.000000 -6.864601 0.000000 
0.002584 -6.856170 0.000000 
0.000000 -6.855252 0.000000 
-0.002584 -6.856170 0.000000 
-0.020243 -6.951063 0.000000 
-0.008350 -6.931339 0.000000 
0.000000 -6.973799 0.000000 
0.008350 -6.931339 0.000000 
0.020243 -6.951063 0.000000 
0.076002 -6.627059 0.000000 
-0.000862 -6.804038 0.000000 
0.069187 -6.211230 0.000000 
-0.000000 -6.639386 0.000000 
-0.069187 -6.211230 0.000000 
0.000862 -6.804038 0.000000 
-0.076002 -6.627059 0.000000 
0.365847 -6.264718 0.000000 
0.286026 -6.002144 0.000000 
0.549523 -7.849470 0.000000 
0.182714 -5.281384 0.000000 
-0.000000 -13.490286 0.000000 
-0.182714 -5.281384 0.000000 
-0.549523 -7.849470 0.000000 
-0.286026 -6.002144 0.000000 
-0.365847 -6.264718 0.000000 
0.000683 -6.867784 0.000000 
0.002925 -6.865144 0.000000 
0.003059 -6.862374 0.000000 
0.005285 -6.855184 0.000000 
0.005023 -6.864738 0.000000 
0.006192 -6.861560 0.000000 
0.007258 -6.859259 0.000000 
0.002900 -6.867680 0.000000 
-0.008564 -6.900912 0.000000 
0.003841 -6.867196 0.000000 
0.005973 -6.864013 0.000000 
0.006497 -6.861231 0.000000 
0.003538 -6.859870 0.000000 
-0.002376 -6.860202 0.000000 
-0.011672 -6.889185 0.000000 
0.015349 -6.859210 0.000000 
0.002509 -6.869197 0.000000 
0.003720 -6.868037 0.000000 
0.009740 -6.862038 0.000000 
0.011476 -6.858480 0.000000 
0.016455 -6.852694 0.000000 
0.007576 -6.856317 0.000000 
0.092932 -6.857263 0.000000 
0.159837 -6.856753 0.000000 
0.309354 -6.831414 0.000000 
-0.000156 -6.872356 0.000000 
-0.000089 -6.871855 0.000000 
-0.000184 -6.872131 0.000000 
-0.000055 -6.871746 0.000000 
0.000062 -6.871569 0.000000 
-0.000049 -6.871702 0.000000 
-0.000075 -6.871697 0.000000 
-0.000244 -6.871873 0.000000 
0.001327 -6.869776 0.000000 
0.000041 -6.871632 0.000000 
0.000063 -6.871590 0.000000 
0.000070 -6.871578 0.000000 
0.000053 -6.871566 0.000000 
0.000146 -6.871444 0.000000 
0.000477 -6.871017 0.000000 
0.001667 -6.869766 0.000000 
0.000012 -6.871687 0.000000 
0.000031 -6.871656 0.000000 
0.000059 -6.871618 0.000000 
0.000082 -6.871583 0.000000 
0.000171 -6.871470 0.000000 
0.000231 -6.871374 0.000000 
0.000340 -6.871254 0.000000 
0.000942 -6.870666 0.000000 
0.001431 -6.870214 0.000000 
-0.000045 -6.872105 0.000000 
0.000007 -6.871564 0.000000 
-0.000022 -6.871736 0.000000 
-0.000009 -6.871670 0.000000 
0.000001 -6.871677 0.000000 
0.000008 -6.871633 0.000000 
0.000012 -6.871651 0.000000 
0.000031 -6.871594 0.000000 
0.000042 -6.871599 0.000000 
-0.000000 -6.871709 0.000000 
-0.000000 -6.871710 0.000000 
-0.000000 -6.871709 0.000000 
-0.000001 -6.871710 0.000000 
-0.000001 -6.871709 0.000000 
0.000020 -6.871664 0.000000 
0.000020 -6.871668 0.000000 
0.000000 -6.871708 0.000000 
0.000000 -6.871708 0.000000 
0.000000 -6.871707 0.000000 
0.000000 -6.871708 0.000000 
0.000000 -6.871707 0.000000 
-0.000000 -6.871708 0.000000 
0.000000 -6.871707 0.000000 
-0.000000 -6.871707 0.000000 
0.000001 -6.871705 0.000000 
TENSORS STRESS float 
-0.000901 0.000189 0.000000 
0.000000 -0.004236 0.000000 
0.000000 0.000000 0.000000 

-0.001906 0.000814 0.000000 
0.000000 -0.004852 0.000000 
0.000000 0.000000 0.000000 

-0.002011 0.000482 0.000000 
0.000000 -0.005524 0.000000 
0.000000 0.000000 0.000000 

-0.000006 -0.000005 0.000000 
0.000000 0.000039 0.000000 
0.000000 0.000000 0.000000 

0.000015 -0.000044 0.000000 
0.000000 -0.000019 0.000000 
0.000000 0.000000 0.000000 

0.000033 -0.000053 0.000000 
0.000000 0.000020 0.000000 
0.000000 0.000000 0.000000 

0.000028 -0.000029 0.000000 
0.000000 0.000031 0.000000 
0.000000 0.000000 0.000000 

0.000013 -0.000010 0.000000 
0.000000 0.000050 0.000000 
0.000000 0.000000 0.000000 

0.000024 -0.000005 0.000000 
0.000000 0.000053 0.000000 
0.000000 0.000000 0.000000 

-0.000001 -0.000005 0.000000 
0.000000 -0.000073 0.000000 
0.000000 0.000000 0.000000 

-0.000007 -0.000015 0.000000 
0.000000 -0.000049 0.000000 
0.000000 0.000000 0.000000 

-0.000007 0.000009 0.000000 
0.000000 -0.000030 0.000000 
0.000000 0.000000 0.000000 

-0.000008 0.000008 0.000000 
0.000000 -0.000034 0.000000 
0.000000 0.000000 0.000000 

-0.000010 0.000006 0.000000 
0.000000 -0.000034 0.000000 
0.000000 0.000000 0.000000 

-0.000008 0.000002 0.000000 
0.000000 -0.000036 0.000000 
0.000000 0.000000 0.000000 

-0.000011 0.000001 0.000000 
0.000000 -0.000036 0.000000 
0.000000 0.000000 0.000000 

-0.000008 0.000008 0.000000 
0.000000 -0.000034 0.000000 
0.000000 0.000000 0.000000 

-0.000007 0.000007 0.000000 
0.000000 -0.000033 0.000000 
0.000000 0.000000 0.000000 

-0.000010 0.000007 0.000000 
0.000000 -0.000033 0.000000 
0.000000 0.000000 0.000000 

-0.000010 0.000009 0.000000 
0.000000 -0.000032 0.000000 
0.000000 0.000000 0.000000 

-0.000013 0.000007 0.000000 
0.000000 -0.000033 0.000000 
0.000000 0.000000 0.000000 

-0.000014 0.000006 0.000000 
0.000000 -0.000037 0.000000 
0.000000 0.000000 0.000000 

0.000000 -0.000000 0.000000 
0.000000 0.000001 0.000000 
0.000000 0.000000 0.000000 

-0.000016 0.000002 0.000000 
0.000000 -0.000039 0.000000 
0.000000 0.000000 0.000000 

0.000000 -0.000000 0.000000 
0.000000 0.000001 0.000000 
0.000000 0.000000 0.000000 

-0.000384 0.000425 0.000000 
0.000000 -0.004014 0.000000 
0.000000 0.000000 0.000000 

0.002109 0.001304 0.000000 
0.000000 0.002156 0.000000 
0.000000 0.000000 0.000000 

-0.001172 0.001505 0.000000 
0.000000 -0.004791 0.000000 
0.000000 0.000000 0.000000 

-0.001397 0.001214 0.000000 
0.000000 -0.004369 0.000000 
0.000000 0.000000 0.000000 

-0.004422 0.004524 0.000000 
0.000000 -0.010206 0.000000 
0.000000 0.000000 0.000000 

-0.000523 0.002108 0.000000 
0.000000 -0.003568 0.000000 
0.000000 0.000000 0.000000 

-0.001763 0.001784 0.000000 
0.000000 -0.003608 0.000000 
0.000000 0.000000 0.000000 

-0.001351 0.001543 0.000000 
0.000000 -0.004075 0.000000 
0.000000 0.000000 0.000000 

-0.001450 0.001146 0.000000 
0.000000 -0.003511 0.000000 
0.000000 0.000000 0.000000 

-0.004083 0.005620 0.000000 
0.000000 -0.010232 0.000000 
0.000000 0.000000 0.000000 

-0.004896 0.005445 0.000000 
0.000000 -0.010752 0.000000 
0.000000 0.000000 0.000000 

-0.001342 0.001694 0.000000 
0.000000 -0.002440 0.000000 
0.000000 0.000000 0.000000 

-0.001463 0.001626 0.000000 
0.000000 -0.003003 0.000000 
0.000000 0.000000 0.000000 

-0.001066 0.001151 0.000000 
0.000000 -0.002515 0.000000 
0.000000 0.000000 0.000000 

0.000053 -0.000033 0.000000 
0.000000 -0.000066 0.000000 
0.000000 0.000000 0.000000 

0.000018 -0.000009 0.000000 
0.000000 -0.000085 0.000000 
0.000000 0.000000 0.000000 

-0.005590 0.005906 0.000000 
0.000000 -0.008656 0.000000 
0.000000 0.000000 0.000000 

-0.005272 0.005667 0.000000 
0.000000 -0.009621 0.000000 
0.000000 0.000000 0.000000 

-0.001131 0.001186 0.000000 
0.000000 -0.001764 0.000000 
0.000000 0.000000 0.000000 

-0.001110 0.001190 0.000000 
0.000000 -0.001999 0.000000 
0.000000 0.000000 0.000000 

-0.000777 0.000900 0.000000 
0.000000 -0.001670 0.000000 
0.000000 0.000000 0.000000 

-0.000731 0.000872 0.000000 
0.000000 -0.001860 0.000000 
0.000000 0.000000 0.000000 

0.000013 0.000006 0.000000 
0.000000 -0.000141 0.000000 
0.000000 0.000000 0.000000 

-0.000013 0.000023 0.000000 
0.000000 -0.000141 0.000000 
0.000000 0.000000 0.000000 

-0.000046 0.000045 0.000000 
0.000000 -0.000158 0.000000 
0.000000 0.000000 0.000000 

0.007691 -0.001079 0.000000 
0.000000 0.016899 0.000000 
0.000000 0.000000 0.000000 

0.015118 -0.014049 0.000000 
0.000000 0.018750 0.000000 
0.000000 0.000000 0.000000 

0.012883 -0.009183 0.000000 
0.000000 0.018374 0.000000 
0.000000 0.000000 0.000000 

0.006881 -0.005096 0.000000 
0.000000 0.007078 0.000000 
0.000000 0.000000 0.000000 

-0.163935 0.197118 0.000000 
0.000000 -0.407729 0.000000 
0.000000 0.000000 0.000000 

-0.160062 0.113638 0.000000 
0.000000 -0.398211 0.000000 
0.000000 0.000000 0.000000 

-0.072302 0.087612 0.000000 
0.000000 -0.191425 0.000000 
0.000000 0.000000 0.000000 

0.005444 -0.008280 0.000000 
0.000000 -0.001893 0.000000 
0.000000 0.000000 0.000000 

-0.003318 0.004333 0.000000 
0.000000 -0.009717 0.000000 
0.000000 0.000000 0.000000 

0.024992 0.562124 0.000000 
0.000000 0.060874 0.000000 
0.000000 0.000000 0.000000 

-0.092607 0.286484 0.000000 
0.000000 -0.243575 0.000000 
0.000000 0.000000 0.000000 

-0.124122 0.117831 0.000000 
0.000000 -0.140660 0.000000 
0.000000 0.000000 0.000000 

-0.086604 0.100103 0.000000 
0.000000 -0.127169 0.000000 
0.000000 0.000000 0.000000 

-0.055355 0.066640 0.000000 
0.000000 -0.080093 0.000000 
0.000000 0.000000 0.000000 

-0.002614 0.005056 0.000000 
0.000000 -0.009753 0.000000 
0.000000 0.000000 0.000000 

-0.002964 0.005427 0.000000 
0.000000 -0.009737 0.000000 
0.000000 0.000000 0.000000 

-0.426284 -0.319783 0.000000 
0.000000 -0.716866 0.000000 
0.000000 0.000000 0.000000 

-0.595521 0.588315 0.000000 
0.000000 -0.807814 0.000000 
0.000000 0.000000 0.000000 

-0.443729 0.444580 0.000000 
0.000000 -0.498553 0.000000 
0.000000 0.000000 0.000000 

-0.226155 0.250348 0.000000 
0.000000 -0.296959 0.000000 
0.000000 0.000000 0.000000 

-0.117726 0.084840 0.000000 
0.000000 -0.077476 0.000000 
0.000000 0.000000 0.000000 

-0.076208 0.064343 0.000000 
0.000000 -0.061143 0.000000 
0.000000 0.000000 0.000000 

-0.020429 0.022521 0.000000 
0.000000 -0.022714 0.000000 
0.000000 0.000000 0.000000 

-0.011316 0.018404 0.000000 
0.000000 -0.017678 0.000000 
0.000000 0.000000 0.000000 

-0.007263 0.007356 0.000000 
0.000000 -0.009784 0.000000 
0.000000 0.000000 0.000000 

0.006782 -0.000000 0.000000 
0.000000 0.016509 0.000000 
0.000000 0.000000 0.000000 

-0.203824 -0.031374 0.000000 
0.000000 -0.476643 0.000000 
0.000000 0.000000 0.000000 

0.004980 -0.000000 0.000000 
0.000000 0.018605 0.000000 
0.000000 0.000000 0.000000 

-0.203824 0.031374 0.000000 
0.000000 -0.476643 0.000000 
0.000000 0.000000 0.000000 

-0.235594 -0.242837 0.000000 
0.000000 -0.575731 0.000000 
0.000000 0.000000 0.000000 

-0.138093 -0.050650 0.000000 
0.000000 -0.583259 0.000000 
0.000000 0.000000 0.000000 

-0.056147 -0.000000 0.000000 
0.000000 -0.512598 0.000000 
0.000000 0.000000 0.000000 

-0.138093 0.050650 0.000000 
0.000000 -0.583259 0.000000 
0.000000 0.000000 0.000000 

-0.235594 0.242837 0.000000 
0.000000 -0.575731 0.000000 
0.000000 0.000000 0.000000 

0.355075 -0.374261 0.000000 
0.000000 0.908425 0.000000 
0.000000 0.000000 0.000000 

0.706983 -0.630124 0.000000 
0.000000 1.664791 0.000000 
0.000000 0.000000 0.000000 

1.718301 -0.294993 0.000000 
0.000000 2.182994 0.000000 
0.000000 0.000000 0.000000 

1.427923 -0.000000 0.000000 
0.000000 2.133660 0.000000 
0.000000 0.000000 0.000000 

1.718301 0.294993 0.000000 
0.000000 2.182994 0.000000 
0.000000 0.000000 0.000000 

0.706983 0.630124 0.000000 
0.000000 1.664791 0.000000 
0.000000 0.000000 0.000000 

0.355075 0.374261 0.000000 
0.000000 0.908425 0.000000 
0.000000 0.000000 0.000000 

-0.093632 0.512307 0.000000 
0.000000 0.138007 0.000000 
0.000000 0.000000 0.000000 

0.243921 0.289797 0.000000 
0.000000 0.871275 0.000000 
0.000000 0.000000 0.000000 

-18.167929 0.871162 0.000000 
0.000000 -42.096557 0.000000 
0.000000 0.000000 0.000000 

2.670636 -0.315806 0.000000 
0.000000 2.688636 0.000000 
0.000000 0.000000 0.000000 

-28.740492 -0.000000 0.000000 
0.000000 -70.473197 0.000000 
0.000000 0.000000 0.000000 

2.670636 0.315806 0.000000 
0.000000 2.688636 0.000000 
0.000000 0.000000 0.000000 

-18.167929 -0.871162 0.000000 
0.000000 -42.096556 0.000000 
0.000000 0.000000 0.000000 

0.243921 -0.289797 0.000000 
0.000000 0.871275 0.000000 
0.000000 0.000000 0.000000 

-0.093632 -0.512307 0.000000 
0.000000 0.138007 0.000000 
0.000000 0.000000 0.000000 

0.007691 0.001079 0.000000 
0.000000 0.016899 0.000000 
0.000000 0.000000 0.000000 

0.006881 0.005096 0.000000 
0.000000 0.007078 0.000000 
0.000000 0.000000 0.000000 

0.012883 0.009183 0.000000 
0.000000 0.018374 0.000000 
0.000000 0.000000 0.000000 

0.015118 0.014049 0.000000 
0.000000 0.018750 0.000000 
0.000000 0.000000 0.000000 

-0.003318 -0.004333 0.000000 
0.000000 -0.009717 0.000000 
0.000000 0.000000 0.000000 

0.005444 0.008280 0.000000 
0.000000 -0.001893 0.000000 
0.000000 0.000000 0.000000 

-0.072302 -0.087612 0.000000 
0.000000 -0.191425 0.000000 
0.000000 0.000000 0.000000 

-0.160062 -0.113638 0.000000 
0.000000 -0.398211 0.000000 
0.000000 0.000000 0.000000 

-0.163935 -0.197118 0.000000 
0.000000 -0.407729 0.000000 
0.000000 0.000000 0.000000 

-0.002964 -0.005427 0.000000 
0.000000 -0.009737 0.000000 
0.000000 0.000000 0.000000 

-0.002614 -0.005056 0.000000 
0.000000 -0.009753 0.000000 
0.000000 0.000000 0.000000 

-0.055355 -0.066640 0.000000 
0.000000 -0.080093 0.000000 
0.000000 0.000000 0.000000 

-0.086604 -0.100103 0.000000 
0.000000 -0.127169 0.000000 
0.000000 0.000000 0.000000 

-0.124122 -0.117831 0.000000 
0.000000 -0.140660 0.000000 
0.000000 0.000000 0.000000 

-0.092607 -0.286484 0.000000 
0.000000 -0.243575 0.000000 
0.000000 0.000000 0.000000 

0.024992 -0.562124 0.000000 
0.000000 0.060874 0.000000 
0.000000 0.000000 0.000000 

-0.007263 -0.007356 0.000000 
0.000000 -0.009784 0.000000 
0.000000 0.000000 0.000000 

-0.011316 -0.018404 0.000000 
0.000000 -0.017678 0.000000 
0.000000 0.000000 0.000000 

-0.020429 -0.022521 0.000000 
0.000000 -0.022714 0.000000 
0.000000 0.000000 0.000000 

-0.076208 -0.064343 0.000000 
0.000000 -0.061143 0.000000 
0.000000 0.000000 0.000000 

-0.117726 -0.084840 0.000000 
0.000000 -0.077476 0.000000 
0.000000 0.000000 0.000000 

-0.226155 -0.250348 0.000000 
0.000000 -0.296959 0.000000 
0.000000 0.000000 0.000000 

-0.443729 -0.444580 0.000000 
0.000000 -0.498553 0.000000 
0.000000 0.000000 0.000000 

-0.595521 -0.588315 0.000000 
0.000000 -0.807814 0.000000 
0.000000 0.000000 0.000000 

-0.426284 0.319783 0.000000 
0.000000 -0.716866 0.000000 
0.000000 0.000000 0.000000 

-0.000384 -0.000425 0.000000 
0.000000 -0.004014 0.000000 
0.000000 0.000000 0.000000 

-0.001397 -0.001214 0.000000 
0.000000 -0.004369 0.000000 
0.000000 0.000000 0.000000 

-0.001172 -0.001505 0.000000 
0.000000 -0.004791 0.000000 
0.000000 0.000000 0.000000 

0.002109 -0.001304 0.000000 
0.000000 0.002156 0.000000 
0.000000 0.000000 0.000000 

-0.001450 -0.001146 0.000000 
0.000000 -0.003511 0.000000 
0.000000 0.000000 0.000000 

-0.001351 -0.001543 0.000000 
0.000000 -0.004075 0.000000 
0.000000 0.000000 0.000000 

-0.001763 -0.001784 0.000000 
0.000000 -0.003608 0.000000 
0.000000 0.000000 0.000000 

-0.000523 -0.002108 0.000000 
0.000000 -0.003568 0.000000 
0.000000 0.000000 0.000000 

-0.004422 -0.004524 0.000000 
0.000000 -0.010206 0.000000 
0.000000 0.000000 0.000000 

0.000018 0.000009 0.000000 
0.000000 -0.000085 0.000000 
0.000000 0.000000 0.000000 

0.000053 0.000033 0.000000 
0.000000 -0.000066 0.000000 
0.000000 0.000000 0.000000 

-0.001066 -0.001151 0.000000 
0.000000 -0.002515 0.000000 
0.000000 0.000000 0.000000 

-0.001463 -0.001626 0.000000 
0.000000 -0.003003 0.000000 
0.000000 0.000000 0.000000 

-0.001342 -0.001694 0.000000 
0.000000 -0.002440 0.000000 
0.000000 0.000000 0.000000 

-0.004896 -0.005445 0.000000 
0.000000 -0.010752 0.000000 
0.000000 0.000000 0.000000 

-0.004083 -0.005620 0.000000 
0.000000 -0.010232 0.000000 
0.000000 0.000000 0.000000 

-0.000046 -0.000045 0.000000 
0.000000 -0.000158 0.000000 
0.000000 0.000000 0.000000 

-0.000013 -0.000023 0.000000 
0.000000 -0.000141 0.000000 
0.000000 0.000000 0.000000 

0.000013 -0.000006 0.000000 
0.000000 -0.000141 0.000000 
0.000000 0.000000 0.000000 

-0.000731 -0.000872 0.000000 
0.000000 -0.001860 0.000000 
0.000000 0.000000 0.000000 

-0.000777 -0.000900 0.000000 
0.000000 -0.001670 0.000000 
0.000000 0.000000 0.000000 

-0.001110 -0.001190 0.000000 
0.000000 -0.001999 0.000000 
0.000000 0.000000 0.000000 

-0.001131 -0.001186 0.000000 
0.000000 -0.001764 0.000000 
0.000000 0.000000 0.000000 

-0.005272 -0.005667 0.000000 
0.000000 -0.009621 0.000000 
0.000000 0.000000 0.000000 

-0.005590 -0.005906 0.000000 
0.000000 -0.008656 0.000000 
0.000000 0.000000 0.000000 

-0.000901 -0.000189 0.000000 
0.000000 -0.004236 0.000000 
0.000000 0.000000 0.000000 

-0.000006 0.000005 0.000000 
0.000000 0.000039 0.000000 
0.000000 0.000000 0.000000 

-0.002011 -0.000482 0.000000 
0.000000 -0.005524 0.000000 
0.000000 0.000000 0.000000 

-0.001906 -0.000814 0.000000 
0.000000 -0.004852 0.000000 
0.000000 0.000000 0.000000 

0.000024 0.000005 0.000000 
0.000000 0.000053 0.000000 
0.000000 0.000000 0.000000 

0.000013 0.000010 0.000000 
0.000000 0.000050 0.000000 
0.000000 0.000000 0.000000 

0.000028 0.000029 0.000000 
0.000000 0.000031 0.000000 
0.000000 0.000000 0.000000 

0.000033 0.000053 0.000000 
0.000000 0.000020 0.000000 
0.000000 0.000000 0.000000 

0.000015 0.000044 0.000000 
0.000000 -0.000019 0.000000 
0.000000 0.000000 0.000000 

-0.000011 -0.000001 0.000000 
0.000000 -0.000036 0.000000 
0.000000 0.000000 0.000000 

-0.000008 -0.000002 0.000000 
0.000000 -0.000036 0.000000 
0.000000 0.000000 0.000000 

-0.000010 -0.000006 0.000000 
0.000000 -0.000034 0.000000 
0.000000 0.000000 0.000000 

-0.000008 -0.000008 0.000000 
0.000000 -0.000034 0.000000 
0.000000 0.000000 0.000000 

-0.000007 -0.000009 0.000000 
0.000000 -0.000030 0.000000 
0.000000 0.000000 0.000000 

-0.000007 0.000015 0.000000 
0.000000 -0.000049 0.000000 
0.000000 0.000000 0.000000 

-0.000001 0.000005 0.000000 
0.000000 -0.000073 0.000000 
0.000000 0.000000 0.000000 

0.000000 0.000000 0.000000 
0.000000 0.000001 0.000000 
0.000000 0.000000 0.000000 

-0.000016 -0.000002 0.000000 
0.000000 -0.000039 0.000000 
0.000000 0.000000 0.000000 

0.000000 0.000000 0.000000 
0.000000 0.000001 0.000000 
0.000000 0.000000 0.000000 

-0.000014 -0.000006 0.000000 
0.000000 -0.000037 0.000000 
0.000000 0.000000 0.000000 

-0.000013 -0.000007 0.000000 
0.000000 -0.000033 0.000000 
0.000000 0.000000 0.000000 

-0.000010 -0.000009 0.000000 
0.000000 -0.000032 0.000000 
0.000000 0.000000 0.000000 

-0.000010 -0.000007 0.000000 
0.000000 -0.000033 0.000000 
0.000000 0.000000 0.000000 

-0.000007 -0.000007 0.000000 
0.000000 -0.000033 0.000000 
0.000000 0.000000 0.000000 

-0.000008 -0.000008 0.000000 
0.000000 -0.000034 0.000000 
0.000000 0.000000 0.000000 

TENSORS STRAIN float 
0.000002 0.000001 0.000000 
0.000000 -0.000009 0.000000 
0.000000 0.000000 0.000000 

0.000000 0.000002 0.000000 
0.000000 -0.000008 0.000000 
0.000000 0.000000 0.000000 

0.000001 0.000001 0.000000 
0.000000 -0.000009 0.000000 
0.000000 0.000000 0.000000 

-0.000000 -0.000000 0.000000 
0.000000 0.000000 0.000000 
0.000000 0.000000 0.000000 

0.000000 -0.000000 0.000000 
0.000000 -0.000000 0.000000 
0.000000 0.000000 0.000000 

0.000000 -0.000000 0.000000 
0.000000 0.000000 0.000000 
0.000000 0.000000 0.000000 

0.000000 -0.000000 0.000000 
0.000000 0.000000 0.000000 
0.000000 0.000000 0.000000 

-0.000000 -0.000000 0.000000 
0.000000 0.000000 0.000000 
0.000000 0.000000 0.000000 

0.000000 -0.000000 0.000000 
0.000000 0.000000 0.000000 
0.000000 0.000000 0.000000 

0.000000 -0.000000 0.000000 
0.000000 -0.000000 0.000000 
0.000000 0.000000 0.000000 

0.000000 -0.000000 0.000000 
0.000000 -0.000000 0.000000 
0.000000 0.000000 0.000000 

0.000000 0.000000 0.000000 
0.000000 -0.000000 0.000000 
0.000000 0.000000 0.000000 

0.000000 0.000000 0.000000 
0.000000 -0.000000 0.000000 
0.000000 0.000000 0.000000 

0.000000 0.000000 0.000000 
0.000000 -0.000000 0.000000 
0.000000 0.000000 0.000000 

0.000000 0.000000 0.000000 
0.000000 -0.000000 0.000000 
0.000000 0.000000 0.000000 

0.000000 0.000000 0.000000 
0.000000 -0.000000 0.000000 
0.000000 0.000000 0.000000 

0.000000 0.000000 0.000000 
0.000000 -0.000000 0.000000 
0.000000 0.000000 0.000000 

0.000000 0.000000 0.000000 
0.000000 -0.000000 0.000000 
0.000000 0.000000 0.000000 

0.000000 0.000000 0.000000 
0.000000 -0.000000 0.000000 
0.000000 0.000000 0.000000 

0.000000 0.000000 0.000000 
0.000000 -0.000000 0.000000 
0.000000 0.000000 0.000000 

0.000000 0.000000 0.000000 
0.000000 -0.000000 0.000000 
0.000000 0.000000 0.000000 

0.000000 0.000000 0.000000 
0.000000 -0.000000 0.000000 
0.000000 0.000000 0.000000 

0.000000 -0.000000 0.000000 
0.000000 0.000000 0.000000 
0.000000 0.000000 0.000000 

0.000000 0.000000 0.000000 
0.000000 -0.000000 0.000000 
0.000000 0.000000 0.000000 

0.000000 -0.000000 0.000000 
0.000000 0.000000 0.000000 
0.000000 0.000000 0.000000 

0.000003 0.000001 0.000000 
0.000000 -0.000009 0.000000 
0.000000 0.000000 0.000000 

0.000002 0.000004 0.000000 
0.000000 0.000003 0.000000 
0.000000 0.000000 0.000000 

0.000002 0.000004 0.000000 
0.000000 -0.000008 0.000000 
0.000000 0.000000 0.000000 

0.000001 0.000004 0.000000 
0.000000 -0.000008 0.000000 
0.000000 0.000000 0.000000 

-0.000000 0.000013 0.000000 
0.000000 -0.000017 0.000000 
0.000000 0.000000 0.000000 

0.000002 0.000006 0.000000 
0.000000 -0.000007 0.000000 
0.000000 0.000000 0.000000 

-0.000000 0.000005 0.000000 
0.000000 -0.000006 0.000000 
0.000000 0.000000 0.000000 

0.000001 0.000004 0.000000 
0.000000 -0.000007 0.000000 
0.000000 0.000000 0.000000 

0.000000 0.000003 0.000000 
0.000000 -0.000006 0.000000 
0.000000 0.000000 0.000000 

0.000001 0.000016 0.000000 
0.000000 -0.000017 0.000000 
0.000000 0.000000 0.000000 

-0.000001 0.000016 0.000000 
0.000000 -0.000017 0.000000 
0.000000 0.000000 0.000000 

-0.000001 0.000005 0.000000 
0.000000 -0.000004 0.000000 
0.000000 0.000000 0.000000 

-0.000000 0.000005 0.000000 
0.000000 -0.000005 0.000000 
0.000000 0.000000 0.000000 

0.000000 0.000003 0.000000 
0.000000 -0.000004 0.000000 
0.000000 0.000000 0.000000 

0.000000 -0.000000 0.000000 
0.000000 -0.000000 0.000000 
0.000000 0.000000 0.000000 

0.000000 -0.000000 0.000000 
0.000000 -0.000000 0.000000 
0.000000 0.000000 0.000000 

-0.000004 0.000017 0.000000 
0.000000 -0.000013 0.000000 
0.000000 0.000000 0.000000 

-0.000002 0.000016 0.000000 
0.000000 -0.000015 0.000000 
0.000000 0.000000 0.000000 

-0.000001 0.000003 0.000000 
0.000000 -0.000003 0.000000 
0.000000 0.000000 0.000000 

-0.000000 0.000003 0.000000 
0.000000 -0.000003 0.000000 
0.000000 0.000000 0.000000 

-0.000000 0.000003 0.000000 
0.000000 -0.000003 0.000000 
0.000000 0.000000 0.000000 

0.000000 0.000002 0.000000 
0.000000 -0.000003 0.000000 
0.000000 0.000000 0.000000 

0.000000 0.000000 0.000000 
0.000000 -0.000000 0.000000 
0.000000 0.000000 0.000000 

0.000000 0.000000 0.000000 
0.000000 -0.000000 0.000000 
0.000000 0.000000 0.000000 

0.000000 0.000000 0.000000 
0.000000 -0.000000 0.000000 
0.000000 0.000000 0.000000 

0.000001 -0.000004 0.000000 
0.000000 0.000032 0.000000 
0.000000 0.000000 0.000000 

0.000015 -0.000042 0.000000 
0.000000 0.000026 0.000000 
0.000000 0.000000 0.000000 

0.000010 -0.000025 0.000000 
0.000000 0.000025 0.000000 
0.000000 0.000000 0.000000 

0.000008 -0.000015 0.000000 
0.000000 0.000009 0.000000 
0.000000 0.000000 0.000000 

0.000022 0.000582 0.000000 
0.000000 -0.000697 0.000000 
0.000000 0.000000 0.000000 

0.000021 0.000321 0.000000 
0.000000 -0.000652 0.000000 
0.000000 0.000000 0.000000 

0.000021 0.000265 0.000000 
0.000000 -0.000340 0.000000 
0.000000 0.000000 0.000000 

0.000012 -0.000023 0.000000 
0.000000 -0.000008 0.000000 
0.000000 0.000000 0.000000 

0.000002 0.000013 0.000000 
0.000000 -0.000017 0.000000 
0.000000 0.000000 0.000000 

-0.000002 0.001647 0.000000 
0.000000 0.000103 0.000000 
0.000000 0.000000 0.000000 

0.000024 0.000819 0.000000 
0.000000 -0.000408 0.000000 
0.000000 0.000000 0.000000 

-0.000134 0.000352 0.000000 
0.000000 -0.000183 0.000000 
0.000000 0.000000 0.000000 

-0.000064 0.000284 0.000000 
0.000000 -0.000179 0.000000 
0.000000 0.000000 0.000000 

-0.000044 0.000199 0.000000 
0.000000 -0.000118 0.000000 
0.000000 0.000000 0.000000 

0.000003 0.000014 0.000000 
0.000000 -0.000017 0.000000 
0.000000 0.000000 0.000000 

0.000002 0.000016 0.000000 
0.000000 -0.000017 0.000000 
0.000000 0.000000 0.000000 

-0.000243 -0.000933 0.000000 
0.000000 -0.001090 0.000000 
0.000000 0.000000 0.000000 

-0.000496 0.001673 0.000000 
0.000000 -0.001100 0.000000 
0.000000 0.000000 0.000000 

-0.000470 0.001296 0.000000 
0.000000 -0.000629 0.000000 
0.000000 0.000000 0.000000 

-0.000194 0.000702 0.000000 
0.000000 -0.000393 0.000000 
0.000000 0.000000 0.000000 

-0.000172 0.000247 0.000000 
0.000000 -0.000055 0.000000 
0.000000 0.000000 0.000000 

-0.000098 0.000180 0.000000 
0.000000 -0.000056 0.000000 
0.000000 0.000000 0.000000 

-0.000022 0.000066 0.000000 
0.000000 -0.000028 0.000000 
0.000000 0.000000 0.000000 

-0.000007 0.000052 0.000000 
0.000000 -0.000025 0.000000 
0.000000 0.000000 0.000000 

-0.000006 0.000021 0.000000 
0.000000 -0.000014 0.000000 
0.000000 0.000000 0.000000 

-0.000001 -0.000000 0.000000 
0.000000 0.000032 0.000000 
0.000000 0.000000 0.000000 

0.000001 -0.000094 0.000000 
0.000000 -0.000820 0.000000 
0.000000 0.000000 0.000000 

-0.000006 -0.000000 0.000000 
0.000000 0.000032 0.000000 
0.000000 0.000000 0.000000 

0.000001 0.000094 0.000000 
0.000000 -0.000820 0.000000 
0.000000 0.000000 0.000000 

0.000023 -0.000717 0.000000 
0.000000 -0.000981 0.000000 
0.000000 0.000000 0.000000 

0.000221 -0.000143 0.000000 
0.000000 -0.001036 0.000000 
0.000000 0.000000 0.000000 

0.000347 -0.000000 0.000000 
0.000000 -0.001036 0.000000 
0.000000 0.000000 0.000000 

0.000221 0.000143 0.000000 
0.000000 -0.001036 0.000000 
0.000000 0.000000 0.000000 

0.000023 0.000717 0.000000 
0.000000 -0.000981 0.000000 
0.000000 0.000000 0.000000 

-0.000070 -0.001095 0.000000 
0.000000 0.001549 0.000000 
0.000000 0.000000 0.000000 

-0.000013 -0.001795 0.000000 
0.000000 0.002716 0.000000 
0.000000 0.000000 0.000000 

0.001630 -0.000878 0.000000 
0.000000 0.003013 0.000000 
0.000000 0.000000 0.000000 

0.001017 -0.000000 0.000000 
0.000000 0.003013 0.000000 
0.000000 0.000000 0.000000 

0.001630 0.000878 0.000000 
0.000000 0.003013 0.000000 
0.000000 0.000000 0.000000 

-0.000013 0.001795 0.000000 
0.000000 0.002716 0.000000 
0.000000 0.000000 0.000000 

-0.000070 0.001095 0.000000 
0.000000 0.001549 0.000000 
0.000000 0.000000 0.000000 

-0.000311 0.001492 0.000000 
0.000000 0.000363 0.000000 
0.000000 0.000000 0.000000 

-0.000257 0.000822 0.000000 
0.000000 0.001522 0.000000 
0.000000 0.000000 0.000000 

-0.000278 0.002737 0.000000 
0.000000 -0.075458 0.000000 
0.000000 0.000000 0.000000 

0.002963 -0.000880 0.000000 
0.000000 0.003013 0.000000 
0.000000 0.000000 0.000000 

0.003402 -0.000000 0.000000 
0.000000 -0.135303 0.000000 
0.000000 0.000000 0.000000 

0.002963 0.000880 0.000000 
0.000000 0.003013 0.000000 
0.000000 0.000000 0.000000 

-0.000278 -0.002737 0.000000 
0.000000 -0.075458 0.000000 
0.000000 0.000000 0.000000 

-0.000257 -0.000822 0.000000 
0.000000 0.001522 0.000000 
0.000000 0.000000 0.000000 

-0.000311 -0.001492 0.000000 
0.000000 0.000363 0.000000 
0.000000 0.000000 0.000000 

0.000001 0.000004 0.000000 
0.000000 0.000032 0.000000 
0.000000 0.000000 0.000000 

0.000008 0.000015 0.000000 
0.000000 0.000009 0.000000 
0.000000 0.000000 0.000000 

0.000010 0.000025 0.000000 
0.000000 0.000025 0.000000 
0.000000 0.000000 0.000000 

0.000015 0.000042 0.000000 
0.000000 0.000026 0.000000 
0.000000 0.000000 0.000000 

0.000002 -0.000013 0.000000 
0.000000 -0.000017 0.000000 
0.000000 0.000000 0.000000 

0.000012 0.000023 0.000000 
0.000000 -0.000008 0.000000 
0.000000 0.000000 0.000000 

0.000021 -0.000265 0.000000 
0.000000 -0.000340 0.000000 
0.000000 0.000000 0.000000 

0.000021 -0.000321 0.000000 
0.000000 -0.000652 0.000000 
0.000000 0.000000 0.000000 

0.000022 -0.000582 0.000000 
0.000000 -0.000697 0.000000 
0.000000 0.000000 0.000000 

0.000002 -0.000016 0.000000 
0.000000 -0.000017 0.000000 
0.000000 0.000000 0.000000 

0.000003 -0.000014 0.000000 
0.000000 -0.000017 0.000000 
0.000000 0.000000 0.000000 

-0.000044 -0.000199 0.000000 
0.000000 -0.000118 0.000000 
0.000000 0.000000 0.000000 

-0.000064 -0.000284 0.000000 
0.000000 -0.000179 0.000000 
0.000000 0.000000 0.000000 

-0.000134 -0.000352 0.000000 
0.000000 -0.000183 0.000000 
0.000000 0.000000 0.000000 

0.000024 -0.000819 0.000000 
0.000000 -0.000408 0.000000 
0.000000 0.000000 0.000000 

-0.000002 -0.001647 0.000000 
0.000000 0.000103 0.000000 
0.000000 0.000000 0.000000 

-0.000006 -0.000021 0.000000 
0.000000 -0.000014 0.000000 
0.000000 0.000000 0.000000 

-0.000007 -0.000052 0.000000 
0.000000 -0.000025 0.000000 
0.000000 0.000000 0.000000 

-0.000022 -0.000066 0.000000 
0.000000 -0.000028 0.000000 
0.000000 0.000000 0.000000 

-0.000098 -0.000180 0.000000 
0.000000 -0.000056 0.000000 
0.000000 0.000000 0.000000 

-0.000172 -0.000247 0.000000 
0.000000 -0.000055 0.000000 
0.000000 0.000000 0.000000 

-0.000194 -0.000702 0.000000 
0.000000 -0.000393 0.000000 
0.000000 0.000000 0.000000 

-0.000470 -0.001296 0.000000 
0.000000 -0.000629 0.000000 
0.000000 0.000000 0.000000 

-0.000496 -0.001673 0.000000 
0.000000 -0.001100 0.000000 
0.000000 0.000000 0.000000 

-0.000243 0.000933 0.000000 
0.000000 -0.001090 0.000000 
0.000000 0.000000 0.000000 

0.000003 -0.000001 0.000000 
0.000000 -0.000009 0.000000 
0.000000 0.000000 0.000000 

0.000001 -0.000004 0.000000 
0.000000 -0.000008 0.000000 
0.000000 0.000000 0.000000 

0.000002 -0.000004 0.000000 
0.000000 -0.000008 0.000000 
0.000000 0.000000 0.000000 

0.000002 -0.000004 0.000000 
0.000000 0.000003 0.000000 
0.000000 0.000000 0.000000 

0.000000 -0.000003 0.000000 
0.000000 -0.000006 0.000000 
0.000000 0.000000 0.000000 

0.000001 -0.000004 0.000000 
0.000000 -0.000007 0.000000 
0.000000 0.000000 0.000000 

-0.000000 -0.000005 0.000000 
0.000000 -0.000006 0.000000 
0.000000 0.000000 0.000000 

0.000002 -0.000006 0.000000 
0.000000 -0.000007 0.000000 
0.000000 0.000000 0.000000 

-0.000000 -0.000013 0.000000 
0.000000 -0.000017 0.000000 
0.000000 0.000000 0.000000 

0.000000 0.000000 0.000000 
0.000000 -0.000000 0.000000 
0.000000 0.000000 0.000000 

0.000000 0.000000 0.000000 
0.000000 -0.000000 0.000000 
0.000000 0.000000 0.000000 

0.000000 -0.000003 0.000000 
0.000000 -0.000004 0.000000 
0.000000 0.000000 0.000000 

-0.000000 -0.000005 0.000000 
0.000000 -0.000005 0.000000 
0.000000 0.000000 0.000000 

-0.000001 -0.000005 0.000000 
0.000000 -0.000004 0.000000 
0.000000 0.000000 0.000000 

-0.000001 -0.000016 0.000000 
0.000000 -0.000017 0.000000 
0.000000 0.000000 0.000000 

0.000001 -0.000016 0.000000 
0.000000 -0.000017 0.000000 
0.000000 0.000000 0.000000 

0.000000 -0.000000 0.000000 
0.000000 -0.000000 0.000000 
0.000000 0.000000 0.000000 

0.000000 -0.000000 0.000000 
0.000000 -0.000000 0.000000 
0.000000 0.000000 0.000000 

0.000000 -0.000000 0.000000 
0.000000 -0.000000 0.000000 
0.000000 0.000000 0.000000 

0.000000 -0.000002 0.000000 
0.000000 -0.000003 0.000000 
0.000000 0.000000 0.000000 

-0.000000 -0.000003 0.000000 
0.000000 -0.000003 0.000000 
0.000000 0.000000 0.000000 

-0.000000 -0.000003 0.000000 
0.000000 -0.000003 0.000000 
0.000000 0.000000 0.000000 

-0.000001 -0.000003 0.000000 
0.000000 -0.000003 0.000000 
0.000000 0.000000 0.000000 

-0.000002 -0.000016 0.000000 
0.000000 -0.000015 0.000000 
0.000000 0.000000 0.000000 

-0.000004 -0.000017 0.000000 
0.000000 -0.000013 0.000000 
0.000000 0.000000 0.000000 

0.000002 -0.000001 0.000000 
0.000000 -0.000009 0.000000 
0.000000 0.000000 0.000000 

-0.000000 0.000000 0.000000 
0.000000 0.000000 0.000000 
0.000000 0.000000 0.000000 

0.000001 -0.000001 0.000000 
0.000000 -0.000009 0.000000 
0.000000 0.000000 0.000000 

0.000000 -0.000002 0.000000 
0.000000 -0.000008 0.000000 
0.000000 0.000000 0.000000 

0.000000 0.000000 0.000000 
0.000000 0.000000 0.000000 
0.000000 0.000000 0.000000 

-0.000000 0.000000 0.000000 
0.000000 0.000000 0.000000 
0.000000 0.000000 0.000000 

0.000000 0.000000 0.000000 
0.000000 0.000000 0.000000 
0.000000 0.000000 0.000000 

0.000000 0.000000 0.000000 
0.000000 0.000000 0.000000 
0.000000 0.000000 0.000000 

0.000000 0.000000 0.000000 
0.000000 -0.000000 0.000000 
0.000000 0.000000 0.000000 

0.000000 -0.000000 0.000000 
0.000000 -0.000000 0.000000 
0.000000 0.000000 0.000000 

0.000000 -0.000000 0.000000 
0.000000 -0.000000 0.000000 
0.000000 0.000000 0.000000 

0.000000 -0.000000 0.000000 
0.000000 -0.000000 0.000000 
0.000000 0.000000 0.000000 

0.000000 -0.000000 0.000000 
0.000000 -0.000000 0.000000 
0.000000 0.000000 0.000000 

0.000000 -0.000000 0.000000 
0.000000 -0.000000 0.000000 
0.000000 0.000000 0.000000 

0.000000 0.000000 0.000000 
0.000000 -0.000000 0.000000 
0.000000 0.000000 0.000000 

0.000000 0.000000 0.000000 
0.000000 -0.000000 0.000000 
0.000000 0.000000 0.000000 

0.000000 0.000000 0.000000 
0.000000 0.000000 0.000000 
0.000000 0.000000 0.000000 

0.000000 -0.000000 0.000000 
0.000000 -0.000000 0.000000 
0.000000 0.000000 0.000000 

0.000000 0.000000 0.000000 
0.000000 0.000000 0.000000 
0.000000 0.000000 0.000000 

0.000000 -0.000000 0.000000 
0.000000 -0.000000 0.000000 
0.000000 0.000000 0.000000 

0.000000 -0.000000 0.000000 
0.000000 -0.000000 0.000000 
0.000000 0.000000 0.000000 

0.000000 -0.000000 0.000000 
0.000000 -0.000000 0.000000 
0.000000 0.000000 0.000000 

0.000000 -0.000000 0.000000 
0.000000 -0.000000 0.000000 
0.000000 0.000000 0.000000 

0.000000 -0.000000 0.000000 
0.000000 -0.000000 0.000000 
0.000000 0.000000 0.000000 

0.000000 -0.000000 0.000000 
0.000000 -0.000000 0.000000 
0.000000 0.000000 0.000000 

