# vtk DataFile Version 3.0 
vtk output 
ASCII 
DATASET UNSTRUCTURED_GRID 
POINTS 175 float 
-0.026061 -1.633232 0.000000 
-0.106992 -1.565176 0.000000 
-0.054870 -1.573409 0.000000 
-0.028809 -1.527525 0.000000 
-0.186430 -1.501101 0.000000 
-0.137056 -1.503627 0.000000 
-0.114311 -1.449980 0.000000 
-0.058186 -1.465645 0.000000 
-0.029377 -1.425468 0.000000 
-0.265318 -1.437945 0.000000 
-0.217198 -1.438745 0.000000 
-0.196633 -1.381448 0.000000 
-0.143120 -1.390157 0.000000 
-0.116563 -1.342888 0.000000 
-0.058945 -1.362534 0.000000 
-0.029568 -1.324414 0.000000 
-0.344206 -1.374789 0.000000 
-0.296791 -1.374782 0.000000 
-0.278030 -1.314839 0.000000 
-0.225992 -1.320706 0.000000 
-0.201664 -1.268588 0.000000 
-0.145749 -1.282062 0.000000 
-0.117890 -1.237720 0.000000 
-0.059328 -1.260426 0.000000 
-0.029759 -1.223360 0.000000 
-0.058559 -1.673982 0.000000 
-0.162226 -1.694825 0.000000 
-0.123292 -1.659207 0.000000 
-0.142917 -1.610224 0.000000 
-0.261851 -1.716981 0.000000 
-0.229092 -1.679954 0.000000 
-0.256854 -1.628723 0.000000 
-0.209613 -1.594610 0.000000 
-0.223062 -1.547036 0.000000 
-0.360414 -1.739282 0.000000 
-0.329787 -1.702159 0.000000 
-0.361761 -1.650357 0.000000 
-0.321587 -1.613948 0.000000 
-0.341985 -1.563714 0.000000 
-0.290702 -1.530915 0.000000 
-0.302189 -1.484180 0.000000 
-0.458977 -1.761582 0.000000 
-0.429420 -1.724507 0.000000 
-0.464588 -1.672465 0.000000 
-0.427556 -1.635438 0.000000 
-0.453135 -1.583923 0.000000 
-0.407738 -1.548608 0.000000 
-0.425037 -1.499180 0.000000 
-0.370772 -1.467550 0.000000 
-0.381315 -1.421323 0.000000 
-0.046960 -1.724798 0.000000 
-0.095301 -1.818844 0.000000 
-0.098873 -1.766196 0.000000 
-0.149405 -1.750999 0.000000 
-0.140093 -1.910548 0.000000 
-0.148617 -1.861849 0.000000 
-0.205981 -1.851612 0.000000 
-0.203197 -1.793409 0.000000 
-0.248777 -1.774262 0.000000 
-0.184111 -2.001511 0.000000 
-0.194039 -1.954420 0.000000 
-0.254475 -1.947121 0.000000 
-0.257893 -1.893011 0.000000 
-0.309886 -1.877638 0.000000 
-0.303554 -1.817093 0.000000 
-0.347255 -1.796935 0.000000 
-0.228129 -2.092475 0.000000 
-0.238687 -2.046250 0.000000 
-0.301302 -2.041298 0.000000 
-0.307162 -1.989260 0.000000 
-0.363386 -1.977139 0.000000 
-0.362692 -1.919627 0.000000 
-0.412122 -1.902334 0.000000 
-0.403017 -1.840187 0.000000 
-0.445733 -1.819608 0.000000 
-0.000000 -1.747413 0.000000 
0.043388 -1.843843 0.000000 
-0.000000 -1.813811 0.000000 
-0.043388 -1.843843 0.000000 
0.087158 -1.936040 0.000000 
0.043769 -1.912341 0.000000 
-0.000000 -1.950807 0.000000 
-0.043769 -1.912341 0.000000 
-0.087158 -1.936040 0.000000 
0.130831 -2.027170 0.000000 
0.087824 -2.005571 0.000000 
0.044436 -2.048270 0.000000 
-0.000000 -2.017205 0.000000 
-0.044436 -2.048270 0.000000 
-0.087824 -2.005571 0.000000 
-0.130831 -2.027169 0.000000 
0.174505 -2.118299 0.000000 
0.131782 -2.097733 0.000000 
0.088871 -2.143600 0.000000 
0.044532 -2.115736 0.000000 
-0.000000 -2.152136 0.000000 
-0.044532 -2.115736 0.000000 
-0.088871 -2.143600 0.000000 
-0.131782 -2.097733 0.000000 
-0.174505 -2.118299 0.000000 
0.046960 -1.724798 0.000000 
0.149405 -1.750999 0.000000 
0.098873 -1.766196 0.000000 
0.095301 -1.818844 0.000000 
0.248777 -1.774262 0.000000 
0.203197 -1.793409 0.000000 
0.205981 -1.851612 0.000000 
0.148617 -1.861849 0.000000 
0.140093 -1.910548 0.000000 
0.347255 -1.796935 0.000000 
0.303554 -1.817093 0.000000 
0.309886 -1.877638 0.000000 
0.257893 -1.893011 0.000000 
0.254475 -1.947121 0.000000 
0.194039 -1.954420 0.000000 
0.184111 -2.001511 0.000000 
0.445733 -1.819608 0.000000 
0.403017 -1.840187 0.000000 
0.412122 -1.902334 0.000000 
0.362692 -1.919627 0.000000 
0.363386 -1.977139 0.000000 
0.307162 -1.989260 0.000000 
0.301302 -2.041298 0.000000 
0.238687 -2.046250 0.000000 
0.228129 -2.092475 0.000000 
0.058559 -1.673982 0.000000 
0.142917 -1.610224 0.000000 
0.123292 -1.659207 0.000000 
0.162226 -1.694825 0.000000 
0.223062 -1.547036 0.000000 
0.209613 -1.594610 0.000000 
0.256854 -1.628723 0.000000 
0.229092 -1.679954 0.000000 
0.261851 -1.716981 0.000000 
0.302189 -1.484180 0.000000 
0.290702 -1.530915 0.000000 
0.341985 -1.563714 0.000000 
0.321587 -1.613948 0.000000 
0.361761 -1.650357 0.000000 
0.329787 -1.702159 0.000000 
0.360414 -1.739282 0.000000 
0.381315 -1.421323 0.000000 
0.370772 -1.467550 0.000000 
0.425037 -1.499180 0.000000 
0.407738 -1.548608 0.000000 
0.453135 -1.583923 0.000000 
0.427556 -1.635438 0.000000 
0.464588 -1.672465 0.000000 
0.429420 -1.724507 0.000000 
0.458977 -1.761582 0.000000 
0.026061 -1.633232 0.000000 
0.028809 -1.527525 0.000000 
0.054870 -1.573409 0.000000 
0.106992 -1.565176 0.000000 
0.029377 -1.425468 0.000000 
0.058186 -1.465645 0.000000 
0.114311 -1.449980 0.000000 
0.137056 -1.503627 0.000000 
0.186430 -1.501101 0.000000 
0.029568 -1.324414 0.000000 
0.058945 -1.362534 0.000000 
0.116563 -1.342888 0.000000 
0.143120 -1.390157 0.000000 
0.196633 -1.381448 0.000000 
0.217198 -1.438745 0.000000 
0.265318 -1.437945 0.000000 
0.029759 -1.223360 0.000000 
0.059328 -1.260426 0.000000 
0.117890 -1.237720 0.000000 
0.145749 -1.282062 0.000000 
0.201664 -1.268588 0.000000 
0.225992 -1.320706 0.000000 
0.278030 -1.314839 0.000000 
0.296791 -1.374782 0.000000 
0.344206 -1.374789 0.000000 
CELLS 175 350 
1 0 
1 1 
1 2 
1 3 
1 4 
1 5 
1 6 
1 7 
1 8 
1 9 
1 10 
1 11 
1 12 
1 13 
1 14 
1 15 
1 16 
1 17 
1 18 
1 19 
1 20 
1 21 
1 22 
1 23 
1 24 
1 25 
1 26 
1 27 
1 28 
1 29 
1 30 
1 31 
1 32 
1 33 
1 34 
1 35 
1 36 
1 37 
1 38 
1 39 
1 40 
1 41 
1 42 
1 43 
1 44 
1 45 
1 46 
1 47 
1 48 
1 49 
1 50 
1 51 
1 52 
1 53 
1 54 
1 55 
1 56 
1 57 
1 58 
1 59 
1 60 
1 61 
1 62 
1 63 
1 64 
1 65 
1 66 
1 67 
1 68 
1 69 
1 70 
1 71 
1 72 
1 73 
1 74 
1 75 
1 76 
1 77 
1 78 
1 79 
1 80 
1 81 
1 82 
1 83 
1 84 
1 85 
1 86 
1 87 
1 88 
1 89 
1 90 
1 91 
1 92 
1 93 
1 94 
1 95 
1 96 
1 97 
1 98 
1 99 
1 100 
1 101 
1 102 
1 103 
1 104 
1 105 
1 106 
1 107 
1 108 
1 109 
1 110 
1 111 
1 112 
1 113 
1 114 
1 115 
1 116 
1 117 
1 118 
1 119 
1 120 
1 121 
1 122 
1 123 
1 124 
1 125 
1 126 
1 127 
1 128 
1 129 
1 130 
1 131 
1 132 
1 133 
1 134 
1 135 
1 136 
1 137 
1 138 
1 139 
1 140 
1 141 
1 142 
1 143 
1 144 
1 145 
1 146 
1 147 
1 148 
1 149 
1 150 
1 151 
1 152 
1 153 
1 154 
1 155 
1 156 
1 157 
1 158 
1 159 
1 160 
1 161 
1 162 
1 163 
1 164 
1 165 
1 166 
1 167 
1 168 
1 169 
1 170 
1 171 
1 172 
1 173 
1 174 
CELL_TYPES 175 
1 
1 
1 
1 
1 
1 
1 
1 
1 
1 
1 
1 
1 
1 
1 
1 
1 
1 
1 
1 
1 
1 
1 
1 
1 
1 
1 
1 
1 
1 
1 
1 
1 
1 
1 
1 
1 
1 
1 
1 
1 
1 
1 
1 
1 
1 
1 
1 
1 
1 
1 
1 
1 
1 
1 
1 
1 
1 
1 
1 
1 
1 
1 
1 
1 
1 
1 
1 
1 
1 
1 
1 
1 
1 
1 
1 
1 
1 
1 
1 
1 
1 
1 
1 
1 
1 
1 
1 
1 
1 
1 
1 
1 
1 
1 
1 
1 
1 
1 
1 
1 
1 
1 
1 
1 
1 
1 
1 
1 
1 
1 
1 
1 
1 
1 
1 
1 
1 
1 
1 
1 
1 
1 
1 
1 
1 
1 
1 
1 
1 
1 
1 
1 
1 
1 
1 
1 
1 
1 
1 
1 
1 
1 
1 
1 
1 
1 
1 
1 
1 
1 
1 
1 
1 
1 
1 
1 
1 
1 
1 
1 
1 
1 
1 
1 
1 
1 
1 
1 
1 
1 
1 
1 
1 
1 
POINT_DATA 175 
VECTORS X_GC float 
-0.026061 -1.633232 0.000000 
-0.106992 -1.565176 0.000000 
-0.054870 -1.573409 0.000000 
-0.028809 -1.527525 0.000000 
-0.186430 -1.501101 0.000000 
-0.137056 -1.503627 0.000000 
-0.114311 -1.449980 0.000000 
-0.058186 -1.465645 0.000000 
-0.029377 -1.425468 0.000000 
-0.265318 -1.437945 0.000000 
-0.217198 -1.438745 0.000000 
-0.196633 -1.381448 0.000000 
-0.143120 -1.390157 0.000000 
-0.116563 -1.342888 0.000000 
-0.058945 -1.362534 0.000000 
-0.029568 -1.324414 0.000000 
-0.344206 -1.374789 0.000000 
-0.296791 -1.374782 0.000000 
-0.278030 -1.314839 0.000000 
-0.225992 -1.320706 0.000000 
-0.201664 -1.268588 0.000000 
-0.145749 -1.282062 0.000000 
-0.117890 -1.237720 0.000000 
-0.059328 -1.260426 0.000000 
-0.029759 -1.223360 0.000000 
-0.058559 -1.673982 0.000000 
-0.162226 -1.694825 0.000000 
-0.123292 -1.659207 0.000000 
-0.142917 -1.610224 0.000000 
-0.261851 -1.716981 0.000000 
-0.229092 -1.679954 0.000000 
-0.256854 -1.628723 0.000000 
-0.209613 -1.594610 0.000000 
-0.223062 -1.547036 0.000000 
-0.360414 -1.739282 0.000000 
-0.329787 -1.702159 0.000000 
-0.361761 -1.650357 0.000000 
-0.321587 -1.613948 0.000000 
-0.341985 -1.563714 0.000000 
-0.290702 -1.530915 0.000000 
-0.302189 -1.484180 0.000000 
-0.458977 -1.761582 0.000000 
-0.429420 -1.724507 0.000000 
-0.464588 -1.672465 0.000000 
-0.427556 -1.635438 0.000000 
-0.453135 -1.583923 0.000000 
-0.407738 -1.548608 0.000000 
-0.425037 -1.499180 0.000000 
-0.370772 -1.467550 0.000000 
-0.381315 -1.421323 0.000000 
-0.046960 -1.724798 0.000000 
-0.095301 -1.818844 0.000000 
-0.098873 -1.766196 0.000000 
-0.149405 -1.750999 0.000000 
-0.140093 -1.910548 0.000000 
-0.148617 -1.861849 0.000000 
-0.205981 -1.851612 0.000000 
-0.203197 -1.793409 0.000000 
-0.248777 -1.774262 0.000000 
-0.184111 -2.001511 0.000000 
-0.194039 -1.954420 0.000000 
-0.254475 -1.947121 0.000000 
-0.257893 -1.893011 0.000000 
-0.309886 -1.877638 0.000000 
-0.303554 -1.817093 0.000000 
-0.347255 -1.796935 0.000000 
-0.228129 -2.092475 0.000000 
-0.238687 -2.046250 0.000000 
-0.301302 -2.041298 0.000000 
-0.307162 -1.989260 0.000000 
-0.363386 -1.977139 0.000000 
-0.362692 -1.919627 0.000000 
-0.412122 -1.902334 0.000000 
-0.403017 -1.840187 0.000000 
-0.445733 -1.819608 0.000000 
-0.000000 -1.747413 0.000000 
0.043388 -1.843843 0.000000 
-0.000000 -1.813811 0.000000 
-0.043388 -1.843843 0.000000 
0.087158 -1.936040 0.000000 
0.043769 -1.912341 0.000000 
-0.000000 -1.950807 0.000000 
-0.043769 -1.912341 0.000000 
-0.087158 -1.936040 0.000000 
0.130831 -2.027170 0.000000 
0.087824 -2.005571 0.000000 
0.044436 -2.048270 0.000000 
-0.000000 -2.017205 0.000000 
-0.044436 -2.048270 0.000000 
-0.087824 -2.005571 0.000000 
-0.130831 -2.027169 0.000000 
0.174505 -2.118299 0.000000 
0.131782 -2.097733 0.000000 
0.088871 -2.143600 0.000000 
0.044532 -2.115736 0.000000 
-0.000000 -2.152136 0.000000 
-0.044532 -2.115736 0.000000 
-0.088871 -2.143600 0.000000 
-0.131782 -2.097733 0.000000 
-0.174505 -2.118299 0.000000 
0.046960 -1.724798 0.000000 
0.149405 -1.750999 0.000000 
0.098873 -1.766196 0.000000 
0.095301 -1.818844 0.000000 
0.248777 -1.774262 0.000000 
0.203197 -1.793409 0.000000 
0.205981 -1.851612 0.000000 
0.148617 -1.861849 0.000000 
0.140093 -1.910548 0.000000 
0.347255 -1.796935 0.000000 
0.303554 -1.817093 0.000000 
0.309886 -1.877638 0.000000 
0.257893 -1.893011 0.000000 
0.254475 -1.947121 0.000000 
0.194039 -1.954420 0.000000 
0.184111 -2.001511 0.000000 
0.445733 -1.819608 0.000000 
0.403017 -1.840187 0.000000 
0.412122 -1.902334 0.000000 
0.362692 -1.919627 0.000000 
0.363386 -1.977139 0.000000 
0.307162 -1.989260 0.000000 
0.301302 -2.041298 0.000000 
0.238687 -2.046250 0.000000 
0.228129 -2.092475 0.000000 
0.058559 -1.673982 0.000000 
0.142917 -1.610224 0.000000 
0.123292 -1.659207 0.000000 
0.162226 -1.694825 0.000000 
0.223062 -1.547036 0.000000 
0.209613 -1.594610 0.000000 
0.256854 -1.628723 0.000000 
0.229092 -1.679954 0.000000 
0.261851 -1.716981 0.000000 
0.302189 -1.484180 0.000000 
0.290702 -1.530915 0.000000 
0.341985 -1.563714 0.000000 
0.321587 -1.613948 0.000000 
0.361761 -1.650357 0.000000 
0.329787 -1.702159 0.000000 
0.360414 -1.739282 0.000000 
0.381315 -1.421323 0.000000 
0.370772 -1.467550 0.000000 
0.425037 -1.499180 0.000000 
0.407738 -1.548608 0.000000 
0.453135 -1.583923 0.000000 
0.427556 -1.635438 0.000000 
0.464588 -1.672465 0.000000 
0.429420 -1.724507 0.000000 
0.458977 -1.761582 0.000000 
0.026061 -1.633232 0.000000 
0.028809 -1.527525 0.000000 
0.054870 -1.573409 0.000000 
0.106992 -1.565176 0.000000 
0.029377 -1.425468 0.000000 
0.058186 -1.465645 0.000000 
0.114311 -1.449980 0.000000 
0.137056 -1.503627 0.000000 
0.186430 -1.501101 0.000000 
0.029568 -1.324414 0.000000 
0.058945 -1.362534 0.000000 
0.116563 -1.342888 0.000000 
0.143120 -1.390157 0.000000 
0.196633 -1.381448 0.000000 
0.217198 -1.438745 0.000000 
0.265318 -1.437945 0.000000 
0.029759 -1.223360 0.000000 
0.059328 -1.260426 0.000000 
0.117890 -1.237720 0.000000 
0.145749 -1.282062 0.000000 
0.201664 -1.268588 0.000000 
0.225992 -1.320706 0.000000 
0.278030 -1.314839 0.000000 
0.296791 -1.374782 0.000000 
0.344206 -1.374789 0.000000 
VECTORS X_EC float 
0.338794 0.548628 0.000000 
-0.609100 -0.370121 0.000000 
0.713312 -0.258980 0.000000 
0.374519 -0.878410 0.000000 
0.423588 0.764860 0.000000 
-0.218274 0.798963 0.000000 
-0.513962 0.074725 0.000000 
0.756418 0.286211 0.000000 
0.381900 -0.256182 0.000000 
-0.550868 -0.087743 0.000000 
0.823577 -0.076948 0.000000 
0.556234 -0.850452 0.000000 
-0.139443 -0.732883 0.000000 
-0.484677 0.628992 0.000000 
0.766286 0.894208 0.000000 
0.384386 0.379587 0.000000 
0.474677 -0.940346 0.000000 
-0.141715 -0.940443 0.000000 
-0.385608 0.250329 0.000000 
0.937896 0.329525 0.000000 
0.621631 -0.374055 0.000000 
-0.105264 -0.192156 0.000000 
-0.467428 -0.790783 0.000000 
0.771260 -0.484254 0.000000 
0.386873 -0.984644 0.000000 
0.761262 -0.901238 0.000000 
0.108942 -0.619861 0.000000 
-0.397202 0.899299 0.000000 
-0.142083 0.238024 0.000000 
-0.595936 -0.320751 0.000000 
0.978194 -0.820617 0.000000 
-0.660903 0.487758 0.000000 
0.724964 0.027238 0.000000 
0.899809 -0.615010 0.000000 
0.685384 -0.019698 0.000000 
0.287229 -0.520857 0.000000 
0.702895 0.779815 0.000000 
0.180633 0.288296 0.000000 
0.445811 -0.389864 0.000000 
-0.220880 -0.832650 0.000000 
-0.071546 0.536425 0.000000 
-0.033296 0.281354 0.000000 
-0.417537 -0.219156 0.000000 
0.039645 -0.921718 0.000000 
-0.441768 0.578410 0.000000 
-0.109248 -0.117040 0.000000 
-0.699407 -0.593796 0.000000 
-0.474522 0.738925 0.000000 
0.820030 0.311932 0.000000 
0.957100 -0.312140 0.000000 
0.610485 -0.215232 0.000000 
-0.761092 -0.945612 0.000000 
-0.714655 0.343650 0.000000 
-0.057734 0.138483 0.000000 
-0.178789 0.292392 0.000000 
-0.067979 -0.365034 0.000000 
0.677748 -0.503238 0.000000 
0.641556 0.711017 0.000000 
-0.765897 0.452539 0.000000 
0.393446 -0.479599 0.000000 
0.522510 0.884671 0.000000 
-0.691820 0.786127 0.000000 
-0.647393 0.055644 0.000000 
0.028512 -0.151882 0.000000 
-0.053800 -0.969243 0.000000 
0.514316 0.758626 0.000000 
0.965681 0.748410 0.000000 
-0.897068 0.124381 0.000000 
-0.083078 0.057528 0.000000 
-0.006893 -0.644996 0.000000 
0.724017 -0.808629 0.000000 
0.714996 0.414967 0.000000 
-0.642413 0.181510 0.000000 
-0.760780 -0.657470 0.000000 
-0.205471 -0.935286 0.000000 
0.000000 0.090070 0.000000 
-0.564049 -0.608117 0.000000 
0.000000 0.986447 0.000000 
0.564049 -0.608117 0.000000 
0.866949 0.636538 0.000000 
-0.569003 0.316607 0.000000 
0.000000 0.835895 0.000000 
0.569003 0.316607 0.000000 
-0.866949 0.636538 0.000000 
0.299194 -0.133212 0.000000 
0.858290 -0.424796 0.000000 
-0.577662 0.151650 0.000000 
0.000000 -0.267728 0.000000 
0.577662 0.151650 0.000000 
-0.858290 -0.424796 0.000000 
-0.299194 -0.133212 0.000000 
-0.268560 -0.902962 0.000000 
0.286830 0.819397 0.000000 
0.844677 -0.561405 0.000000 
-0.578910 -0.937568 0.000000 
0.000000 -0.446164 0.000000 
0.578910 -0.937568 0.000000 
-0.844677 -0.561405 0.000000 
-0.286830 0.819397 0.000000 
0.268560 -0.902962 0.000000 
-0.610485 -0.215232 0.000000 
0.057734 0.138483 0.000000 
0.714655 0.343650 0.000000 
0.761092 -0.945612 0.000000 
0.765897 0.452539 0.000000 
-0.641556 0.711017 0.000000 
-0.677748 -0.503238 0.000000 
0.067979 -0.365034 0.000000 
0.178789 0.292392 0.000000 
-0.514316 0.758626 0.000000 
0.053800 -0.969243 0.000000 
-0.028512 -0.151882 0.000000 
0.647393 0.055644 0.000000 
0.691820 0.786127 0.000000 
-0.522510 0.884671 0.000000 
-0.393446 -0.479599 0.000000 
0.205471 -0.935286 0.000000 
0.760780 -0.657470 0.000000 
0.642413 0.181510 0.000000 
-0.714996 0.414967 0.000000 
-0.724017 -0.808629 0.000000 
0.006894 -0.644996 0.000000 
0.083078 0.057528 0.000000 
0.897068 0.124381 0.000000 
-0.965681 0.748410 0.000000 
-0.761262 -0.901238 0.000000 
0.142083 0.238024 0.000000 
0.397202 0.899299 0.000000 
-0.108942 -0.619861 0.000000 
-0.899809 -0.615010 0.000000 
-0.724964 0.027238 0.000000 
0.660903 0.487758 0.000000 
-0.978194 -0.820617 0.000000 
0.595936 -0.320751 0.000000 
0.071546 0.536425 0.000000 
0.220880 -0.832650 0.000000 
-0.445811 -0.389864 0.000000 
-0.180633 0.288296 0.000000 
-0.702895 0.779815 0.000000 
-0.287229 -0.520857 0.000000 
-0.685384 -0.019698 0.000000 
-0.957100 -0.312140 0.000000 
-0.820030 0.311932 0.000000 
0.474522 0.738925 0.000000 
0.699407 -0.593796 0.000000 
0.109248 -0.117040 0.000000 
0.441768 0.578410 0.000000 
-0.039645 -0.921718 0.000000 
0.417537 -0.219156 0.000000 
0.033296 0.281354 0.000000 
-0.338794 0.548628 0.000000 
-0.374519 -0.878410 0.000000 
-0.713312 -0.258980 0.000000 
0.609100 -0.370121 0.000000 
-0.381900 -0.256182 0.000000 
-0.756418 0.286211 0.000000 
0.513962 0.074725 0.000000 
0.218274 0.798963 0.000000 
-0.423588 0.764860 0.000000 
-0.384386 0.379587 0.000000 
-0.766286 0.894208 0.000000 
0.484677 0.628992 0.000000 
0.139443 -0.732883 0.000000 
-0.556234 -0.850452 0.000000 
-0.823577 -0.076948 0.000000 
0.550868 -0.087743 0.000000 
-0.386873 -0.984644 0.000000 
-0.771260 -0.484254 0.000000 
0.467428 -0.790783 0.000000 
0.105264 -0.192156 0.000000 
-0.621631 -0.374055 0.000000 
-0.937896 0.329525 0.000000 
0.385608 0.250329 0.000000 
0.141715 -0.940443 0.000000 
-0.474677 -0.940346 0.000000 
CELL_DATA 175 
SCALARS MASS float 
LOOKUP_TABLE default 
0.078183 
0.086427 
0.094672 
0.086427 
0.088131 
0.092111 
0.085854 
0.092111 
0.088131 
0.088705 
0.091000 
0.086983 
0.091556 
0.086983 
0.091000 
0.088705 
0.089278 
0.091574 
0.089278 
0.092722 
0.089278 
0.092722 
0.089278 
0.091574 
0.089278 
0.078183 
0.086427 
0.094672 
0.086427 
0.088131 
0.092111 
0.085854 
0.092111 
0.088131 
0.088705 
0.091000 
0.086983 
0.091556 
0.086983 
0.091000 
0.088705 
0.089278 
0.091574 
0.089278 
0.092722 
0.089278 
0.092722 
0.089278 
0.091574 
0.089278 
0.078183 
0.086427 
0.094672 
0.086427 
0.088131 
0.092111 
0.085854 
0.092111 
0.088131 
0.088705 
0.091000 
0.086983 
0.091556 
0.086983 
0.091000 
0.088705 
0.089278 
0.091574 
0.089278 
0.092722 
0.089278 
0.092722 
0.089278 
0.091574 
0.089278 
0.078183 
0.086427 
0.094672 
0.086427 
0.088131 
0.092111 
0.085854 
0.092111 
0.088131 
0.088705 
0.091000 
0.086983 
0.091556 
0.086983 
0.091000 
0.088705 
0.089278 
0.091574 
0.089278 
0.092722 
0.089278 
0.092722 
0.089278 
0.091574 
0.089278 
0.078183 
0.086427 
0.094672 
0.086427 
0.088131 
0.092111 
0.085854 
0.092111 
0.088131 
0.088705 
0.091000 
0.086983 
0.091556 
0.086983 
0.091000 
0.088705 
0.089278 
0.091574 
0.089278 
0.092722 
0.089278 
0.092722 
0.089278 
0.091574 
0.089278 
0.078183 
0.086427 
0.094672 
0.086427 
0.088131 
0.092111 
0.085854 
0.092111 
0.088131 
0.088705 
0.091000 
0.086983 
0.091556 
0.086983 
0.091000 
0.088705 
0.089278 
0.091574 
0.089278 
0.092722 
0.089278 
0.092722 
0.089278 
0.091574 
0.089278 
0.078183 
0.086427 
0.094672 
0.086427 
0.088131 
0.092111 
0.085854 
0.092111 
0.088131 
0.088705 
0.091000 
0.086983 
0.091556 
0.086983 
0.091000 
0.088705 
0.089278 
0.091574 
0.089278 
0.092722 
0.089278 
0.092722 
0.089278 
0.091574 
0.089278 
SCALARS MASS float 
LOOKUP_TABLE default 
0.078183 
0.086427 
0.094672 
0.086427 
0.088131 
0.092111 
0.085854 
0.092111 
0.088131 
0.088705 
0.091000 
0.086983 
0.091556 
0.086983 
0.091000 
0.088705 
0.089278 
0.091574 
0.089278 
0.092722 
0.089278 
0.092722 
0.089278 
0.091574 
0.089278 
0.078183 
0.086427 
0.094672 
0.086427 
0.088131 
0.092111 
0.085854 
0.092111 
0.088131 
0.088705 
0.091000 
0.086983 
0.091556 
0.086983 
0.091000 
0.088705 
0.089278 
0.091574 
0.089278 
0.092722 
0.089278 
0.092722 
0.089278 
0.091574 
0.089278 
0.078183 
0.086427 
0.094672 
0.086427 
0.088131 
0.092111 
0.085854 
0.092111 
0.088131 
0.088705 
0.091000 
0.086983 
0.091556 
0.086983 
0.091000 
0.088705 
0.089278 
0.091574 
0.089278 
0.092722 
0.089278 
0.092722 
0.089278 
0.091574 
0.089278 
0.078183 
0.086427 
0.094672 
0.086427 
0.088131 
0.092111 
0.085854 
0.092111 
0.088131 
0.088705 
0.091000 
0.086983 
0.091556 
0.086983 
0.091000 
0.088705 
0.089278 
0.091574 
0.089278 
0.092722 
0.089278 
0.092722 
0.089278 
0.091574 
0.089278 
0.078183 
0.086427 
0.094672 
0.086427 
0.088131 
0.092111 
0.085854 
0.092111 
0.088131 
0.088705 
0.091000 
0.086983 
0.091556 
0.086983 
0.091000 
0.088705 
0.089278 
0.091574 
0.089278 
0.092722 
0.089278 
0.092722 
0.089278 
0.091574 
0.089278 
0.078183 
0.086427 
0.094672 
0.086427 
0.088131 
0.092111 
0.085854 
0.092111 
0.088131 
0.088705 
0.091000 
0.086983 
0.091556 
0.086983 
0.091000 
0.088705 
0.089278 
0.091574 
0.089278 
0.092722 
0.089278 
0.092722 
0.089278 
0.091574 
0.089278 
0.078183 
0.086427 
0.094672 
0.086427 
0.088131 
0.092111 
0.085854 
0.092111 
0.088131 
0.088705 
0.091000 
0.086983 
0.091556 
0.086983 
0.091000 
0.088705 
0.089278 
0.091574 
0.089278 
0.092722 
0.089278 
0.092722 
0.089278 
0.091574 
0.089278 
SCALARS DENSITY float 
LOOKUP_TABLE default 
20.000000 
20.000000 
20.000000 
20.000000 
20.000000 
20.000000 
20.000000 
20.000000 
20.000000 
20.000000 
20.000000 
20.000000 
20.000000 
20.000000 
20.000000 
20.000000 
20.000000 
20.000000 
20.000000 
20.000000 
20.000000 
20.000000 
20.000000 
20.000000 
20.000000 
20.000000 
20.000000 
20.000000 
20.000000 
20.000000 
20.000000 
20.000000 
20.000000 
20.000000 
20.000000 
20.000000 
20.000000 
20.000000 
20.000000 
20.000000 
20.000000 
20.000000 
20.000000 
20.000000 
20.000000 
20.000000 
20.000000 
20.000000 
20.000000 
20.000000 
20.000000 
20.000000 
20.000000 
20.000000 
20.000000 
20.000000 
20.000000 
20.000000 
20.000000 
20.000000 
20.000000 
20.000000 
20.000000 
20.000000 
20.000000 
20.000000 
20.000000 
20.000000 
20.000000 
20.000000 
20.000000 
20.000000 
20.000000 
20.000000 
20.000000 
20.000000 
20.000000 
20.000000 
20.000000 
20.000000 
20.000000 
20.000000 
20.000000 
20.000000 
20.000000 
20.000000 
20.000000 
20.000000 
20.000000 
20.000000 
20.000000 
20.000000 
20.000000 
20.000000 
20.000000 
20.000000 
20.000000 
20.000000 
20.000000 
20.000000 
20.000000 
20.000000 
20.000000 
20.000000 
20.000000 
20.000000 
20.000000 
20.000000 
20.000000 
20.000000 
20.000000 
20.000000 
20.000000 
20.000000 
20.000000 
20.000000 
20.000000 
20.000000 
20.000000 
20.000000 
20.000000 
20.000000 
20.000000 
20.000000 
20.000000 
20.000000 
20.000000 
20.000000 
20.000000 
20.000000 
20.000000 
20.000000 
20.000000 
20.000000 
20.000000 
20.000000 
20.000000 
20.000000 
20.000000 
20.000000 
20.000000 
20.000000 
20.000000 
20.000000 
20.000000 
20.000000 
20.000000 
20.000000 
20.000000 
20.000000 
20.000000 
20.000000 
20.000000 
20.000000 
20.000000 
20.000000 
20.000000 
20.000000 
20.000000 
20.000000 
20.000000 
20.000000 
20.000000 
20.000000 
20.000000 
20.000000 
20.000000 
20.000000 
20.000000 
20.000000 
20.000000 
20.000000 
20.000000 
20.000000 
20.000000 
SCALARS ELEM_i float 
LOOKUP_TABLE default 
171 
198 
171 
171 
199 
199 
199 
172 
172 
226 
199 
199 
199 
200 
173 
173 
226 
226 
227 
200 
200 
200 
200 
173 
173 
170 
197 
198 
198 
224 
197 
225 
198 
198 
224 
224 
225 
225 
225 
225 
226 
251 
251 
251 
252 
252 
252 
253 
226 
226 
170 
196 
197 
197 
196 
196 
196 
197 
224 
195 
196 
223 
223 
223 
223 
224 
195 
222 
222 
222 
222 
223 
250 
250 
250 
170 
169 
170 
169 
142 
169 
169 
169 
196 
141 
141 
168 
168 
168 
195 
195 
140 
141 
140 
167 
167 
167 
194 
195 
194 
170 
143 
143 
142 
116 
143 
142 
142 
142 
116 
115 
115 
115 
115 
142 
141 
88 
88 
88 
115 
114 
114 
114 
114 
141 
170 
144 
144 
143 
144 
144 
117 
143 
116 
118 
117 
117 
117 
117 
116 
116 
118 
118 
91 
90 
90 
90 
89 
89 
89 
171 
171 
171 
144 
172 
172 
145 
145 
145 
173 
173 
146 
145 
145 
145 
118 
173 
173 
146 
146 
146 
146 
119 
118 
118 
VECTORS VELOCITY float 
0.000000 -5.753369 0.000000 
0.000000 -5.753369 0.000000 
0.000000 -5.753369 0.000000 
-0.000000 -5.753369 0.000000 
0.000000 -5.753369 0.000000 
0.000000 -5.753369 0.000000 
-0.000000 -5.753369 0.000000 
-0.000000 -5.753369 0.000000 
-0.000000 -5.753369 0.000000 
0.000000 -5.753369 0.000000 
0.000000 -5.753369 0.000000 
0.000000 -5.753369 0.000000 
0.000000 -5.753369 0.000000 
0.000000 -5.753369 0.000000 
0.000000 -5.753369 0.000000 
0.000000 -5.753369 0.000000 
-0.000000 -5.753369 0.000000 
-0.000000 -5.753369 0.000000 
-0.000000 -5.753369 0.000000 
-0.000000 -5.753369 0.000000 
-0.000000 -5.753369 0.000000 
0.000000 -5.753369 0.000000 
0.000000 -5.753369 0.000000 
0.000000 -5.753369 0.000000 
0.000000 -5.753369 0.000000 
0.000000 -5.753369 0.000000 
0.000000 -5.753369 0.000000 
0.000000 -5.753369 0.000000 
0.000000 -5.753369 0.000000 
0.000000 -5.753369 0.000000 
0.000000 -5.753369 0.000000 
0.000000 -5.753369 0.000000 
0.000000 -5.753369 0.000000 
0.000000 -5.753369 0.000000 
0.000000 -5.753369 0.000000 
0.000000 -5.753369 0.000000 
0.000000 -5.753369 0.000000 
0.000000 -5.753369 0.000000 
0.000000 -5.753369 0.000000 
0.000000 -5.753369 0.000000 
0.000000 -5.753369 0.000000 
-0.000000 -5.753369 0.000000 
-0.000000 -5.753369 0.000000 
-0.000000 -5.753369 0.000000 
-0.000000 -5.753369 0.000000 
0.000000 -5.753369 0.000000 
0.000000 -5.753369 0.000000 
-0.000000 -5.753369 0.000000 
-0.000000 -5.753369 0.000000 
-0.000000 -5.753369 0.000000 
-0.000000 -5.753369 0.000000 
0.000000 -5.753369 0.000000 
0.000000 -5.753369 0.000000 
-0.000000 -5.753369 0.000000 
0.000000 -5.753369 0.000000 
0.000000 -5.753369 0.000000 
-0.000000 -5.753369 0.000000 
-0.000000 -5.753369 0.000000 
-0.000000 -5.753369 0.000000 
0.000000 -5.753369 0.000000 
0.000000 -5.753369 0.000000 
0.000000 -5.753369 0.000000 
0.000000 -5.753369 0.000000 
-0.000000 -5.753369 0.000000 
-0.000000 -5.753369 0.000000 
-0.000000 -5.753369 0.000000 
0.000000 -5.753369 0.000000 
0.000000 -5.753369 0.000000 
-0.000000 -5.753369 0.000000 
-0.000000 -5.753369 0.000000 
-0.000000 -5.753369 0.000000 
-0.000000 -5.753369 0.000000 
0.000000 -5.753369 0.000000 
0.000000 -5.753369 0.000000 
0.000000 -5.753369 0.000000 
0.000000 -5.753369 0.000000 
0.000000 -5.753369 0.000000 
0.000000 -5.753369 0.000000 
0.000000 -5.753369 0.000000 
-0.000000 -5.753369 0.000000 
-0.000000 -5.753369 0.000000 
-0.000000 -5.753369 0.000000 
0.000000 -5.753369 0.000000 
-0.000000 -5.753369 0.000000 
0.000000 -5.753369 0.000000 
-0.000000 -5.753369 0.000000 
0.000000 -5.753369 0.000000 
-0.000000 -5.753369 0.000000 
-0.000000 -5.753369 0.000000 
-0.000000 -5.753369 0.000000 
-0.000000 -5.753369 0.000000 
-0.000000 -5.753369 0.000000 
-0.000000 -5.753369 0.000000 
-0.000000 -5.753369 0.000000 
-0.000000 -5.753369 0.000000 
-0.000000 -5.753369 0.000000 
-0.000000 -5.753369 0.000000 
-0.000000 -5.753369 0.000000 
-0.000000 -5.753369 0.000000 
0.000000 -5.753369 0.000000 
0.000000 -5.753369 0.000000 
-0.000000 -5.753369 0.000000 
0.000000 -5.753369 0.000000 
0.000000 -5.753369 0.000000 
-0.000000 -5.753369 0.000000 
-0.000000 -5.753369 0.000000 
0.000000 -5.753369 0.000000 
0.000000 -5.753369 0.000000 
-0.000000 -5.753369 0.000000 
0.000000 -5.753369 0.000000 
-0.000000 -5.753369 0.000000 
-0.000000 -5.753369 0.000000 
0.000000 -5.753369 0.000000 
0.000000 -5.753369 0.000000 
0.000000 -5.753369 0.000000 
-0.000000 -5.753369 0.000000 
-0.000000 -5.753369 0.000000 
-0.000000 -5.753369 0.000000 
-0.000000 -5.753369 0.000000 
-0.000000 -5.753369 0.000000 
0.000000 -5.753369 0.000000 
-0.000000 -5.753369 0.000000 
0.000000 -5.753369 0.000000 
-0.000000 -5.753369 0.000000 
-0.000000 -5.753369 0.000000 
-0.000000 -5.753369 0.000000 
-0.000000 -5.753369 0.000000 
-0.000000 -5.753369 0.000000 
-0.000000 -5.753369 0.000000 
-0.000000 -5.753369 0.000000 
-0.000000 -5.753369 0.000000 
-0.000000 -5.753369 0.000000 
0.000000 -5.753369 0.000000 
0.000000 -5.753369 0.000000 
0.000000 -5.753369 0.000000 
-0.000000 -5.753369 0.000000 
-0.000000 -5.753369 0.000000 
-0.000000 -5.753369 0.000000 
-0.000000 -5.753369 0.000000 
0.000000 -5.753369 0.000000 
0.000000 -5.753369 0.000000 
-0.000000 -5.753369 0.000000 
0.000000 -5.753369 0.000000 
-0.000000 -5.753369 0.000000 
0.000000 -5.753369 0.000000 
0.000000 -5.753369 0.000000 
-0.000000 -5.753369 0.000000 
-0.000000 -5.753369 0.000000 
-0.000000 -5.753369 0.000000 
0.000000 -5.753369 0.000000 
0.000000 -5.753369 0.000000 
-0.000000 -5.753369 0.000000 
-0.000000 -5.753369 0.000000 
-0.000000 -5.753369 0.000000 
0.000000 -5.753369 0.000000 
0.000000 -5.753369 0.000000 
0.000000 -5.753369 0.000000 
-0.000000 -5.753369 0.000000 
-0.000000 -5.753369 0.000000 
0.000000 -5.753369 0.000000 
0.000000 -5.753369 0.000000 
0.000000 -5.753369 0.000000 
0.000000 -5.753369 0.000000 
0.000000 -5.753369 0.000000 
0.000000 -5.753369 0.000000 
0.000000 -5.753369 0.000000 
0.000000 -5.753369 0.000000 
0.000000 -5.753369 0.000000 
-0.000000 -5.753369 0.000000 
0.000000 -5.753369 0.000000 
0.000000 -5.753369 0.000000 
0.000000 -5.753369 0.000000 
-0.000000 -5.753369 0.000000 
0.000000 -5.753369 0.000000 
0.000000 -5.753369 0.000000 
TENSORS STRESS float 
-0.000000 -0.000000 0.000000 
0.000000 -0.000000 0.000000 
0.000000 0.000000 0.000000 

0.000000 -0.000000 0.000000 
0.000000 0.000000 0.000000 
0.000000 0.000000 0.000000 

-0.000000 0.000000 0.000000 
0.000000 -0.000000 0.000000 
0.000000 0.000000 0.000000 

-0.000000 -0.000000 0.000000 
0.000000 -0.000000 0.000000 
0.000000 0.000000 0.000000 

-0.000000 0.000000 0.000000 
0.000000 -0.000000 0.000000 
0.000000 0.000000 0.000000 

-0.000000 -0.000000 0.000000 
0.000000 0.000000 0.000000 
0.000000 0.000000 0.000000 

-0.000000 -0.000000 0.000000 
0.000000 -0.000000 0.000000 
0.000000 0.000000 0.000000 

-0.000000 -0.000000 0.000000 
0.000000 0.000000 0.000000 
0.000000 0.000000 0.000000 

-0.000000 0.000000 0.000000 
0.000000 -0.000000 0.000000 
0.000000 0.000000 0.000000 

0.000000 -0.000000 0.000000 
0.000000 0.000000 0.000000 
0.000000 0.000000 0.000000 

-0.000000 -0.000000 0.000000 
0.000000 0.000000 0.000000 
0.000000 0.000000 0.000000 

-0.000000 0.000000 0.000000 
0.000000 0.000000 0.000000 
0.000000 0.000000 0.000000 

-0.000000 0.000000 0.000000 
0.000000 0.000000 0.000000 
0.000000 0.000000 0.000000 

-0.000000 -0.000000 0.000000 
0.000000 0.000000 0.000000 
0.000000 0.000000 0.000000 

-0.000000 -0.000000 0.000000 
0.000000 0.000000 0.000000 
0.000000 0.000000 0.000000 

-0.000000 0.000000 0.000000 
0.000000 -0.000000 0.000000 
0.000000 0.000000 0.000000 

-0.000000 -0.000000 0.000000 
0.000000 0.000000 0.000000 
0.000000 0.000000 0.000000 

0.000000 -0.000000 0.000000 
0.000000 0.000000 0.000000 
0.000000 0.000000 0.000000 

-0.000000 -0.000000 0.000000 
0.000000 0.000000 0.000000 
0.000000 0.000000 0.000000 

-0.000000 -0.000000 0.000000 
0.000000 -0.000000 0.000000 
0.000000 0.000000 0.000000 

0.000000 0.000000 0.000000 
0.000000 -0.000000 0.000000 
0.000000 0.000000 0.000000 

0.000000 0.000000 0.000000 
0.000000 -0.000000 0.000000 
0.000000 0.000000 0.000000 

-0.000000 0.000000 0.000000 
0.000000 -0.000000 0.000000 
0.000000 0.000000 0.000000 

0.000000 0.000000 0.000000 
0.000000 0.000000 0.000000 
0.000000 0.000000 0.000000 

-0.000000 -0.000000 0.000000 
0.000000 -0.000000 0.000000 
0.000000 0.000000 0.000000 

0.000000 0.000000 0.000000 
0.000000 0.000000 0.000000 
0.000000 0.000000 0.000000 

0.000000 -0.000000 0.000000 
0.000000 0.000000 0.000000 
0.000000 0.000000 0.000000 

0.000000 -0.000000 0.000000 
0.000000 0.000000 0.000000 
0.000000 0.000000 0.000000 

0.000000 -0.000000 0.000000 
0.000000 0.000000 0.000000 
0.000000 0.000000 0.000000 

0.000000 0.000000 0.000000 
0.000000 0.000000 0.000000 
0.000000 0.000000 0.000000 

-0.000000 -0.000000 0.000000 
0.000000 -0.000000 0.000000 
0.000000 0.000000 0.000000 

0.000000 -0.000000 0.000000 
0.000000 0.000000 0.000000 
0.000000 0.000000 0.000000 

0.000000 -0.000000 0.000000 
0.000000 0.000000 0.000000 
0.000000 0.000000 0.000000 

0.000000 -0.000000 0.000000 
0.000000 0.000000 0.000000 
0.000000 0.000000 0.000000 

-0.000000 -0.000000 0.000000 
0.000000 -0.000000 0.000000 
0.000000 0.000000 0.000000 

0.000000 0.000000 0.000000 
0.000000 0.000000 0.000000 
0.000000 0.000000 0.000000 

0.000000 0.000000 0.000000 
0.000000 0.000000 0.000000 
0.000000 0.000000 0.000000 

0.000000 0.000000 0.000000 
0.000000 0.000000 0.000000 
0.000000 0.000000 0.000000 

-0.000000 0.000000 0.000000 
0.000000 -0.000000 0.000000 
0.000000 0.000000 0.000000 

0.000000 0.000000 0.000000 
0.000000 0.000000 0.000000 
0.000000 0.000000 0.000000 

0.000000 0.000000 0.000000 
0.000000 0.000000 0.000000 
0.000000 0.000000 0.000000 

-0.000000 -0.000000 0.000000 
0.000000 -0.000000 0.000000 
0.000000 0.000000 0.000000 

-0.000000 -0.000000 0.000000 
0.000000 -0.000000 0.000000 
0.000000 0.000000 0.000000 

-0.000000 0.000000 0.000000 
0.000000 0.000000 0.000000 
0.000000 0.000000 0.000000 

-0.000000 0.000000 0.000000 
0.000000 -0.000000 0.000000 
0.000000 0.000000 0.000000 

-0.000000 -0.000000 0.000000 
0.000000 -0.000000 0.000000 
0.000000 0.000000 0.000000 

-0.000000 -0.000000 0.000000 
0.000000 0.000000 0.000000 
0.000000 0.000000 0.000000 

-0.000000 0.000000 0.000000 
0.000000 -0.000000 0.000000 
0.000000 0.000000 0.000000 

0.000000 -0.000000 0.000000 
0.000000 0.000000 0.000000 
0.000000 0.000000 0.000000 

-0.000000 -0.000000 0.000000 
0.000000 -0.000000 0.000000 
0.000000 0.000000 0.000000 

-0.000000 -0.000000 0.000000 
0.000000 0.000000 0.000000 
0.000000 0.000000 0.000000 

0.000000 -0.000000 0.000000 
0.000000 0.000000 0.000000 
0.000000 0.000000 0.000000 

0.000000 -0.000000 0.000000 
0.000000 0.000000 0.000000 
0.000000 0.000000 0.000000 

0.000000 0.000000 0.000000 
0.000000 0.000000 0.000000 
0.000000 0.000000 0.000000 

-0.000000 0.000000 0.000000 
0.000000 -0.000000 0.000000 
0.000000 0.000000 0.000000 

-0.000000 -0.000000 0.000000 
0.000000 -0.000000 0.000000 
0.000000 0.000000 0.000000 

-0.000000 0.000000 0.000000 
0.000000 -0.000000 0.000000 
0.000000 0.000000 0.000000 

-0.000000 0.000000 0.000000 
0.000000 -0.000000 0.000000 
0.000000 0.000000 0.000000 

0.000000 -0.000000 0.000000 
0.000000 0.000000 0.000000 
0.000000 0.000000 0.000000 

0.000000 0.000000 0.000000 
0.000000 -0.000000 0.000000 
0.000000 0.000000 0.000000 

0.000000 -0.000000 0.000000 
0.000000 -0.000000 0.000000 
0.000000 0.000000 0.000000 

0.000000 0.000000 0.000000 
0.000000 -0.000000 0.000000 
0.000000 0.000000 0.000000 

0.000000 0.000000 0.000000 
0.000000 -0.000000 0.000000 
0.000000 0.000000 0.000000 

0.000000 -0.000000 0.000000 
0.000000 0.000000 0.000000 
0.000000 0.000000 0.000000 

0.000000 -0.000000 0.000000 
0.000000 0.000000 0.000000 
0.000000 0.000000 0.000000 

-0.000000 -0.000000 0.000000 
0.000000 -0.000000 0.000000 
0.000000 0.000000 0.000000 

-0.000000 -0.000000 0.000000 
0.000000 -0.000000 0.000000 
0.000000 0.000000 0.000000 

-0.000000 0.000000 0.000000 
0.000000 -0.000000 0.000000 
0.000000 0.000000 0.000000 

-0.000000 0.000000 0.000000 
0.000000 -0.000000 0.000000 
0.000000 0.000000 0.000000 

0.000000 -0.000000 0.000000 
0.000000 0.000000 0.000000 
0.000000 0.000000 0.000000 

0.000000 -0.000000 0.000000 
0.000000 0.000000 0.000000 
0.000000 0.000000 0.000000 

0.000000 0.000000 0.000000 
0.000000 0.000000 0.000000 
0.000000 0.000000 0.000000 

-0.000000 0.000000 0.000000 
0.000000 -0.000000 0.000000 
0.000000 0.000000 0.000000 

0.000000 0.000000 0.000000 
0.000000 0.000000 0.000000 
0.000000 0.000000 0.000000 

0.000000 -0.000000 0.000000 
0.000000 0.000000 0.000000 
0.000000 0.000000 0.000000 

-0.000000 0.000000 0.000000 
0.000000 -0.000000 0.000000 
0.000000 0.000000 0.000000 

-0.000000 0.000000 0.000000 
0.000000 -0.000000 0.000000 
0.000000 0.000000 0.000000 

-0.000000 -0.000000 0.000000 
0.000000 -0.000000 0.000000 
0.000000 0.000000 0.000000 

-0.000000 0.000000 0.000000 
0.000000 -0.000000 0.000000 
0.000000 0.000000 0.000000 

0.000000 -0.000000 0.000000 
0.000000 0.000000 0.000000 
0.000000 0.000000 0.000000 

-0.000000 -0.000000 0.000000 
0.000000 -0.000000 0.000000 
0.000000 0.000000 0.000000 

-0.000000 -0.000000 0.000000 
0.000000 -0.000000 0.000000 
0.000000 0.000000 0.000000 

-0.000000 0.000000 0.000000 
0.000000 -0.000000 0.000000 
0.000000 0.000000 0.000000 

0.000000 -0.000000 0.000000 
0.000000 0.000000 0.000000 
0.000000 0.000000 0.000000 

-0.000000 0.000000 0.000000 
0.000000 0.000000 0.000000 
0.000000 0.000000 0.000000 

-0.000000 -0.000000 0.000000 
0.000000 -0.000000 0.000000 
0.000000 0.000000 0.000000 

0.000000 0.000000 0.000000 
0.000000 0.000000 0.000000 
0.000000 0.000000 0.000000 

-0.000000 -0.000000 0.000000 
0.000000 -0.000000 0.000000 
0.000000 0.000000 0.000000 

0.000000 0.000000 0.000000 
0.000000 -0.000000 0.000000 
0.000000 0.000000 0.000000 

0.000000 0.000000 0.000000 
0.000000 -0.000000 0.000000 
0.000000 0.000000 0.000000 

0.000000 0.000000 0.000000 
0.000000 -0.000000 0.000000 
0.000000 0.000000 0.000000 

0.000000 -0.000000 0.000000 
0.000000 0.000000 0.000000 
0.000000 0.000000 0.000000 

-0.000000 0.000000 0.000000 
0.000000 -0.000000 0.000000 
0.000000 0.000000 0.000000 

0.000000 0.000000 0.000000 
0.000000 -0.000000 0.000000 
0.000000 0.000000 0.000000 

0.000000 0.000000 0.000000 
0.000000 0.000000 0.000000 
0.000000 0.000000 0.000000 

-0.000000 0.000000 0.000000 
0.000000 -0.000000 0.000000 
0.000000 0.000000 0.000000 

0.000000 0.000000 0.000000 
0.000000 0.000000 0.000000 
0.000000 0.000000 0.000000 

-0.000000 -0.000000 0.000000 
0.000000 -0.000000 0.000000 
0.000000 0.000000 0.000000 

0.000000 -0.000000 0.000000 
0.000000 -0.000000 0.000000 
0.000000 0.000000 0.000000 

0.000000 -0.000000 0.000000 
0.000000 0.000000 0.000000 
0.000000 0.000000 0.000000 

-0.000000 0.000000 0.000000 
0.000000 -0.000000 0.000000 
0.000000 0.000000 0.000000 

0.000000 0.000000 0.000000 
0.000000 0.000000 0.000000 
0.000000 0.000000 0.000000 

-0.000000 0.000000 0.000000 
0.000000 0.000000 0.000000 
0.000000 0.000000 0.000000 

-0.000000 0.000000 0.000000 
0.000000 -0.000000 0.000000 
0.000000 0.000000 0.000000 

-0.000000 0.000000 0.000000 
0.000000 -0.000000 0.000000 
0.000000 0.000000 0.000000 

-0.000000 0.000000 0.000000 
0.000000 0.000000 0.000000 
0.000000 0.000000 0.000000 

0.000000 0.000000 0.000000 
0.000000 0.000000 0.000000 
0.000000 0.000000 0.000000 

-0.000000 -0.000000 0.000000 
0.000000 0.000000 0.000000 
0.000000 0.000000 0.000000 

-0.000000 -0.000000 0.000000 
0.000000 0.000000 0.000000 
0.000000 0.000000 0.000000 

0.000000 0.000000 0.000000 
0.000000 0.000000 0.000000 
0.000000 0.000000 0.000000 

0.000000 -0.000000 0.000000 
0.000000 0.000000 0.000000 
0.000000 0.000000 0.000000 

-0.000000 0.000000 0.000000 
0.000000 -0.000000 0.000000 
0.000000 0.000000 0.000000 

-0.000000 0.000000 0.000000 
0.000000 -0.000000 0.000000 
0.000000 0.000000 0.000000 

-0.000000 -0.000000 0.000000 
0.000000 -0.000000 0.000000 
0.000000 0.000000 0.000000 

0.000000 -0.000000 0.000000 
0.000000 0.000000 0.000000 
0.000000 0.000000 0.000000 

-0.000000 -0.000000 0.000000 
0.000000 -0.000000 0.000000 
0.000000 0.000000 0.000000 

-0.000000 -0.000000 0.000000 
0.000000 0.000000 0.000000 
0.000000 0.000000 0.000000 

-0.000000 0.000000 0.000000 
0.000000 -0.000000 0.000000 
0.000000 0.000000 0.000000 

-0.000000 0.000000 0.000000 
0.000000 0.000000 0.000000 
0.000000 0.000000 0.000000 

-0.000000 -0.000000 0.000000 
0.000000 -0.000000 0.000000 
0.000000 0.000000 0.000000 

0.000000 0.000000 0.000000 
0.000000 0.000000 0.000000 
0.000000 0.000000 0.000000 

0.000000 -0.000000 0.000000 
0.000000 0.000000 0.000000 
0.000000 0.000000 0.000000 

-0.000000 -0.000000 0.000000 
0.000000 -0.000000 0.000000 
0.000000 0.000000 0.000000 

-0.000000 -0.000000 0.000000 
0.000000 -0.000000 0.000000 
0.000000 0.000000 0.000000 

-0.000000 0.000000 0.000000 
0.000000 -0.000000 0.000000 
0.000000 0.000000 0.000000 

0.000000 -0.000000 0.000000 
0.000000 0.000000 0.000000 
0.000000 0.000000 0.000000 

-0.000000 0.000000 0.000000 
0.000000 -0.000000 0.000000 
0.000000 0.000000 0.000000 

-0.000000 -0.000000 0.000000 
0.000000 -0.000000 0.000000 
0.000000 0.000000 0.000000 

-0.000000 0.000000 0.000000 
0.000000 0.000000 0.000000 
0.000000 0.000000 0.000000 

-0.000000 0.000000 0.000000 
0.000000 -0.000000 0.000000 
0.000000 0.000000 0.000000 

-0.000000 0.000000 0.000000 
0.000000 -0.000000 0.000000 
0.000000 0.000000 0.000000 

0.000000 -0.000000 0.000000 
0.000000 -0.000000 0.000000 
0.000000 0.000000 0.000000 

-0.000000 0.000000 0.000000 
0.000000 -0.000000 0.000000 
0.000000 0.000000 0.000000 

0.000000 0.000000 0.000000 
0.000000 -0.000000 0.000000 
0.000000 0.000000 0.000000 

-0.000000 -0.000000 0.000000 
0.000000 -0.000000 0.000000 
0.000000 0.000000 0.000000 

0.000000 -0.000000 0.000000 
0.000000 -0.000000 0.000000 
0.000000 0.000000 0.000000 

0.000000 0.000000 0.000000 
0.000000 0.000000 0.000000 
0.000000 0.000000 0.000000 

0.000000 0.000000 0.000000 
0.000000 0.000000 0.000000 
0.000000 0.000000 0.000000 

0.000000 -0.000000 0.000000 
0.000000 0.000000 0.000000 
0.000000 0.000000 0.000000 

0.000000 -0.000000 0.000000 
0.000000 0.000000 0.000000 
0.000000 0.000000 0.000000 

0.000000 -0.000000 0.000000 
0.000000 0.000000 0.000000 
0.000000 0.000000 0.000000 

0.000000 0.000000 0.000000 
0.000000 0.000000 0.000000 
0.000000 0.000000 0.000000 

0.000000 0.000000 0.000000 
0.000000 0.000000 0.000000 
0.000000 0.000000 0.000000 

-0.000000 0.000000 0.000000 
0.000000 0.000000 0.000000 
0.000000 0.000000 0.000000 

-0.000000 -0.000000 0.000000 
0.000000 -0.000000 0.000000 
0.000000 0.000000 0.000000 

0.000000 -0.000000 0.000000 
0.000000 0.000000 0.000000 
0.000000 0.000000 0.000000 

0.000000 -0.000000 0.000000 
0.000000 0.000000 0.000000 
0.000000 0.000000 0.000000 

0.000000 -0.000000 0.000000 
0.000000 0.000000 0.000000 
0.000000 0.000000 0.000000 

-0.000000 0.000000 0.000000 
0.000000 -0.000000 0.000000 
0.000000 0.000000 0.000000 

0.000000 0.000000 0.000000 
0.000000 0.000000 0.000000 
0.000000 0.000000 0.000000 

-0.000000 -0.000000 0.000000 
0.000000 -0.000000 0.000000 
0.000000 0.000000 0.000000 

-0.000000 -0.000000 0.000000 
0.000000 -0.000000 0.000000 
0.000000 0.000000 0.000000 

-0.000000 -0.000000 0.000000 
0.000000 -0.000000 0.000000 
0.000000 0.000000 0.000000 

-0.000000 -0.000000 0.000000 
0.000000 -0.000000 0.000000 
0.000000 0.000000 0.000000 

0.000000 0.000000 0.000000 
0.000000 0.000000 0.000000 
0.000000 0.000000 0.000000 

0.000000 0.000000 0.000000 
0.000000 0.000000 0.000000 
0.000000 0.000000 0.000000 

0.000000 0.000000 0.000000 
0.000000 0.000000 0.000000 
0.000000 0.000000 0.000000 

0.000000 -0.000000 0.000000 
0.000000 0.000000 0.000000 
0.000000 0.000000 0.000000 

0.000000 -0.000000 0.000000 
0.000000 0.000000 0.000000 
0.000000 0.000000 0.000000 

-0.000000 0.000000 0.000000 
0.000000 -0.000000 0.000000 
0.000000 0.000000 0.000000 

0.000000 0.000000 0.000000 
0.000000 0.000000 0.000000 
0.000000 0.000000 0.000000 

0.000000 0.000000 0.000000 
0.000000 0.000000 0.000000 
0.000000 0.000000 0.000000 

0.000000 -0.000000 0.000000 
0.000000 -0.000000 0.000000 
0.000000 0.000000 0.000000 

0.000000 -0.000000 0.000000 
0.000000 0.000000 0.000000 
0.000000 0.000000 0.000000 

0.000000 0.000000 0.000000 
0.000000 0.000000 0.000000 
0.000000 0.000000 0.000000 

-0.000000 0.000000 0.000000 
0.000000 -0.000000 0.000000 
0.000000 0.000000 0.000000 

-0.000000 -0.000000 0.000000 
0.000000 0.000000 0.000000 
0.000000 0.000000 0.000000 

0.000000 0.000000 0.000000 
0.000000 0.000000 0.000000 
0.000000 0.000000 0.000000 

0.000000 0.000000 0.000000 
0.000000 0.000000 0.000000 
0.000000 0.000000 0.000000 

0.000000 -0.000000 0.000000 
0.000000 0.000000 0.000000 
0.000000 0.000000 0.000000 

0.000000 -0.000000 0.000000 
0.000000 0.000000 0.000000 
0.000000 0.000000 0.000000 

0.000000 0.000000 0.000000 
0.000000 0.000000 0.000000 
0.000000 0.000000 0.000000 

0.000000 0.000000 0.000000 
0.000000 -0.000000 0.000000 
0.000000 0.000000 0.000000 

-0.000000 0.000000 0.000000 
0.000000 -0.000000 0.000000 
0.000000 0.000000 0.000000 

-0.000000 0.000000 0.000000 
0.000000 -0.000000 0.000000 
0.000000 0.000000 0.000000 

TENSORS STRAIN float 
-0.000000 -0.000000 0.000000 
0.000000 -0.000000 0.000000 
0.000000 0.000000 0.000000 

0.000000 -0.000000 0.000000 
0.000000 0.000000 0.000000 
0.000000 0.000000 0.000000 

-0.000000 0.000000 0.000000 
0.000000 0.000000 0.000000 
0.000000 0.000000 0.000000 

-0.000000 -0.000000 0.000000 
0.000000 -0.000000 0.000000 
0.000000 0.000000 0.000000 

-0.000000 0.000000 0.000000 
0.000000 -0.000000 0.000000 
0.000000 0.000000 0.000000 

-0.000000 -0.000000 0.000000 
0.000000 0.000000 0.000000 
0.000000 0.000000 0.000000 

-0.000000 -0.000000 0.000000 
0.000000 0.000000 0.000000 
0.000000 0.000000 0.000000 

-0.000000 -0.000000 0.000000 
0.000000 0.000000 0.000000 
0.000000 0.000000 0.000000 

-0.000000 0.000000 0.000000 
0.000000 -0.000000 0.000000 
0.000000 0.000000 0.000000 

-0.000000 -0.000000 0.000000 
0.000000 0.000000 0.000000 
0.000000 0.000000 0.000000 

-0.000000 -0.000000 0.000000 
0.000000 0.000000 0.000000 
0.000000 0.000000 0.000000 

-0.000000 0.000000 0.000000 
0.000000 0.000000 0.000000 
0.000000 0.000000 0.000000 

-0.000000 0.000000 0.000000 
0.000000 0.000000 0.000000 
0.000000 0.000000 0.000000 

-0.000000 -0.000000 0.000000 
0.000000 0.000000 0.000000 
0.000000 0.000000 0.000000 

-0.000000 -0.000000 0.000000 
0.000000 0.000000 0.000000 
0.000000 0.000000 0.000000 

-0.000000 0.000000 0.000000 
0.000000 -0.000000 0.000000 
0.000000 0.000000 0.000000 

-0.000000 -0.000000 0.000000 
0.000000 0.000000 0.000000 
0.000000 0.000000 0.000000 

-0.000000 -0.000000 0.000000 
0.000000 0.000000 0.000000 
0.000000 0.000000 0.000000 

-0.000000 -0.000000 0.000000 
0.000000 0.000000 0.000000 
0.000000 0.000000 0.000000 

-0.000000 -0.000000 0.000000 
0.000000 -0.000000 0.000000 
0.000000 0.000000 0.000000 

0.000000 0.000000 0.000000 
0.000000 -0.000000 0.000000 
0.000000 0.000000 0.000000 

0.000000 0.000000 0.000000 
0.000000 -0.000000 0.000000 
0.000000 0.000000 0.000000 

0.000000 0.000000 0.000000 
0.000000 -0.000000 0.000000 
0.000000 0.000000 0.000000 

-0.000000 0.000000 0.000000 
0.000000 0.000000 0.000000 
0.000000 0.000000 0.000000 

-0.000000 -0.000000 0.000000 
0.000000 -0.000000 0.000000 
0.000000 0.000000 0.000000 

-0.000000 0.000000 0.000000 
0.000000 0.000000 0.000000 
0.000000 0.000000 0.000000 

-0.000000 -0.000000 0.000000 
0.000000 0.000000 0.000000 
0.000000 0.000000 0.000000 

-0.000000 -0.000000 0.000000 
0.000000 0.000000 0.000000 
0.000000 0.000000 0.000000 

-0.000000 -0.000000 0.000000 
0.000000 0.000000 0.000000 
0.000000 0.000000 0.000000 

-0.000000 0.000000 0.000000 
0.000000 0.000000 0.000000 
0.000000 0.000000 0.000000 

0.000000 -0.000000 0.000000 
0.000000 -0.000000 0.000000 
0.000000 0.000000 0.000000 

-0.000000 -0.000000 0.000000 
0.000000 0.000000 0.000000 
0.000000 0.000000 0.000000 

-0.000000 -0.000000 0.000000 
0.000000 0.000000 0.000000 
0.000000 0.000000 0.000000 

-0.000000 -0.000000 0.000000 
0.000000 0.000000 0.000000 
0.000000 0.000000 0.000000 

-0.000000 -0.000000 0.000000 
0.000000 -0.000000 0.000000 
0.000000 0.000000 0.000000 

-0.000000 0.000000 0.000000 
0.000000 0.000000 0.000000 
0.000000 0.000000 0.000000 

0.000000 0.000000 0.000000 
0.000000 0.000000 0.000000 
0.000000 0.000000 0.000000 

-0.000000 0.000000 0.000000 
0.000000 0.000000 0.000000 
0.000000 0.000000 0.000000 

0.000000 0.000000 0.000000 
0.000000 -0.000000 0.000000 
0.000000 0.000000 0.000000 

0.000000 0.000000 0.000000 
0.000000 0.000000 0.000000 
0.000000 0.000000 0.000000 

-0.000000 0.000000 0.000000 
0.000000 0.000000 0.000000 
0.000000 0.000000 0.000000 

-0.000000 -0.000000 0.000000 
0.000000 -0.000000 0.000000 
0.000000 0.000000 0.000000 

0.000000 -0.000000 0.000000 
0.000000 -0.000000 0.000000 
0.000000 0.000000 0.000000 

-0.000000 0.000000 0.000000 
0.000000 0.000000 0.000000 
0.000000 0.000000 0.000000 

-0.000000 0.000000 0.000000 
0.000000 -0.000000 0.000000 
0.000000 0.000000 0.000000 

-0.000000 -0.000000 0.000000 
0.000000 0.000000 0.000000 
0.000000 0.000000 0.000000 

-0.000000 -0.000000 0.000000 
0.000000 0.000000 0.000000 
0.000000 0.000000 0.000000 

-0.000000 0.000000 0.000000 
0.000000 -0.000000 0.000000 
0.000000 0.000000 0.000000 

-0.000000 -0.000000 0.000000 
0.000000 0.000000 0.000000 
0.000000 0.000000 0.000000 

-0.000000 -0.000000 0.000000 
0.000000 -0.000000 0.000000 
0.000000 0.000000 0.000000 

-0.000000 -0.000000 0.000000 
0.000000 0.000000 0.000000 
0.000000 0.000000 0.000000 

0.000000 -0.000000 0.000000 
0.000000 0.000000 0.000000 
0.000000 0.000000 0.000000 

0.000000 -0.000000 0.000000 
0.000000 -0.000000 0.000000 
0.000000 0.000000 0.000000 

0.000000 0.000000 0.000000 
0.000000 0.000000 0.000000 
0.000000 0.000000 0.000000 

0.000000 0.000000 0.000000 
0.000000 -0.000000 0.000000 
0.000000 0.000000 0.000000 

0.000000 -0.000000 0.000000 
0.000000 -0.000000 0.000000 
0.000000 0.000000 0.000000 

0.000000 0.000000 0.000000 
0.000000 -0.000000 0.000000 
0.000000 0.000000 0.000000 

0.000000 0.000000 0.000000 
0.000000 -0.000000 0.000000 
0.000000 0.000000 0.000000 

0.000000 -0.000000 0.000000 
0.000000 0.000000 0.000000 
0.000000 0.000000 0.000000 

0.000000 0.000000 0.000000 
0.000000 -0.000000 0.000000 
0.000000 0.000000 0.000000 

0.000000 -0.000000 0.000000 
0.000000 -0.000000 0.000000 
0.000000 0.000000 0.000000 

0.000000 0.000000 0.000000 
0.000000 -0.000000 0.000000 
0.000000 0.000000 0.000000 

0.000000 0.000000 0.000000 
0.000000 -0.000000 0.000000 
0.000000 0.000000 0.000000 

0.000000 -0.000000 0.000000 
0.000000 0.000000 0.000000 
0.000000 0.000000 0.000000 

0.000000 -0.000000 0.000000 
0.000000 0.000000 0.000000 
0.000000 0.000000 0.000000 

0.000000 -0.000000 0.000000 
0.000000 -0.000000 0.000000 
0.000000 0.000000 0.000000 

0.000000 -0.000000 0.000000 
0.000000 -0.000000 0.000000 
0.000000 0.000000 0.000000 

0.000000 0.000000 0.000000 
0.000000 -0.000000 0.000000 
0.000000 0.000000 0.000000 

0.000000 0.000000 0.000000 
0.000000 -0.000000 0.000000 
0.000000 0.000000 0.000000 

0.000000 -0.000000 0.000000 
0.000000 0.000000 0.000000 
0.000000 0.000000 0.000000 

0.000000 -0.000000 0.000000 
0.000000 0.000000 0.000000 
0.000000 0.000000 0.000000 

0.000000 0.000000 0.000000 
0.000000 -0.000000 0.000000 
0.000000 0.000000 0.000000 

0.000000 0.000000 0.000000 
0.000000 -0.000000 0.000000 
0.000000 0.000000 0.000000 

0.000000 0.000000 0.000000 
0.000000 0.000000 0.000000 
0.000000 0.000000 0.000000 

0.000000 -0.000000 0.000000 
0.000000 0.000000 0.000000 
0.000000 0.000000 0.000000 

-0.000000 0.000000 0.000000 
0.000000 -0.000000 0.000000 
0.000000 0.000000 0.000000 

-0.000000 0.000000 0.000000 
0.000000 -0.000000 0.000000 
0.000000 0.000000 0.000000 

-0.000000 -0.000000 0.000000 
0.000000 -0.000000 0.000000 
0.000000 0.000000 0.000000 

-0.000000 0.000000 0.000000 
0.000000 -0.000000 0.000000 
0.000000 0.000000 0.000000 

-0.000000 -0.000000 0.000000 
0.000000 0.000000 0.000000 
0.000000 0.000000 0.000000 

-0.000000 -0.000000 0.000000 
0.000000 -0.000000 0.000000 
0.000000 0.000000 0.000000 

-0.000000 -0.000000 0.000000 
0.000000 -0.000000 0.000000 
0.000000 0.000000 0.000000 

-0.000000 0.000000 0.000000 
0.000000 -0.000000 0.000000 
0.000000 0.000000 0.000000 

0.000000 -0.000000 0.000000 
0.000000 0.000000 0.000000 
0.000000 0.000000 0.000000 

-0.000000 0.000000 0.000000 
0.000000 0.000000 0.000000 
0.000000 0.000000 0.000000 

-0.000000 -0.000000 0.000000 
0.000000 -0.000000 0.000000 
0.000000 0.000000 0.000000 

0.000000 0.000000 0.000000 
0.000000 0.000000 0.000000 
0.000000 0.000000 0.000000 

-0.000000 -0.000000 0.000000 
0.000000 -0.000000 0.000000 
0.000000 0.000000 0.000000 

0.000000 0.000000 0.000000 
0.000000 -0.000000 0.000000 
0.000000 0.000000 0.000000 

0.000000 0.000000 0.000000 
0.000000 -0.000000 0.000000 
0.000000 0.000000 0.000000 

0.000000 0.000000 0.000000 
0.000000 -0.000000 0.000000 
0.000000 0.000000 0.000000 

-0.000000 -0.000000 0.000000 
0.000000 0.000000 0.000000 
0.000000 0.000000 0.000000 

-0.000000 0.000000 0.000000 
0.000000 -0.000000 0.000000 
0.000000 0.000000 0.000000 

0.000000 0.000000 0.000000 
0.000000 -0.000000 0.000000 
0.000000 0.000000 0.000000 

0.000000 0.000000 0.000000 
0.000000 0.000000 0.000000 
0.000000 0.000000 0.000000 

0.000000 0.000000 0.000000 
0.000000 -0.000000 0.000000 
0.000000 0.000000 0.000000 

0.000000 0.000000 0.000000 
0.000000 0.000000 0.000000 
0.000000 0.000000 0.000000 

-0.000000 -0.000000 0.000000 
0.000000 -0.000000 0.000000 
0.000000 0.000000 0.000000 

0.000000 -0.000000 0.000000 
0.000000 -0.000000 0.000000 
0.000000 0.000000 0.000000 

-0.000000 -0.000000 0.000000 
0.000000 0.000000 0.000000 
0.000000 0.000000 0.000000 

-0.000000 0.000000 0.000000 
0.000000 -0.000000 0.000000 
0.000000 0.000000 0.000000 

-0.000000 0.000000 0.000000 
0.000000 0.000000 0.000000 
0.000000 0.000000 0.000000 

-0.000000 0.000000 0.000000 
0.000000 0.000000 0.000000 
0.000000 0.000000 0.000000 

-0.000000 0.000000 0.000000 
0.000000 -0.000000 0.000000 
0.000000 0.000000 0.000000 

0.000000 0.000000 0.000000 
0.000000 -0.000000 0.000000 
0.000000 0.000000 0.000000 

-0.000000 0.000000 0.000000 
0.000000 0.000000 0.000000 
0.000000 0.000000 0.000000 

-0.000000 0.000000 0.000000 
0.000000 0.000000 0.000000 
0.000000 0.000000 0.000000 

-0.000000 -0.000000 0.000000 
0.000000 0.000000 0.000000 
0.000000 0.000000 0.000000 

-0.000000 -0.000000 0.000000 
0.000000 0.000000 0.000000 
0.000000 0.000000 0.000000 

0.000000 0.000000 0.000000 
0.000000 0.000000 0.000000 
0.000000 0.000000 0.000000 

-0.000000 -0.000000 0.000000 
0.000000 0.000000 0.000000 
0.000000 0.000000 0.000000 

-0.000000 0.000000 0.000000 
0.000000 -0.000000 0.000000 
0.000000 0.000000 0.000000 

-0.000000 0.000000 0.000000 
0.000000 -0.000000 0.000000 
0.000000 0.000000 0.000000 

-0.000000 -0.000000 0.000000 
0.000000 -0.000000 0.000000 
0.000000 0.000000 0.000000 

-0.000000 -0.000000 0.000000 
0.000000 0.000000 0.000000 
0.000000 0.000000 0.000000 

-0.000000 -0.000000 0.000000 
0.000000 -0.000000 0.000000 
0.000000 0.000000 0.000000 

-0.000000 -0.000000 0.000000 
0.000000 0.000000 0.000000 
0.000000 0.000000 0.000000 

-0.000000 0.000000 0.000000 
0.000000 0.000000 0.000000 
0.000000 0.000000 0.000000 

-0.000000 0.000000 0.000000 
0.000000 0.000000 0.000000 
0.000000 0.000000 0.000000 

-0.000000 -0.000000 0.000000 
0.000000 0.000000 0.000000 
0.000000 0.000000 0.000000 

-0.000000 0.000000 0.000000 
0.000000 0.000000 0.000000 
0.000000 0.000000 0.000000 

-0.000000 -0.000000 0.000000 
0.000000 0.000000 0.000000 
0.000000 0.000000 0.000000 

-0.000000 -0.000000 0.000000 
0.000000 -0.000000 0.000000 
0.000000 0.000000 0.000000 

-0.000000 -0.000000 0.000000 
0.000000 0.000000 0.000000 
0.000000 0.000000 0.000000 

0.000000 0.000000 0.000000 
0.000000 -0.000000 0.000000 
0.000000 0.000000 0.000000 

-0.000000 -0.000000 0.000000 
0.000000 0.000000 0.000000 
0.000000 0.000000 0.000000 

-0.000000 0.000000 0.000000 
0.000000 -0.000000 0.000000 
0.000000 0.000000 0.000000 

-0.000000 -0.000000 0.000000 
0.000000 0.000000 0.000000 
0.000000 0.000000 0.000000 

-0.000000 0.000000 0.000000 
0.000000 0.000000 0.000000 
0.000000 0.000000 0.000000 

-0.000000 0.000000 0.000000 
0.000000 -0.000000 0.000000 
0.000000 0.000000 0.000000 

-0.000000 0.000000 0.000000 
0.000000 -0.000000 0.000000 
0.000000 0.000000 0.000000 

0.000000 -0.000000 0.000000 
0.000000 -0.000000 0.000000 
0.000000 0.000000 0.000000 

-0.000000 0.000000 0.000000 
0.000000 -0.000000 0.000000 
0.000000 0.000000 0.000000 

0.000000 0.000000 0.000000 
0.000000 -0.000000 0.000000 
0.000000 0.000000 0.000000 

0.000000 -0.000000 0.000000 
0.000000 -0.000000 0.000000 
0.000000 0.000000 0.000000 

0.000000 -0.000000 0.000000 
0.000000 -0.000000 0.000000 
0.000000 0.000000 0.000000 

0.000000 0.000000 0.000000 
0.000000 0.000000 0.000000 
0.000000 0.000000 0.000000 

0.000000 0.000000 0.000000 
0.000000 0.000000 0.000000 
0.000000 0.000000 0.000000 

0.000000 -0.000000 0.000000 
0.000000 0.000000 0.000000 
0.000000 0.000000 0.000000 

0.000000 -0.000000 0.000000 
0.000000 0.000000 0.000000 
0.000000 0.000000 0.000000 

0.000000 -0.000000 0.000000 
0.000000 -0.000000 0.000000 
0.000000 0.000000 0.000000 

-0.000000 0.000000 0.000000 
0.000000 0.000000 0.000000 
0.000000 0.000000 0.000000 

-0.000000 0.000000 0.000000 
0.000000 0.000000 0.000000 
0.000000 0.000000 0.000000 

-0.000000 0.000000 0.000000 
0.000000 0.000000 0.000000 
0.000000 0.000000 0.000000 

-0.000000 -0.000000 0.000000 
0.000000 0.000000 0.000000 
0.000000 0.000000 0.000000 

-0.000000 -0.000000 0.000000 
0.000000 0.000000 0.000000 
0.000000 0.000000 0.000000 

0.000000 -0.000000 0.000000 
0.000000 0.000000 0.000000 
0.000000 0.000000 0.000000 

0.000000 -0.000000 0.000000 
0.000000 -0.000000 0.000000 
0.000000 0.000000 0.000000 

0.000000 0.000000 0.000000 
0.000000 -0.000000 0.000000 
0.000000 0.000000 0.000000 

-0.000000 0.000000 0.000000 
0.000000 0.000000 0.000000 
0.000000 0.000000 0.000000 

-0.000000 -0.000000 0.000000 
0.000000 -0.000000 0.000000 
0.000000 0.000000 0.000000 

-0.000000 -0.000000 0.000000 
0.000000 0.000000 0.000000 
0.000000 0.000000 0.000000 

-0.000000 -0.000000 0.000000 
0.000000 -0.000000 0.000000 
0.000000 0.000000 0.000000 

-0.000000 -0.000000 0.000000 
0.000000 -0.000000 0.000000 
0.000000 0.000000 0.000000 

-0.000000 0.000000 0.000000 
0.000000 0.000000 0.000000 
0.000000 0.000000 0.000000 

-0.000000 0.000000 0.000000 
0.000000 0.000000 0.000000 
0.000000 0.000000 0.000000 

0.000000 0.000000 0.000000 
0.000000 0.000000 0.000000 
0.000000 0.000000 0.000000 

-0.000000 -0.000000 0.000000 
0.000000 0.000000 0.000000 
0.000000 0.000000 0.000000 

-0.000000 -0.000000 0.000000 
0.000000 0.000000 0.000000 
0.000000 0.000000 0.000000 

-0.000000 0.000000 0.000000 
0.000000 -0.000000 0.000000 
0.000000 0.000000 0.000000 

-0.000000 0.000000 0.000000 
0.000000 0.000000 0.000000 
0.000000 0.000000 0.000000 

0.000000 0.000000 0.000000 
0.000000 0.000000 0.000000 
0.000000 0.000000 0.000000 

0.000000 -0.000000 0.000000 
0.000000 -0.000000 0.000000 
0.000000 0.000000 0.000000 

0.000000 -0.000000 0.000000 
0.000000 0.000000 0.000000 
0.000000 0.000000 0.000000 

0.000000 0.000000 0.000000 
0.000000 0.000000 0.000000 
0.000000 0.000000 0.000000 

-0.000000 0.000000 0.000000 
0.000000 -0.000000 0.000000 
0.000000 0.000000 0.000000 

-0.000000 -0.000000 0.000000 
0.000000 0.000000 0.000000 
0.000000 0.000000 0.000000 

-0.000000 0.000000 0.000000 
0.000000 0.000000 0.000000 
0.000000 0.000000 0.000000 

-0.000000 0.000000 0.000000 
0.000000 0.000000 0.000000 
0.000000 0.000000 0.000000 

0.000000 -0.000000 0.000000 
0.000000 0.000000 0.000000 
0.000000 0.000000 0.000000 

-0.000000 -0.000000 0.000000 
0.000000 0.000000 0.000000 
0.000000 0.000000 0.000000 

0.000000 0.000000 0.000000 
0.000000 0.000000 0.000000 
0.000000 0.000000 0.000000 

0.000000 0.000000 0.000000 
0.000000 -0.000000 0.000000 
0.000000 0.000000 0.000000 

-0.000000 0.000000 0.000000 
0.000000 -0.000000 0.000000 
0.000000 0.000000 0.000000 

-0.000000 0.000000 0.000000 
0.000000 -0.000000 0.000000 
0.000000 0.000000 0.000000 

