# vtk DataFile Version 3.0 
vtk output 
ASCII 
DATASET UNSTRUCTURED_GRID 
POINTS 175 float 
-0.026061 -2.286844 0.000000 
-0.106992 -2.218788 0.000000 
-0.054870 -2.227021 0.000000 
-0.028809 -2.181137 0.000000 
-0.186430 -2.154713 0.000000 
-0.137056 -2.157239 0.000000 
-0.114311 -2.103591 0.000000 
-0.058186 -2.119257 0.000000 
-0.029377 -2.079080 0.000000 
-0.265318 -2.091557 0.000000 
-0.217198 -2.092356 0.000000 
-0.196633 -2.035060 0.000000 
-0.143120 -2.043769 0.000000 
-0.116563 -1.996500 0.000000 
-0.058945 -2.016146 0.000000 
-0.029568 -1.978026 0.000000 
-0.344206 -2.028401 0.000000 
-0.296791 -2.028394 0.000000 
-0.278030 -1.968451 0.000000 
-0.225992 -1.974317 0.000000 
-0.201664 -1.922200 0.000000 
-0.145749 -1.935674 0.000000 
-0.117890 -1.891332 0.000000 
-0.059328 -1.914037 0.000000 
-0.029759 -1.876972 0.000000 
-0.058559 -2.327594 0.000000 
-0.162226 -2.348437 0.000000 
-0.123292 -2.312819 0.000000 
-0.142917 -2.263836 0.000000 
-0.261851 -2.370593 0.000000 
-0.229092 -2.333566 0.000000 
-0.256854 -2.282335 0.000000 
-0.209613 -2.248222 0.000000 
-0.223062 -2.200648 0.000000 
-0.360414 -2.392893 0.000000 
-0.329787 -2.355771 0.000000 
-0.361761 -2.303968 0.000000 
-0.321587 -2.267560 0.000000 
-0.341985 -2.217326 0.000000 
-0.290702 -2.184527 0.000000 
-0.302189 -2.137791 0.000000 
-0.458977 -2.415194 0.000000 
-0.429420 -2.378119 0.000000 
-0.464588 -2.326077 0.000000 
-0.427556 -2.289050 0.000000 
-0.453135 -2.237535 0.000000 
-0.407738 -2.202220 0.000000 
-0.425037 -2.152791 0.000000 
-0.370772 -2.121162 0.000000 
-0.381315 -2.074935 0.000000 
-0.046960 -2.378409 0.000000 
-0.095301 -2.472455 0.000000 
-0.098873 -2.419808 0.000000 
-0.149405 -2.404611 0.000000 
-0.140093 -2.564159 0.000000 
-0.148617 -2.515461 0.000000 
-0.205981 -2.505224 0.000000 
-0.203197 -2.447021 0.000000 
-0.248777 -2.427874 0.000000 
-0.184111 -2.655123 0.000000 
-0.194039 -2.608032 0.000000 
-0.254475 -2.600732 0.000000 
-0.257893 -2.546623 0.000000 
-0.309886 -2.531250 0.000000 
-0.303554 -2.470705 0.000000 
-0.347255 -2.450547 0.000000 
-0.228129 -2.746087 0.000000 
-0.238687 -2.699862 0.000000 
-0.301302 -2.694910 0.000000 
-0.307162 -2.642871 0.000000 
-0.363386 -2.630750 0.000000 
-0.362692 -2.573239 0.000000 
-0.412122 -2.555946 0.000000 
-0.403017 -2.493799 0.000000 
-0.445733 -2.473220 0.000000 
-0.000000 -2.401024 0.000000 
0.043388 -2.497455 0.000000 
-0.000000 -2.467423 0.000000 
-0.043388 -2.497455 0.000000 
0.087158 -2.589652 0.000000 
0.043769 -2.565953 0.000000 
-0.000000 -2.604419 0.000000 
-0.043769 -2.565953 0.000000 
-0.087158 -2.589652 0.000000 
0.130831 -2.680781 0.000000 
0.087824 -2.659183 0.000000 
0.044436 -2.701882 0.000000 
-0.000000 -2.670817 0.000000 
-0.044436 -2.701882 0.000000 
-0.087824 -2.659183 0.000000 
-0.130831 -2.680781 0.000000 
0.174505 -2.771911 0.000000 
0.131782 -2.751345 0.000000 
0.088871 -2.797211 0.000000 
0.044532 -2.769348 0.000000 
-0.000000 -2.805748 0.000000 
-0.044532 -2.769348 0.000000 
-0.088871 -2.797211 0.000000 
-0.131782 -2.751345 0.000000 
-0.174505 -2.771911 0.000000 
0.046960 -2.378409 0.000000 
0.149405 -2.404611 0.000000 
0.098873 -2.419808 0.000000 
0.095301 -2.472455 0.000000 
0.248777 -2.427874 0.000000 
0.203197 -2.447021 0.000000 
0.205981 -2.505224 0.000000 
0.148617 -2.515461 0.000000 
0.140093 -2.564159 0.000000 
0.347255 -2.450547 0.000000 
0.303554 -2.470705 0.000000 
0.309886 -2.531250 0.000000 
0.257893 -2.546623 0.000000 
0.254475 -2.600732 0.000000 
0.194039 -2.608032 0.000000 
0.184111 -2.655123 0.000000 
0.445733 -2.473220 0.000000 
0.403017 -2.493799 0.000000 
0.412122 -2.555946 0.000000 
0.362692 -2.573239 0.000000 
0.363386 -2.630750 0.000000 
0.307162 -2.642871 0.000000 
0.301302 -2.694910 0.000000 
0.238687 -2.699862 0.000000 
0.228129 -2.746087 0.000000 
0.058559 -2.327594 0.000000 
0.142917 -2.263836 0.000000 
0.123292 -2.312819 0.000000 
0.162226 -2.348437 0.000000 
0.223062 -2.200648 0.000000 
0.209613 -2.248222 0.000000 
0.256854 -2.282335 0.000000 
0.229092 -2.333566 0.000000 
0.261851 -2.370593 0.000000 
0.302189 -2.137791 0.000000 
0.290702 -2.184527 0.000000 
0.341985 -2.217326 0.000000 
0.321587 -2.267560 0.000000 
0.361761 -2.303968 0.000000 
0.329787 -2.355771 0.000000 
0.360414 -2.392893 0.000000 
0.381315 -2.074935 0.000000 
0.370772 -2.121162 0.000000 
0.425037 -2.152791 0.000000 
0.407738 -2.202220 0.000000 
0.453135 -2.237535 0.000000 
0.427556 -2.289050 0.000000 
0.464588 -2.326077 0.000000 
0.429420 -2.378119 0.000000 
0.458977 -2.415194 0.000000 
0.026061 -2.286844 0.000000 
0.028809 -2.181137 0.000000 
0.054870 -2.227021 0.000000 
0.106992 -2.218788 0.000000 
0.029377 -2.079080 0.000000 
0.058186 -2.119257 0.000000 
0.114311 -2.103591 0.000000 
0.137056 -2.157239 0.000000 
0.186430 -2.154713 0.000000 
0.029568 -1.978026 0.000000 
0.058945 -2.016146 0.000000 
0.116563 -1.996500 0.000000 
0.143120 -2.043769 0.000000 
0.196633 -2.035060 0.000000 
0.217198 -2.092356 0.000000 
0.265318 -2.091557 0.000000 
0.029759 -1.876972 0.000000 
0.059328 -1.914037 0.000000 
0.117890 -1.891332 0.000000 
0.145749 -1.935674 0.000000 
0.201664 -1.922200 0.000000 
0.225992 -1.974317 0.000000 
0.278030 -1.968451 0.000000 
0.296791 -2.028394 0.000000 
0.344206 -2.028401 0.000000 
CELLS 175 350 
1 0 
1 1 
1 2 
1 3 
1 4 
1 5 
1 6 
1 7 
1 8 
1 9 
1 10 
1 11 
1 12 
1 13 
1 14 
1 15 
1 16 
1 17 
1 18 
1 19 
1 20 
1 21 
1 22 
1 23 
1 24 
1 25 
1 26 
1 27 
1 28 
1 29 
1 30 
1 31 
1 32 
1 33 
1 34 
1 35 
1 36 
1 37 
1 38 
1 39 
1 40 
1 41 
1 42 
1 43 
1 44 
1 45 
1 46 
1 47 
1 48 
1 49 
1 50 
1 51 
1 52 
1 53 
1 54 
1 55 
1 56 
1 57 
1 58 
1 59 
1 60 
1 61 
1 62 
1 63 
1 64 
1 65 
1 66 
1 67 
1 68 
1 69 
1 70 
1 71 
1 72 
1 73 
1 74 
1 75 
1 76 
1 77 
1 78 
1 79 
1 80 
1 81 
1 82 
1 83 
1 84 
1 85 
1 86 
1 87 
1 88 
1 89 
1 90 
1 91 
1 92 
1 93 
1 94 
1 95 
1 96 
1 97 
1 98 
1 99 
1 100 
1 101 
1 102 
1 103 
1 104 
1 105 
1 106 
1 107 
1 108 
1 109 
1 110 
1 111 
1 112 
1 113 
1 114 
1 115 
1 116 
1 117 
1 118 
1 119 
1 120 
1 121 
1 122 
1 123 
1 124 
1 125 
1 126 
1 127 
1 128 
1 129 
1 130 
1 131 
1 132 
1 133 
1 134 
1 135 
1 136 
1 137 
1 138 
1 139 
1 140 
1 141 
1 142 
1 143 
1 144 
1 145 
1 146 
1 147 
1 148 
1 149 
1 150 
1 151 
1 152 
1 153 
1 154 
1 155 
1 156 
1 157 
1 158 
1 159 
1 160 
1 161 
1 162 
1 163 
1 164 
1 165 
1 166 
1 167 
1 168 
1 169 
1 170 
1 171 
1 172 
1 173 
1 174 
CELL_TYPES 175 
1 
1 
1 
1 
1 
1 
1 
1 
1 
1 
1 
1 
1 
1 
1 
1 
1 
1 
1 
1 
1 
1 
1 
1 
1 
1 
1 
1 
1 
1 
1 
1 
1 
1 
1 
1 
1 
1 
1 
1 
1 
1 
1 
1 
1 
1 
1 
1 
1 
1 
1 
1 
1 
1 
1 
1 
1 
1 
1 
1 
1 
1 
1 
1 
1 
1 
1 
1 
1 
1 
1 
1 
1 
1 
1 
1 
1 
1 
1 
1 
1 
1 
1 
1 
1 
1 
1 
1 
1 
1 
1 
1 
1 
1 
1 
1 
1 
1 
1 
1 
1 
1 
1 
1 
1 
1 
1 
1 
1 
1 
1 
1 
1 
1 
1 
1 
1 
1 
1 
1 
1 
1 
1 
1 
1 
1 
1 
1 
1 
1 
1 
1 
1 
1 
1 
1 
1 
1 
1 
1 
1 
1 
1 
1 
1 
1 
1 
1 
1 
1 
1 
1 
1 
1 
1 
1 
1 
1 
1 
1 
1 
1 
1 
1 
1 
1 
1 
1 
1 
1 
1 
1 
1 
1 
1 
POINT_DATA 175 
VECTORS X_GC float 
-0.026061 -2.286844 0.000000 
-0.106992 -2.218788 0.000000 
-0.054870 -2.227021 0.000000 
-0.028809 -2.181137 0.000000 
-0.186430 -2.154713 0.000000 
-0.137056 -2.157239 0.000000 
-0.114311 -2.103591 0.000000 
-0.058186 -2.119257 0.000000 
-0.029377 -2.079080 0.000000 
-0.265318 -2.091557 0.000000 
-0.217198 -2.092356 0.000000 
-0.196633 -2.035060 0.000000 
-0.143120 -2.043769 0.000000 
-0.116563 -1.996500 0.000000 
-0.058945 -2.016146 0.000000 
-0.029568 -1.978026 0.000000 
-0.344206 -2.028401 0.000000 
-0.296791 -2.028394 0.000000 
-0.278030 -1.968451 0.000000 
-0.225992 -1.974317 0.000000 
-0.201664 -1.922200 0.000000 
-0.145749 -1.935674 0.000000 
-0.117890 -1.891332 0.000000 
-0.059328 -1.914037 0.000000 
-0.029759 -1.876972 0.000000 
-0.058559 -2.327594 0.000000 
-0.162226 -2.348437 0.000000 
-0.123292 -2.312819 0.000000 
-0.142917 -2.263836 0.000000 
-0.261851 -2.370593 0.000000 
-0.229092 -2.333566 0.000000 
-0.256854 -2.282335 0.000000 
-0.209613 -2.248222 0.000000 
-0.223062 -2.200648 0.000000 
-0.360414 -2.392893 0.000000 
-0.329787 -2.355771 0.000000 
-0.361761 -2.303968 0.000000 
-0.321587 -2.267560 0.000000 
-0.341985 -2.217326 0.000000 
-0.290702 -2.184527 0.000000 
-0.302189 -2.137791 0.000000 
-0.458977 -2.415194 0.000000 
-0.429420 -2.378119 0.000000 
-0.464588 -2.326077 0.000000 
-0.427556 -2.289050 0.000000 
-0.453135 -2.237535 0.000000 
-0.407738 -2.202220 0.000000 
-0.425037 -2.152791 0.000000 
-0.370772 -2.121162 0.000000 
-0.381315 -2.074935 0.000000 
-0.046960 -2.378409 0.000000 
-0.095301 -2.472455 0.000000 
-0.098873 -2.419808 0.000000 
-0.149405 -2.404611 0.000000 
-0.140093 -2.564159 0.000000 
-0.148617 -2.515461 0.000000 
-0.205981 -2.505224 0.000000 
-0.203197 -2.447021 0.000000 
-0.248777 -2.427874 0.000000 
-0.184111 -2.655123 0.000000 
-0.194039 -2.608032 0.000000 
-0.254475 -2.600732 0.000000 
-0.257893 -2.546623 0.000000 
-0.309886 -2.531250 0.000000 
-0.303554 -2.470705 0.000000 
-0.347255 -2.450547 0.000000 
-0.228129 -2.746087 0.000000 
-0.238687 -2.699862 0.000000 
-0.301302 -2.694910 0.000000 
-0.307162 -2.642871 0.000000 
-0.363386 -2.630750 0.000000 
-0.362692 -2.573239 0.000000 
-0.412122 -2.555946 0.000000 
-0.403017 -2.493799 0.000000 
-0.445733 -2.473220 0.000000 
-0.000000 -2.401024 0.000000 
0.043388 -2.497455 0.000000 
-0.000000 -2.467423 0.000000 
-0.043388 -2.497455 0.000000 
0.087158 -2.589652 0.000000 
0.043769 -2.565953 0.000000 
-0.000000 -2.604419 0.000000 
-0.043769 -2.565953 0.000000 
-0.087158 -2.589652 0.000000 
0.130831 -2.680781 0.000000 
0.087824 -2.659183 0.000000 
0.044436 -2.701882 0.000000 
-0.000000 -2.670817 0.000000 
-0.044436 -2.701882 0.000000 
-0.087824 -2.659183 0.000000 
-0.130831 -2.680781 0.000000 
0.174505 -2.771911 0.000000 
0.131782 -2.751345 0.000000 
0.088871 -2.797211 0.000000 
0.044532 -2.769348 0.000000 
-0.000000 -2.805748 0.000000 
-0.044532 -2.769348 0.000000 
-0.088871 -2.797211 0.000000 
-0.131782 -2.751345 0.000000 
-0.174505 -2.771911 0.000000 
0.046960 -2.378409 0.000000 
0.149405 -2.404611 0.000000 
0.098873 -2.419808 0.000000 
0.095301 -2.472455 0.000000 
0.248777 -2.427874 0.000000 
0.203197 -2.447021 0.000000 
0.205981 -2.505224 0.000000 
0.148617 -2.515461 0.000000 
0.140093 -2.564159 0.000000 
0.347255 -2.450547 0.000000 
0.303554 -2.470705 0.000000 
0.309886 -2.531250 0.000000 
0.257893 -2.546623 0.000000 
0.254475 -2.600732 0.000000 
0.194039 -2.608032 0.000000 
0.184111 -2.655123 0.000000 
0.445733 -2.473220 0.000000 
0.403017 -2.493799 0.000000 
0.412122 -2.555946 0.000000 
0.362692 -2.573239 0.000000 
0.363386 -2.630750 0.000000 
0.307162 -2.642871 0.000000 
0.301302 -2.694910 0.000000 
0.238687 -2.699862 0.000000 
0.228129 -2.746087 0.000000 
0.058559 -2.327594 0.000000 
0.142917 -2.263836 0.000000 
0.123292 -2.312819 0.000000 
0.162226 -2.348437 0.000000 
0.223062 -2.200648 0.000000 
0.209613 -2.248222 0.000000 
0.256854 -2.282335 0.000000 
0.229092 -2.333566 0.000000 
0.261851 -2.370593 0.000000 
0.302189 -2.137791 0.000000 
0.290702 -2.184527 0.000000 
0.341985 -2.217326 0.000000 
0.321587 -2.267560 0.000000 
0.361761 -2.303968 0.000000 
0.329787 -2.355771 0.000000 
0.360414 -2.392893 0.000000 
0.381315 -2.074935 0.000000 
0.370772 -2.121162 0.000000 
0.425037 -2.152791 0.000000 
0.407738 -2.202220 0.000000 
0.453135 -2.237535 0.000000 
0.427556 -2.289050 0.000000 
0.464588 -2.326077 0.000000 
0.429420 -2.378119 0.000000 
0.458977 -2.415194 0.000000 
0.026061 -2.286844 0.000000 
0.028809 -2.181137 0.000000 
0.054870 -2.227021 0.000000 
0.106992 -2.218788 0.000000 
0.029377 -2.079080 0.000000 
0.058186 -2.119257 0.000000 
0.114311 -2.103591 0.000000 
0.137056 -2.157239 0.000000 
0.186430 -2.154713 0.000000 
0.029568 -1.978026 0.000000 
0.058945 -2.016146 0.000000 
0.116563 -1.996500 0.000000 
0.143120 -2.043769 0.000000 
0.196633 -2.035060 0.000000 
0.217198 -2.092356 0.000000 
0.265318 -2.091557 0.000000 
0.029759 -1.876972 0.000000 
0.059328 -1.914037 0.000000 
0.117890 -1.891332 0.000000 
0.145749 -1.935674 0.000000 
0.201664 -1.922200 0.000000 
0.225992 -1.974317 0.000000 
0.278030 -1.968451 0.000000 
0.296791 -2.028394 0.000000 
0.344206 -2.028401 0.000000 
VECTORS X_EC float 
0.338794 -0.627613 0.000000 
-0.609100 0.453639 0.000000 
0.713312 0.564780 0.000000 
0.374519 -0.054650 0.000000 
0.423588 -0.411380 0.000000 
-0.218274 -0.377277 0.000000 
-0.513962 0.898484 0.000000 
0.756418 -0.890030 0.000000 
0.381900 0.567578 0.000000 
-0.550868 0.736016 0.000000 
0.823577 0.746812 0.000000 
0.556234 -0.026692 0.000000 
-0.139443 0.090877 0.000000 
-0.484677 -0.547248 0.000000 
0.766286 -0.282033 0.000000 
0.384386 -0.796653 0.000000 
0.474677 -0.116587 0.000000 
-0.141715 -0.116683 0.000000 
-0.385608 -0.925911 0.000000 
0.937896 -0.846716 0.000000 
0.621631 0.449704 0.000000 
-0.105264 0.631603 0.000000 
-0.467428 0.032977 0.000000 
0.771260 0.339506 0.000000 
0.386873 -0.160884 0.000000 
0.761262 -0.077478 0.000000 
0.108942 0.203898 0.000000 
-0.397202 -0.276941 0.000000 
-0.142083 -0.938216 0.000000 
-0.595936 0.503009 0.000000 
0.978194 0.003143 0.000000 
-0.660903 -0.688482 0.000000 
0.724964 0.850998 0.000000 
0.899809 0.208749 0.000000 
0.685384 0.804061 0.000000 
0.287229 0.302903 0.000000 
0.702895 -0.396426 0.000000 
0.180633 -0.887945 0.000000 
0.445811 0.433896 0.000000 
-0.220880 -0.008890 0.000000 
-0.071546 -0.639816 0.000000 
-0.033296 -0.894887 0.000000 
-0.417537 0.604604 0.000000 
0.039645 -0.097959 0.000000 
-0.441768 -0.597830 0.000000 
-0.109248 0.706719 0.000000 
-0.699407 0.229964 0.000000 
-0.474522 -0.437315 0.000000 
0.820030 -0.864309 0.000000 
0.957100 0.511620 0.000000 
0.610485 0.608528 0.000000 
-0.761092 -0.121853 0.000000 
-0.714655 -0.832590 0.000000 
-0.057734 0.962243 0.000000 
-0.178789 -0.883848 0.000000 
-0.067979 0.458725 0.000000 
0.677748 0.320522 0.000000 
0.641556 -0.465223 0.000000 
-0.765897 -0.723702 0.000000 
0.393446 0.344161 0.000000 
0.522510 -0.291569 0.000000 
-0.691820 -0.390114 0.000000 
-0.647393 0.879404 0.000000 
0.028512 0.671877 0.000000 
-0.053800 -0.145483 0.000000 
0.514316 -0.417614 0.000000 
0.965681 -0.427830 0.000000 
-0.897068 0.948141 0.000000 
-0.083078 0.881288 0.000000 
-0.006893 0.178763 0.000000 
0.724017 0.015131 0.000000 
0.714996 -0.761273 0.000000 
-0.642413 -0.994730 0.000000 
-0.760780 0.166289 0.000000 
-0.205471 -0.111526 0.000000 
0.000000 0.913830 0.000000 
-0.564049 0.215642 0.000000 
0.000000 -0.189794 0.000000 
0.564049 0.215642 0.000000 
0.866949 -0.539702 0.000000 
-0.569003 -0.859633 0.000000 
0.000000 -0.340345 0.000000 
0.569003 -0.859633 0.000000 
-0.866949 -0.539702 0.000000 
0.299194 0.690548 0.000000 
0.858290 0.398964 0.000000 
-0.577662 0.975410 0.000000 
0.000000 0.556032 0.000000 
0.577662 0.975410 0.000000 
-0.858290 0.398964 0.000000 
-0.299194 0.690548 0.000000 
-0.268560 -0.079202 0.000000 
0.286830 -0.356844 0.000000 
0.844677 0.262355 0.000000 
-0.578910 -0.113808 0.000000 
0.000000 0.377596 0.000000 
0.578910 -0.113808 0.000000 
-0.844677 0.262355 0.000000 
-0.286830 -0.356844 0.000000 
0.268560 -0.079202 0.000000 
-0.610485 0.608528 0.000000 
0.057734 0.962243 0.000000 
0.714655 -0.832590 0.000000 
0.761092 -0.121853 0.000000 
0.765897 -0.723702 0.000000 
-0.641556 -0.465223 0.000000 
-0.677748 0.320522 0.000000 
0.067979 0.458725 0.000000 
0.178789 -0.883848 0.000000 
-0.514316 -0.417614 0.000000 
0.053800 -0.145483 0.000000 
-0.028512 0.671877 0.000000 
0.647393 0.879404 0.000000 
0.691820 -0.390113 0.000000 
-0.522510 -0.291569 0.000000 
-0.393446 0.344161 0.000000 
0.205471 -0.111526 0.000000 
0.760780 0.166289 0.000000 
0.642413 -0.994730 0.000000 
-0.714996 -0.761273 0.000000 
-0.724017 0.015131 0.000000 
0.006894 0.178763 0.000000 
0.083078 0.881288 0.000000 
0.897068 0.948141 0.000000 
-0.965681 -0.427830 0.000000 
-0.761262 -0.077478 0.000000 
0.142083 -0.938216 0.000000 
0.397202 -0.276941 0.000000 
-0.108942 0.203898 0.000000 
-0.899809 0.208749 0.000000 
-0.724964 0.850998 0.000000 
0.660903 -0.688482 0.000000 
-0.978194 0.003143 0.000000 
0.595936 0.503009 0.000000 
0.071546 -0.639816 0.000000 
0.220880 -0.008890 0.000000 
-0.445811 0.433896 0.000000 
-0.180633 -0.887945 0.000000 
-0.702895 -0.396426 0.000000 
-0.287229 0.302903 0.000000 
-0.685384 0.804061 0.000000 
-0.957100 0.511620 0.000000 
-0.820030 -0.864309 0.000000 
0.474522 -0.437315 0.000000 
0.699407 0.229964 0.000000 
0.109248 0.706719 0.000000 
0.441768 -0.597830 0.000000 
-0.039645 -0.097959 0.000000 
0.417537 0.604604 0.000000 
0.033296 -0.894887 0.000000 
-0.338794 -0.627613 0.000000 
-0.374519 -0.054650 0.000000 
-0.713312 0.564780 0.000000 
0.609100 0.453639 0.000000 
-0.381900 0.567578 0.000000 
-0.756418 -0.890030 0.000000 
0.513962 0.898484 0.000000 
0.218274 -0.377277 0.000000 
-0.423588 -0.411380 0.000000 
-0.384386 -0.796653 0.000000 
-0.766286 -0.282033 0.000000 
0.484677 -0.547248 0.000000 
0.139443 0.090877 0.000000 
-0.556234 -0.026692 0.000000 
-0.823577 0.746812 0.000000 
0.550868 0.736016 0.000000 
-0.386873 -0.160884 0.000000 
-0.771260 0.339506 0.000000 
0.467428 0.032977 0.000000 
0.105264 0.631603 0.000000 
-0.621631 0.449704 0.000000 
-0.937896 -0.846716 0.000000 
0.385608 -0.925911 0.000000 
0.141715 -0.116683 0.000000 
-0.474677 -0.116587 0.000000 
CELL_DATA 175 
SCALARS MASS float 
LOOKUP_TABLE default 
0.078183 
0.086427 
0.094672 
0.086427 
0.088131 
0.092111 
0.085854 
0.092111 
0.088131 
0.088705 
0.091000 
0.086983 
0.091556 
0.086983 
0.091000 
0.088705 
0.089278 
0.091574 
0.089278 
0.092722 
0.089278 
0.092722 
0.089278 
0.091574 
0.089278 
0.078183 
0.086427 
0.094672 
0.086427 
0.088131 
0.092111 
0.085854 
0.092111 
0.088131 
0.088705 
0.091000 
0.086983 
0.091556 
0.086983 
0.091000 
0.088705 
0.089278 
0.091574 
0.089278 
0.092722 
0.089278 
0.092722 
0.089278 
0.091574 
0.089278 
0.078183 
0.086427 
0.094672 
0.086427 
0.088131 
0.092111 
0.085854 
0.092111 
0.088131 
0.088705 
0.091000 
0.086983 
0.091556 
0.086983 
0.091000 
0.088705 
0.089278 
0.091574 
0.089278 
0.092722 
0.089278 
0.092722 
0.089278 
0.091574 
0.089278 
0.078183 
0.086427 
0.094672 
0.086427 
0.088131 
0.092111 
0.085854 
0.092111 
0.088131 
0.088705 
0.091000 
0.086983 
0.091556 
0.086983 
0.091000 
0.088705 
0.089278 
0.091574 
0.089278 
0.092722 
0.089278 
0.092722 
0.089278 
0.091574 
0.089278 
0.078183 
0.086427 
0.094672 
0.086427 
0.088131 
0.092111 
0.085854 
0.092111 
0.088131 
0.088705 
0.091000 
0.086983 
0.091556 
0.086983 
0.091000 
0.088705 
0.089278 
0.091574 
0.089278 
0.092722 
0.089278 
0.092722 
0.089278 
0.091574 
0.089278 
0.078183 
0.086427 
0.094672 
0.086427 
0.088131 
0.092111 
0.085854 
0.092111 
0.088131 
0.088705 
0.091000 
0.086983 
0.091556 
0.086983 
0.091000 
0.088705 
0.089278 
0.091574 
0.089278 
0.092722 
0.089278 
0.092722 
0.089278 
0.091574 
0.089278 
0.078183 
0.086427 
0.094672 
0.086427 
0.088131 
0.092111 
0.085854 
0.092111 
0.088131 
0.088705 
0.091000 
0.086983 
0.091556 
0.086983 
0.091000 
0.088705 
0.089278 
0.091574 
0.089278 
0.092722 
0.089278 
0.092722 
0.089278 
0.091574 
0.089278 
SCALARS MASS float 
LOOKUP_TABLE default 
0.078183 
0.086427 
0.094672 
0.086427 
0.088131 
0.092111 
0.085854 
0.092111 
0.088131 
0.088705 
0.091000 
0.086983 
0.091556 
0.086983 
0.091000 
0.088705 
0.089278 
0.091574 
0.089278 
0.092722 
0.089278 
0.092722 
0.089278 
0.091574 
0.089278 
0.078183 
0.086427 
0.094672 
0.086427 
0.088131 
0.092111 
0.085854 
0.092111 
0.088131 
0.088705 
0.091000 
0.086983 
0.091556 
0.086983 
0.091000 
0.088705 
0.089278 
0.091574 
0.089278 
0.092722 
0.089278 
0.092722 
0.089278 
0.091574 
0.089278 
0.078183 
0.086427 
0.094672 
0.086427 
0.088131 
0.092111 
0.085854 
0.092111 
0.088131 
0.088705 
0.091000 
0.086983 
0.091556 
0.086983 
0.091000 
0.088705 
0.089278 
0.091574 
0.089278 
0.092722 
0.089278 
0.092722 
0.089278 
0.091574 
0.089278 
0.078183 
0.086427 
0.094672 
0.086427 
0.088131 
0.092111 
0.085854 
0.092111 
0.088131 
0.088705 
0.091000 
0.086983 
0.091556 
0.086983 
0.091000 
0.088705 
0.089278 
0.091574 
0.089278 
0.092722 
0.089278 
0.092722 
0.089278 
0.091574 
0.089278 
0.078183 
0.086427 
0.094672 
0.086427 
0.088131 
0.092111 
0.085854 
0.092111 
0.088131 
0.088705 
0.091000 
0.086983 
0.091556 
0.086983 
0.091000 
0.088705 
0.089278 
0.091574 
0.089278 
0.092722 
0.089278 
0.092722 
0.089278 
0.091574 
0.089278 
0.078183 
0.086427 
0.094672 
0.086427 
0.088131 
0.092111 
0.085854 
0.092111 
0.088131 
0.088705 
0.091000 
0.086983 
0.091556 
0.086983 
0.091000 
0.088705 
0.089278 
0.091574 
0.089278 
0.092722 
0.089278 
0.092722 
0.089278 
0.091574 
0.089278 
0.078183 
0.086427 
0.094672 
0.086427 
0.088131 
0.092111 
0.085854 
0.092111 
0.088131 
0.088705 
0.091000 
0.086983 
0.091556 
0.086983 
0.091000 
0.088705 
0.089278 
0.091574 
0.089278 
0.092722 
0.089278 
0.092722 
0.089278 
0.091574 
0.089278 
SCALARS DENSITY float 
LOOKUP_TABLE default 
20.000000 
20.000000 
20.000000 
20.000000 
20.000000 
20.000000 
20.000000 
20.000000 
20.000000 
20.000000 
20.000000 
20.000000 
20.000000 
20.000000 
20.000000 
20.000000 
20.000000 
20.000000 
20.000000 
20.000000 
20.000000 
20.000000 
20.000000 
20.000000 
20.000000 
20.000000 
20.000000 
20.000000 
20.000000 
20.000000 
20.000000 
20.000000 
20.000000 
20.000000 
20.000000 
20.000000 
20.000000 
20.000000 
20.000000 
20.000000 
20.000000 
20.000000 
20.000000 
20.000000 
20.000000 
20.000000 
20.000000 
20.000000 
20.000000 
20.000000 
20.000000 
20.000000 
20.000000 
20.000000 
20.000000 
20.000000 
20.000000 
20.000000 
20.000000 
20.000000 
20.000000 
20.000000 
20.000000 
20.000000 
20.000000 
20.000000 
20.000000 
20.000000 
20.000000 
20.000000 
20.000000 
20.000000 
20.000000 
20.000000 
20.000000 
20.000000 
20.000000 
20.000000 
20.000000 
20.000000 
20.000000 
20.000000 
20.000000 
20.000000 
20.000000 
20.000000 
20.000000 
20.000000 
20.000000 
20.000000 
20.000000 
20.000000 
20.000000 
20.000000 
20.000000 
20.000000 
20.000000 
20.000000 
20.000000 
20.000000 
20.000000 
20.000000 
20.000000 
20.000000 
20.000000 
20.000000 
20.000000 
20.000000 
20.000000 
20.000000 
20.000000 
20.000000 
20.000000 
20.000000 
20.000000 
20.000000 
20.000000 
20.000000 
20.000000 
20.000000 
20.000000 
20.000000 
20.000000 
20.000000 
20.000000 
20.000000 
20.000000 
20.000000 
20.000000 
20.000000 
20.000000 
20.000000 
20.000000 
20.000000 
20.000000 
20.000000 
20.000000 
20.000000 
20.000000 
20.000000 
20.000000 
20.000000 
20.000000 
20.000000 
20.000000 
20.000000 
20.000000 
20.000000 
20.000000 
20.000000 
20.000000 
20.000000 
20.000000 
20.000000 
20.000000 
20.000000 
20.000000 
20.000000 
20.000000 
20.000000 
20.000000 
20.000000 
20.000000 
20.000000 
20.000000 
20.000000 
20.000000 
20.000000 
20.000000 
20.000000 
20.000000 
20.000000 
20.000000 
20.000000 
20.000000 
SCALARS ELEM_i float 
LOOKUP_TABLE default 
166 
194 
167 
167 
194 
194 
195 
167 
168 
222 
195 
195 
195 
195 
168 
168 
222 
222 
222 
195 
196 
196 
196 
169 
169 
166 
193 
193 
193 
220 
193 
220 
194 
194 
220 
220 
220 
220 
221 
221 
221 
246 
247 
247 
247 
248 
248 
248 
221 
222 
166 
192 
192 
193 
191 
192 
192 
192 
219 
191 
191 
218 
219 
219 
219 
219 
190 
218 
218 
218 
218 
218 
245 
246 
246 
166 
165 
165 
165 
137 
164 
164 
164 
191 
137 
137 
164 
164 
164 
191 
191 
136 
136 
136 
163 
163 
163 
190 
190 
190 
166 
139 
138 
138 
111 
138 
138 
138 
137 
111 
111 
111 
111 
110 
137 
137 
84 
84 
83 
110 
110 
110 
110 
110 
136 
166 
139 
139 
139 
140 
140 
112 
139 
112 
113 
113 
113 
112 
112 
112 
112 
114 
113 
86 
86 
86 
85 
85 
85 
84 
166 
167 
167 
140 
168 
167 
141 
140 
140 
168 
168 
141 
141 
141 
141 
114 
169 
169 
142 
142 
142 
141 
114 
114 
114 
VECTORS VELOCITY float 
-0.000000 -6.776748 0.000000 
-0.000000 -6.776748 0.000000 
-0.000000 -6.776748 0.000000 
-0.000000 -6.776748 0.000000 
0.000000 -6.776748 0.000000 
0.000000 -6.776748 0.000000 
0.000000 -6.776748 0.000000 
-0.000000 -6.776748 0.000000 
-0.000000 -6.776748 0.000000 
0.000000 -6.776748 0.000000 
0.000000 -6.776748 0.000000 
0.000000 -6.776748 0.000000 
0.000000 -6.776748 0.000000 
0.000000 -6.776748 0.000000 
0.000000 -6.776748 0.000000 
0.000000 -6.776748 0.000000 
-0.000000 -6.776748 0.000000 
-0.000000 -6.776748 0.000000 
-0.000000 -6.776748 0.000000 
0.000000 -6.776748 0.000000 
0.000000 -6.776748 0.000000 
0.000000 -6.776748 0.000000 
0.000000 -6.776748 0.000000 
-0.000000 -6.776748 0.000000 
-0.000000 -6.776748 0.000000 
0.000000 -6.776748 0.000000 
0.000000 -6.776748 0.000000 
0.000000 -6.776748 0.000000 
-0.000000 -6.776748 0.000000 
0.000000 -6.776748 0.000000 
0.000000 -6.776748 0.000000 
-0.000000 -6.776748 0.000000 
-0.000000 -6.776748 0.000000 
-0.000000 -6.776748 0.000000 
-0.000000 -6.776748 0.000000 
-0.000000 -6.776748 0.000000 
-0.000000 -6.776748 0.000000 
-0.000000 -6.776748 0.000000 
-0.000000 -6.776748 0.000000 
-0.000000 -6.776748 0.000000 
0.000000 -6.776748 0.000000 
-0.000000 -6.776748 0.000000 
0.000000 -6.776748 0.000000 
0.000000 -6.776748 0.000000 
-0.000000 -6.776748 0.000000 
-0.000000 -6.776748 0.000000 
-0.000000 -6.776748 0.000000 
0.000000 -6.776748 0.000000 
0.000000 -6.776748 0.000000 
0.000000 -6.776748 0.000000 
0.000000 -6.776748 0.000000 
-0.000000 -6.776748 0.000000 
0.000000 -6.776748 0.000000 
0.000000 -6.776748 0.000000 
-0.000000 -6.776748 0.000000 
-0.000000 -6.776748 0.000000 
-0.000000 -6.776748 0.000000 
-0.000000 -6.776748 0.000000 
-0.000000 -6.776748 0.000000 
0.000000 -6.776748 0.000000 
0.000000 -6.776748 0.000000 
0.000000 -6.776748 0.000000 
-0.000000 -6.776748 0.000000 
-0.000000 -6.776748 0.000000 
-0.000000 -6.776748 0.000000 
0.000000 -6.776748 0.000000 
0.000000 -6.776748 0.000000 
0.000000 -6.776748 0.000000 
0.000000 -6.776748 0.000000 
0.000000 -6.776748 0.000000 
-0.000000 -6.776748 0.000000 
-0.000000 -6.776748 0.000000 
0.000000 -6.776748 0.000000 
0.000000 -6.776748 0.000000 
0.000000 -6.776748 0.000000 
0.000000 -6.776748 0.000000 
-0.000000 -6.776748 0.000000 
-0.000000 -6.776748 0.000000 
-0.000000 -6.776748 0.000000 
0.000000 -6.776748 0.000000 
-0.000000 -6.776748 0.000000 
0.000000 -6.776748 0.000000 
-0.000000 -6.776748 0.000000 
-0.000000 -6.776748 0.000000 
0.000000 -6.776748 0.000000 
0.000000 -6.776748 0.000000 
0.000000 -6.776748 0.000000 
-0.000000 -6.776748 0.000000 
0.000000 -6.776748 0.000000 
-0.000000 -6.776748 0.000000 
0.000000 -6.776748 0.000000 
-0.000000 -6.776748 0.000000 
-0.000000 -6.776748 0.000000 
-0.000000 -6.776748 0.000000 
-0.000000 -6.776748 0.000000 
-0.000000 -6.776748 0.000000 
-0.000000 -6.776748 0.000000 
-0.000000 -6.776748 0.000000 
0.000000 -6.776748 0.000000 
-0.000000 -6.776748 0.000000 
-0.000000 -6.776748 0.000000 
-0.000000 -6.776748 0.000000 
0.000000 -6.776748 0.000000 
-0.000000 -6.776748 0.000000 
-0.000000 -6.776748 0.000000 
-0.000000 -6.776748 0.000000 
0.000000 -6.776748 0.000000 
-0.000000 -6.776748 0.000000 
-0.000000 -6.776748 0.000000 
0.000000 -6.776748 0.000000 
0.000000 -6.776748 0.000000 
0.000000 -6.776748 0.000000 
0.000000 -6.776748 0.000000 
0.000000 -6.776748 0.000000 
0.000000 -6.776748 0.000000 
0.000000 -6.776748 0.000000 
0.000000 -6.776748 0.000000 
0.000000 -6.776748 0.000000 
0.000000 -6.776748 0.000000 
0.000000 -6.776748 0.000000 
0.000000 -6.776748 0.000000 
0.000000 -6.776748 0.000000 
-0.000000 -6.776748 0.000000 
0.000000 -6.776748 0.000000 
-0.000000 -6.776748 0.000000 
-0.000000 -6.776748 0.000000 
0.000000 -6.776748 0.000000 
-0.000000 -6.776748 0.000000 
-0.000000 -6.776748 0.000000 
-0.000000 -6.776748 0.000000 
0.000000 -6.776748 0.000000 
0.000000 -6.776748 0.000000 
0.000000 -6.776748 0.000000 
0.000000 -6.776748 0.000000 
0.000000 -6.776748 0.000000 
-0.000000 -6.776748 0.000000 
-0.000000 -6.776748 0.000000 
0.000000 -6.776748 0.000000 
0.000000 -6.776748 0.000000 
0.000000 -6.776748 0.000000 
0.000000 -6.776748 0.000000 
0.000000 -6.776748 0.000000 
0.000000 -6.776748 0.000000 
-0.000000 -6.776748 0.000000 
-0.000000 -6.776748 0.000000 
-0.000000 -6.776748 0.000000 
0.000000 -6.776748 0.000000 
0.000000 -6.776748 0.000000 
0.000000 -6.776748 0.000000 
-0.000000 -6.776748 0.000000 
-0.000000 -6.776748 0.000000 
0.000000 -6.776748 0.000000 
0.000000 -6.776748 0.000000 
0.000000 -6.776748 0.000000 
0.000000 -6.776748 0.000000 
0.000000 -6.776748 0.000000 
-0.000000 -6.776748 0.000000 
0.000000 -6.776748 0.000000 
-0.000000 -6.776748 0.000000 
0.000000 -6.776748 0.000000 
0.000000 -6.776748 0.000000 
0.000000 -6.776748 0.000000 
-0.000000 -6.776748 0.000000 
-0.000000 -6.776748 0.000000 
0.000000 -6.776748 0.000000 
0.000000 -6.776748 0.000000 
-0.000000 -6.776748 0.000000 
0.000000 -6.776748 0.000000 
-0.000000 -6.776748 0.000000 
-0.000000 -6.776748 0.000000 
0.000000 -6.776748 0.000000 
0.000000 -6.776748 0.000000 
-0.000000 -6.776748 0.000000 
-0.000000 -6.776748 0.000000 
0.000000 -6.776748 0.000000 
TENSORS STRESS float 
0.000000 -0.000000 0.000000 
0.000000 0.000000 0.000000 
0.000000 0.000000 0.000000 

0.000000 -0.000000 0.000000 
0.000000 0.000000 0.000000 
0.000000 0.000000 0.000000 

0.000000 0.000000 0.000000 
0.000000 -0.000000 0.000000 
0.000000 0.000000 0.000000 

0.000000 0.000000 0.000000 
0.000000 -0.000000 0.000000 
0.000000 0.000000 0.000000 

0.000000 -0.000000 0.000000 
0.000000 -0.000000 0.000000 
0.000000 0.000000 0.000000 

0.000000 -0.000000 0.000000 
0.000000 0.000000 0.000000 
0.000000 0.000000 0.000000 

0.000000 0.000000 0.000000 
0.000000 0.000000 0.000000 
0.000000 0.000000 0.000000 

0.000000 0.000000 0.000000 
0.000000 -0.000000 0.000000 
0.000000 0.000000 0.000000 

-0.000000 0.000000 0.000000 
0.000000 -0.000000 0.000000 
0.000000 0.000000 0.000000 

0.000000 -0.000000 0.000000 
0.000000 0.000000 0.000000 
0.000000 0.000000 0.000000 

0.000000 0.000000 0.000000 
0.000000 -0.000000 0.000000 
0.000000 0.000000 0.000000 

0.000000 0.000000 0.000000 
0.000000 0.000000 0.000000 
0.000000 0.000000 0.000000 

0.000000 -0.000000 0.000000 
0.000000 0.000000 0.000000 
0.000000 0.000000 0.000000 

0.000000 -0.000000 0.000000 
0.000000 0.000000 0.000000 
0.000000 0.000000 0.000000 

0.000000 -0.000000 0.000000 
0.000000 0.000000 0.000000 
0.000000 0.000000 0.000000 

0.000000 -0.000000 0.000000 
0.000000 -0.000000 0.000000 
0.000000 0.000000 0.000000 

0.000000 0.000000 0.000000 
0.000000 -0.000000 0.000000 
0.000000 0.000000 0.000000 

0.000000 -0.000000 0.000000 
0.000000 -0.000000 0.000000 
0.000000 0.000000 0.000000 

-0.000000 0.000000 0.000000 
0.000000 0.000000 0.000000 
0.000000 0.000000 0.000000 

0.000000 0.000000 0.000000 
0.000000 -0.000000 0.000000 
0.000000 0.000000 0.000000 

0.000000 -0.000000 0.000000 
0.000000 0.000000 0.000000 
0.000000 0.000000 0.000000 

0.000000 -0.000000 0.000000 
0.000000 -0.000000 0.000000 
0.000000 0.000000 0.000000 

0.000000 -0.000000 0.000000 
0.000000 0.000000 0.000000 
0.000000 0.000000 0.000000 

0.000000 -0.000000 0.000000 
0.000000 0.000000 0.000000 
0.000000 0.000000 0.000000 

0.000000 -0.000000 0.000000 
0.000000 0.000000 0.000000 
0.000000 0.000000 0.000000 

0.000000 -0.000000 0.000000 
0.000000 0.000000 0.000000 
0.000000 0.000000 0.000000 

0.000000 -0.000000 0.000000 
0.000000 0.000000 0.000000 
0.000000 0.000000 0.000000 

-0.000000 -0.000000 0.000000 
0.000000 -0.000000 0.000000 
0.000000 0.000000 0.000000 

-0.000000 -0.000000 0.000000 
0.000000 0.000000 0.000000 
0.000000 0.000000 0.000000 

-0.000000 0.000000 0.000000 
0.000000 0.000000 0.000000 
0.000000 0.000000 0.000000 

0.000000 0.000000 0.000000 
0.000000 0.000000 0.000000 
0.000000 0.000000 0.000000 

-0.000000 -0.000000 0.000000 
0.000000 -0.000000 0.000000 
0.000000 0.000000 0.000000 

-0.000000 -0.000000 0.000000 
0.000000 -0.000000 0.000000 
0.000000 0.000000 0.000000 

0.000000 -0.000000 0.000000 
0.000000 0.000000 0.000000 
0.000000 0.000000 0.000000 

-0.000000 0.000000 0.000000 
0.000000 0.000000 0.000000 
0.000000 0.000000 0.000000 

-0.000000 0.000000 0.000000 
0.000000 0.000000 0.000000 
0.000000 0.000000 0.000000 

-0.000000 0.000000 0.000000 
0.000000 0.000000 0.000000 
0.000000 0.000000 0.000000 

0.000000 0.000000 0.000000 
0.000000 0.000000 0.000000 
0.000000 0.000000 0.000000 

0.000000 -0.000000 0.000000 
0.000000 -0.000000 0.000000 
0.000000 0.000000 0.000000 

0.000000 -0.000000 0.000000 
0.000000 -0.000000 0.000000 
0.000000 0.000000 0.000000 

0.000000 0.000000 0.000000 
0.000000 0.000000 0.000000 
0.000000 0.000000 0.000000 

-0.000000 -0.000000 0.000000 
0.000000 -0.000000 0.000000 
0.000000 0.000000 0.000000 

0.000000 -0.000000 0.000000 
0.000000 0.000000 0.000000 
0.000000 0.000000 0.000000 

0.000000 0.000000 0.000000 
0.000000 -0.000000 0.000000 
0.000000 0.000000 0.000000 

0.000000 0.000000 0.000000 
0.000000 -0.000000 0.000000 
0.000000 0.000000 0.000000 

0.000000 0.000000 0.000000 
0.000000 0.000000 0.000000 
0.000000 0.000000 0.000000 

-0.000000 0.000000 0.000000 
0.000000 -0.000000 0.000000 
0.000000 0.000000 0.000000 

0.000000 -0.000000 0.000000 
0.000000 0.000000 0.000000 
0.000000 0.000000 0.000000 

-0.000000 0.000000 0.000000 
0.000000 -0.000000 0.000000 
0.000000 0.000000 0.000000 

0.000000 -0.000000 0.000000 
0.000000 -0.000000 0.000000 
0.000000 0.000000 0.000000 

0.000000 -0.000000 0.000000 
0.000000 0.000000 0.000000 
0.000000 0.000000 0.000000 

0.000000 -0.000000 0.000000 
0.000000 0.000000 0.000000 
0.000000 0.000000 0.000000 

0.000000 -0.000000 0.000000 
0.000000 -0.000000 0.000000 
0.000000 0.000000 0.000000 

0.000000 -0.000000 0.000000 
0.000000 0.000000 0.000000 
0.000000 0.000000 0.000000 

-0.000000 0.000000 0.000000 
0.000000 -0.000000 0.000000 
0.000000 0.000000 0.000000 

-0.000000 0.000000 0.000000 
0.000000 -0.000000 0.000000 
0.000000 0.000000 0.000000 

-0.000000 0.000000 0.000000 
0.000000 -0.000000 0.000000 
0.000000 0.000000 0.000000 

0.000000 0.000000 0.000000 
0.000000 -0.000000 0.000000 
0.000000 0.000000 0.000000 

0.000000 -0.000000 0.000000 
0.000000 0.000000 0.000000 
0.000000 0.000000 0.000000 

0.000000 0.000000 0.000000 
0.000000 -0.000000 0.000000 
0.000000 0.000000 0.000000 

0.000000 0.000000 0.000000 
0.000000 0.000000 0.000000 
0.000000 0.000000 0.000000 

0.000000 0.000000 0.000000 
0.000000 0.000000 0.000000 
0.000000 0.000000 0.000000 

0.000000 0.000000 0.000000 
0.000000 0.000000 0.000000 
0.000000 0.000000 0.000000 

0.000000 -0.000000 0.000000 
0.000000 -0.000000 0.000000 
0.000000 0.000000 0.000000 

0.000000 -0.000000 0.000000 
0.000000 -0.000000 0.000000 
0.000000 0.000000 0.000000 

0.000000 0.000000 0.000000 
0.000000 0.000000 0.000000 
0.000000 0.000000 0.000000 

-0.000000 -0.000000 0.000000 
0.000000 -0.000000 0.000000 
0.000000 0.000000 0.000000 

-0.000000 0.000000 0.000000 
0.000000 -0.000000 0.000000 
0.000000 0.000000 0.000000 

-0.000000 -0.000000 0.000000 
0.000000 -0.000000 0.000000 
0.000000 0.000000 0.000000 

0.000000 0.000000 0.000000 
0.000000 0.000000 0.000000 
0.000000 0.000000 0.000000 

-0.000000 0.000000 0.000000 
0.000000 -0.000000 0.000000 
0.000000 0.000000 0.000000 

0.000000 0.000000 0.000000 
0.000000 0.000000 0.000000 
0.000000 0.000000 0.000000 

0.000000 -0.000000 0.000000 
0.000000 0.000000 0.000000 
0.000000 0.000000 0.000000 

-0.000000 -0.000000 0.000000 
0.000000 0.000000 0.000000 
0.000000 0.000000 0.000000 

-0.000000 -0.000000 0.000000 
0.000000 -0.000000 0.000000 
0.000000 0.000000 0.000000 

-0.000000 0.000000 0.000000 
0.000000 -0.000000 0.000000 
0.000000 0.000000 0.000000 

-0.000000 0.000000 0.000000 
0.000000 0.000000 0.000000 
0.000000 0.000000 0.000000 

-0.000000 -0.000000 0.000000 
0.000000 -0.000000 0.000000 
0.000000 0.000000 0.000000 

-0.000000 0.000000 0.000000 
0.000000 0.000000 0.000000 
0.000000 0.000000 0.000000 

-0.000000 0.000000 0.000000 
0.000000 0.000000 0.000000 
0.000000 0.000000 0.000000 

-0.000000 0.000000 0.000000 
0.000000 -0.000000 0.000000 
0.000000 0.000000 0.000000 

-0.000000 0.000000 0.000000 
0.000000 -0.000000 0.000000 
0.000000 0.000000 0.000000 

-0.000000 0.000000 0.000000 
0.000000 -0.000000 0.000000 
0.000000 0.000000 0.000000 

0.000000 0.000000 0.000000 
0.000000 0.000000 0.000000 
0.000000 0.000000 0.000000 

-0.000000 -0.000000 0.000000 
0.000000 -0.000000 0.000000 
0.000000 0.000000 0.000000 

-0.000000 -0.000000 0.000000 
0.000000 0.000000 0.000000 
0.000000 0.000000 0.000000 

-0.000000 0.000000 0.000000 
0.000000 0.000000 0.000000 
0.000000 0.000000 0.000000 

-0.000000 -0.000000 0.000000 
0.000000 -0.000000 0.000000 
0.000000 0.000000 0.000000 

0.000000 0.000000 0.000000 
0.000000 0.000000 0.000000 
0.000000 0.000000 0.000000 

0.000000 0.000000 0.000000 
0.000000 0.000000 0.000000 
0.000000 0.000000 0.000000 

0.000000 0.000000 0.000000 
0.000000 -0.000000 0.000000 
0.000000 0.000000 0.000000 

-0.000000 -0.000000 0.000000 
0.000000 -0.000000 0.000000 
0.000000 0.000000 0.000000 

-0.000000 -0.000000 0.000000 
0.000000 -0.000000 0.000000 
0.000000 0.000000 0.000000 

-0.000000 -0.000000 0.000000 
0.000000 -0.000000 0.000000 
0.000000 0.000000 0.000000 

-0.000000 0.000000 0.000000 
0.000000 0.000000 0.000000 
0.000000 0.000000 0.000000 

-0.000000 0.000000 0.000000 
0.000000 -0.000000 0.000000 
0.000000 0.000000 0.000000 

-0.000000 0.000000 0.000000 
0.000000 0.000000 0.000000 
0.000000 0.000000 0.000000 

-0.000000 -0.000000 0.000000 
0.000000 0.000000 0.000000 
0.000000 0.000000 0.000000 

-0.000000 -0.000000 0.000000 
0.000000 0.000000 0.000000 
0.000000 0.000000 0.000000 

0.000000 -0.000000 0.000000 
0.000000 0.000000 0.000000 
0.000000 0.000000 0.000000 

-0.000000 0.000000 0.000000 
0.000000 -0.000000 0.000000 
0.000000 0.000000 0.000000 

0.000000 0.000000 0.000000 
0.000000 0.000000 0.000000 
0.000000 0.000000 0.000000 

0.000000 0.000000 0.000000 
0.000000 0.000000 0.000000 
0.000000 0.000000 0.000000 

0.000000 -0.000000 0.000000 
0.000000 -0.000000 0.000000 
0.000000 0.000000 0.000000 

-0.000000 0.000000 0.000000 
0.000000 -0.000000 0.000000 
0.000000 0.000000 0.000000 

0.000000 -0.000000 0.000000 
0.000000 0.000000 0.000000 
0.000000 0.000000 0.000000 

-0.000000 0.000000 0.000000 
0.000000 -0.000000 0.000000 
0.000000 0.000000 0.000000 

-0.000000 -0.000000 0.000000 
0.000000 -0.000000 0.000000 
0.000000 0.000000 0.000000 

-0.000000 -0.000000 0.000000 
0.000000 -0.000000 0.000000 
0.000000 0.000000 0.000000 

-0.000000 -0.000000 0.000000 
0.000000 -0.000000 0.000000 
0.000000 0.000000 0.000000 

0.000000 0.000000 0.000000 
0.000000 0.000000 0.000000 
0.000000 0.000000 0.000000 

-0.000000 -0.000000 0.000000 
0.000000 -0.000000 0.000000 
0.000000 0.000000 0.000000 

-0.000000 0.000000 0.000000 
0.000000 -0.000000 0.000000 
0.000000 0.000000 0.000000 

0.000000 0.000000 0.000000 
0.000000 0.000000 0.000000 
0.000000 0.000000 0.000000 

-0.000000 -0.000000 0.000000 
0.000000 0.000000 0.000000 
0.000000 0.000000 0.000000 

0.000000 -0.000000 0.000000 
0.000000 0.000000 0.000000 
0.000000 0.000000 0.000000 

-0.000000 -0.000000 0.000000 
0.000000 0.000000 0.000000 
0.000000 0.000000 0.000000 

-0.000000 0.000000 0.000000 
0.000000 0.000000 0.000000 
0.000000 0.000000 0.000000 

-0.000000 0.000000 0.000000 
0.000000 0.000000 0.000000 
0.000000 0.000000 0.000000 

0.000000 -0.000000 0.000000 
0.000000 0.000000 0.000000 
0.000000 0.000000 0.000000 

0.000000 0.000000 0.000000 
0.000000 -0.000000 0.000000 
0.000000 0.000000 0.000000 

0.000000 -0.000000 0.000000 
0.000000 0.000000 0.000000 
0.000000 0.000000 0.000000 

-0.000000 -0.000000 0.000000 
0.000000 -0.000000 0.000000 
0.000000 0.000000 0.000000 

0.000000 -0.000000 0.000000 
0.000000 0.000000 0.000000 
0.000000 0.000000 0.000000 

0.000000 -0.000000 0.000000 
0.000000 -0.000000 0.000000 
0.000000 0.000000 0.000000 

0.000000 -0.000000 0.000000 
0.000000 0.000000 0.000000 
0.000000 0.000000 0.000000 

0.000000 -0.000000 0.000000 
0.000000 -0.000000 0.000000 
0.000000 0.000000 0.000000 

0.000000 -0.000000 0.000000 
0.000000 0.000000 0.000000 
0.000000 0.000000 0.000000 

0.000000 -0.000000 0.000000 
0.000000 0.000000 0.000000 
0.000000 0.000000 0.000000 

-0.000000 -0.000000 0.000000 
0.000000 -0.000000 0.000000 
0.000000 0.000000 0.000000 

0.000000 -0.000000 0.000000 
0.000000 0.000000 0.000000 
0.000000 0.000000 0.000000 

0.000000 -0.000000 0.000000 
0.000000 -0.000000 0.000000 
0.000000 0.000000 0.000000 

-0.000000 -0.000000 0.000000 
0.000000 -0.000000 0.000000 
0.000000 0.000000 0.000000 

-0.000000 0.000000 0.000000 
0.000000 -0.000000 0.000000 
0.000000 0.000000 0.000000 

0.000000 0.000000 0.000000 
0.000000 0.000000 0.000000 
0.000000 0.000000 0.000000 

0.000000 0.000000 0.000000 
0.000000 -0.000000 0.000000 
0.000000 0.000000 0.000000 

0.000000 0.000000 0.000000 
0.000000 -0.000000 0.000000 
0.000000 0.000000 0.000000 

0.000000 0.000000 0.000000 
0.000000 0.000000 0.000000 
0.000000 0.000000 0.000000 

0.000000 0.000000 0.000000 
0.000000 -0.000000 0.000000 
0.000000 0.000000 0.000000 

0.000000 -0.000000 0.000000 
0.000000 0.000000 0.000000 
0.000000 0.000000 0.000000 

-0.000000 0.000000 0.000000 
0.000000 -0.000000 0.000000 
0.000000 0.000000 0.000000 

-0.000000 -0.000000 0.000000 
0.000000 -0.000000 0.000000 
0.000000 0.000000 0.000000 

-0.000000 0.000000 0.000000 
0.000000 -0.000000 0.000000 
0.000000 0.000000 0.000000 

0.000000 0.000000 0.000000 
0.000000 -0.000000 0.000000 
0.000000 0.000000 0.000000 

-0.000000 -0.000000 0.000000 
0.000000 -0.000000 0.000000 
0.000000 0.000000 0.000000 

-0.000000 0.000000 0.000000 
0.000000 -0.000000 0.000000 
0.000000 0.000000 0.000000 

-0.000000 -0.000000 0.000000 
0.000000 -0.000000 0.000000 
0.000000 0.000000 0.000000 

0.000000 -0.000000 0.000000 
0.000000 0.000000 0.000000 
0.000000 0.000000 0.000000 

-0.000000 0.000000 0.000000 
0.000000 -0.000000 0.000000 
0.000000 0.000000 0.000000 

0.000000 0.000000 0.000000 
0.000000 0.000000 0.000000 
0.000000 0.000000 0.000000 

0.000000 -0.000000 0.000000 
0.000000 0.000000 0.000000 
0.000000 0.000000 0.000000 

0.000000 0.000000 0.000000 
0.000000 -0.000000 0.000000 
0.000000 0.000000 0.000000 

0.000000 0.000000 0.000000 
0.000000 -0.000000 0.000000 
0.000000 0.000000 0.000000 

-0.000000 -0.000000 0.000000 
0.000000 -0.000000 0.000000 
0.000000 0.000000 0.000000 

-0.000000 0.000000 0.000000 
0.000000 -0.000000 0.000000 
0.000000 0.000000 0.000000 

0.000000 -0.000000 0.000000 
0.000000 -0.000000 0.000000 
0.000000 0.000000 0.000000 

0.000000 0.000000 0.000000 
0.000000 0.000000 0.000000 
0.000000 0.000000 0.000000 

-0.000000 -0.000000 0.000000 
0.000000 -0.000000 0.000000 
0.000000 0.000000 0.000000 

0.000000 0.000000 0.000000 
0.000000 0.000000 0.000000 
0.000000 0.000000 0.000000 

0.000000 -0.000000 0.000000 
0.000000 0.000000 0.000000 
0.000000 0.000000 0.000000 

0.000000 0.000000 0.000000 
0.000000 0.000000 0.000000 
0.000000 0.000000 0.000000 

-0.000000 0.000000 0.000000 
0.000000 -0.000000 0.000000 
0.000000 0.000000 0.000000 

-0.000000 0.000000 0.000000 
0.000000 -0.000000 0.000000 
0.000000 0.000000 0.000000 

-0.000000 -0.000000 0.000000 
0.000000 -0.000000 0.000000 
0.000000 0.000000 0.000000 

0.000000 -0.000000 0.000000 
0.000000 0.000000 0.000000 
0.000000 0.000000 0.000000 

-0.000000 -0.000000 0.000000 
0.000000 -0.000000 0.000000 
0.000000 0.000000 0.000000 

0.000000 0.000000 0.000000 
0.000000 0.000000 0.000000 
0.000000 0.000000 0.000000 

0.000000 -0.000000 0.000000 
0.000000 -0.000000 0.000000 
0.000000 0.000000 0.000000 

-0.000000 0.000000 0.000000 
0.000000 -0.000000 0.000000 
0.000000 0.000000 0.000000 

0.000000 0.000000 0.000000 
0.000000 0.000000 0.000000 
0.000000 0.000000 0.000000 

0.000000 0.000000 0.000000 
0.000000 0.000000 0.000000 
0.000000 0.000000 0.000000 

-0.000000 0.000000 0.000000 
0.000000 -0.000000 0.000000 
0.000000 0.000000 0.000000 

0.000000 0.000000 0.000000 
0.000000 -0.000000 0.000000 
0.000000 0.000000 0.000000 

-0.000000 -0.000000 0.000000 
0.000000 -0.000000 0.000000 
0.000000 0.000000 0.000000 

-0.000000 -0.000000 0.000000 
0.000000 -0.000000 0.000000 
0.000000 0.000000 0.000000 

TENSORS STRAIN float 
0.000000 -0.000000 0.000000 
0.000000 0.000000 0.000000 
0.000000 0.000000 0.000000 

-0.000000 -0.000000 0.000000 
0.000000 0.000000 0.000000 
0.000000 0.000000 0.000000 

0.000000 0.000000 0.000000 
0.000000 -0.000000 0.000000 
0.000000 0.000000 0.000000 

0.000000 0.000000 0.000000 
0.000000 -0.000000 0.000000 
0.000000 0.000000 0.000000 

0.000000 -0.000000 0.000000 
0.000000 -0.000000 0.000000 
0.000000 0.000000 0.000000 

0.000000 -0.000000 0.000000 
0.000000 0.000000 0.000000 
0.000000 0.000000 0.000000 

0.000000 0.000000 0.000000 
0.000000 0.000000 0.000000 
0.000000 0.000000 0.000000 

0.000000 0.000000 0.000000 
0.000000 -0.000000 0.000000 
0.000000 0.000000 0.000000 

0.000000 0.000000 0.000000 
0.000000 -0.000000 0.000000 
0.000000 0.000000 0.000000 

0.000000 -0.000000 0.000000 
0.000000 -0.000000 0.000000 
0.000000 0.000000 0.000000 

0.000000 0.000000 0.000000 
0.000000 -0.000000 0.000000 
0.000000 0.000000 0.000000 

0.000000 0.000000 0.000000 
0.000000 0.000000 0.000000 
0.000000 0.000000 0.000000 

0.000000 -0.000000 0.000000 
0.000000 0.000000 0.000000 
0.000000 0.000000 0.000000 

0.000000 -0.000000 0.000000 
0.000000 0.000000 0.000000 
0.000000 0.000000 0.000000 

0.000000 -0.000000 0.000000 
0.000000 0.000000 0.000000 
0.000000 0.000000 0.000000 

0.000000 -0.000000 0.000000 
0.000000 -0.000000 0.000000 
0.000000 0.000000 0.000000 

0.000000 0.000000 0.000000 
0.000000 -0.000000 0.000000 
0.000000 0.000000 0.000000 

0.000000 -0.000000 0.000000 
0.000000 -0.000000 0.000000 
0.000000 0.000000 0.000000 

-0.000000 0.000000 0.000000 
0.000000 0.000000 0.000000 
0.000000 0.000000 0.000000 

0.000000 0.000000 0.000000 
0.000000 -0.000000 0.000000 
0.000000 0.000000 0.000000 

0.000000 -0.000000 0.000000 
0.000000 0.000000 0.000000 
0.000000 0.000000 0.000000 

0.000000 -0.000000 0.000000 
0.000000 -0.000000 0.000000 
0.000000 0.000000 0.000000 

0.000000 -0.000000 0.000000 
0.000000 0.000000 0.000000 
0.000000 0.000000 0.000000 

0.000000 -0.000000 0.000000 
0.000000 0.000000 0.000000 
0.000000 0.000000 0.000000 

0.000000 -0.000000 0.000000 
0.000000 0.000000 0.000000 
0.000000 0.000000 0.000000 

0.000000 -0.000000 0.000000 
0.000000 0.000000 0.000000 
0.000000 0.000000 0.000000 

0.000000 -0.000000 0.000000 
0.000000 0.000000 0.000000 
0.000000 0.000000 0.000000 

0.000000 -0.000000 0.000000 
0.000000 -0.000000 0.000000 
0.000000 0.000000 0.000000 

-0.000000 -0.000000 0.000000 
0.000000 0.000000 0.000000 
0.000000 0.000000 0.000000 

-0.000000 0.000000 0.000000 
0.000000 0.000000 0.000000 
0.000000 0.000000 0.000000 

0.000000 0.000000 0.000000 
0.000000 0.000000 0.000000 
0.000000 0.000000 0.000000 

-0.000000 -0.000000 0.000000 
0.000000 0.000000 0.000000 
0.000000 0.000000 0.000000 

-0.000000 -0.000000 0.000000 
0.000000 0.000000 0.000000 
0.000000 0.000000 0.000000 

-0.000000 -0.000000 0.000000 
0.000000 0.000000 0.000000 
0.000000 0.000000 0.000000 

-0.000000 0.000000 0.000000 
0.000000 0.000000 0.000000 
0.000000 0.000000 0.000000 

-0.000000 0.000000 0.000000 
0.000000 0.000000 0.000000 
0.000000 0.000000 0.000000 

-0.000000 0.000000 0.000000 
0.000000 0.000000 0.000000 
0.000000 0.000000 0.000000 

-0.000000 0.000000 0.000000 
0.000000 0.000000 0.000000 
0.000000 0.000000 0.000000 

0.000000 -0.000000 0.000000 
0.000000 -0.000000 0.000000 
0.000000 0.000000 0.000000 

0.000000 -0.000000 0.000000 
0.000000 -0.000000 0.000000 
0.000000 0.000000 0.000000 

0.000000 0.000000 0.000000 
0.000000 0.000000 0.000000 
0.000000 0.000000 0.000000 

0.000000 -0.000000 0.000000 
0.000000 -0.000000 0.000000 
0.000000 0.000000 0.000000 

0.000000 -0.000000 0.000000 
0.000000 0.000000 0.000000 
0.000000 0.000000 0.000000 

0.000000 0.000000 0.000000 
0.000000 -0.000000 0.000000 
0.000000 0.000000 0.000000 

0.000000 0.000000 0.000000 
0.000000 -0.000000 0.000000 
0.000000 0.000000 0.000000 

0.000000 0.000000 0.000000 
0.000000 0.000000 0.000000 
0.000000 0.000000 0.000000 

-0.000000 0.000000 0.000000 
0.000000 0.000000 0.000000 
0.000000 0.000000 0.000000 

0.000000 -0.000000 0.000000 
0.000000 0.000000 0.000000 
0.000000 0.000000 0.000000 

0.000000 0.000000 0.000000 
0.000000 -0.000000 0.000000 
0.000000 0.000000 0.000000 

0.000000 -0.000000 0.000000 
0.000000 -0.000000 0.000000 
0.000000 0.000000 0.000000 

-0.000000 -0.000000 0.000000 
0.000000 0.000000 0.000000 
0.000000 0.000000 0.000000 

0.000000 -0.000000 0.000000 
0.000000 0.000000 0.000000 
0.000000 0.000000 0.000000 

0.000000 -0.000000 0.000000 
0.000000 -0.000000 0.000000 
0.000000 0.000000 0.000000 

0.000000 -0.000000 0.000000 
0.000000 0.000000 0.000000 
0.000000 0.000000 0.000000 

0.000000 0.000000 0.000000 
0.000000 -0.000000 0.000000 
0.000000 0.000000 0.000000 

-0.000000 0.000000 0.000000 
0.000000 -0.000000 0.000000 
0.000000 0.000000 0.000000 

-0.000000 0.000000 0.000000 
0.000000 -0.000000 0.000000 
0.000000 0.000000 0.000000 

0.000000 0.000000 0.000000 
0.000000 -0.000000 0.000000 
0.000000 0.000000 0.000000 

0.000000 -0.000000 0.000000 
0.000000 0.000000 0.000000 
0.000000 0.000000 0.000000 

0.000000 0.000000 0.000000 
0.000000 -0.000000 0.000000 
0.000000 0.000000 0.000000 

0.000000 0.000000 0.000000 
0.000000 0.000000 0.000000 
0.000000 0.000000 0.000000 

-0.000000 0.000000 0.000000 
0.000000 0.000000 0.000000 
0.000000 0.000000 0.000000 

0.000000 0.000000 0.000000 
0.000000 0.000000 0.000000 
0.000000 0.000000 0.000000 

0.000000 -0.000000 0.000000 
0.000000 -0.000000 0.000000 
0.000000 0.000000 0.000000 

0.000000 -0.000000 0.000000 
0.000000 -0.000000 0.000000 
0.000000 0.000000 0.000000 

0.000000 0.000000 0.000000 
0.000000 0.000000 0.000000 
0.000000 0.000000 0.000000 

-0.000000 -0.000000 0.000000 
0.000000 -0.000000 0.000000 
0.000000 0.000000 0.000000 

-0.000000 0.000000 0.000000 
0.000000 -0.000000 0.000000 
0.000000 0.000000 0.000000 

-0.000000 -0.000000 0.000000 
0.000000 -0.000000 0.000000 
0.000000 0.000000 0.000000 

-0.000000 0.000000 0.000000 
0.000000 0.000000 0.000000 
0.000000 0.000000 0.000000 

0.000000 0.000000 0.000000 
0.000000 -0.000000 0.000000 
0.000000 0.000000 0.000000 

0.000000 0.000000 0.000000 
0.000000 0.000000 0.000000 
0.000000 0.000000 0.000000 

0.000000 -0.000000 0.000000 
0.000000 -0.000000 0.000000 
0.000000 0.000000 0.000000 

-0.000000 -0.000000 0.000000 
0.000000 0.000000 0.000000 
0.000000 0.000000 0.000000 

-0.000000 -0.000000 0.000000 
0.000000 0.000000 0.000000 
0.000000 0.000000 0.000000 

-0.000000 0.000000 0.000000 
0.000000 -0.000000 0.000000 
0.000000 0.000000 0.000000 

-0.000000 0.000000 0.000000 
0.000000 0.000000 0.000000 
0.000000 0.000000 0.000000 

-0.000000 -0.000000 0.000000 
0.000000 -0.000000 0.000000 
0.000000 0.000000 0.000000 

-0.000000 0.000000 0.000000 
0.000000 0.000000 0.000000 
0.000000 0.000000 0.000000 

-0.000000 0.000000 0.000000 
0.000000 0.000000 0.000000 
0.000000 0.000000 0.000000 

-0.000000 0.000000 0.000000 
0.000000 -0.000000 0.000000 
0.000000 0.000000 0.000000 

-0.000000 0.000000 0.000000 
0.000000 0.000000 0.000000 
0.000000 0.000000 0.000000 

-0.000000 0.000000 0.000000 
0.000000 -0.000000 0.000000 
0.000000 0.000000 0.000000 

0.000000 0.000000 0.000000 
0.000000 -0.000000 0.000000 
0.000000 0.000000 0.000000 

-0.000000 -0.000000 0.000000 
0.000000 0.000000 0.000000 
0.000000 0.000000 0.000000 

-0.000000 -0.000000 0.000000 
0.000000 0.000000 0.000000 
0.000000 0.000000 0.000000 

-0.000000 0.000000 0.000000 
0.000000 0.000000 0.000000 
0.000000 0.000000 0.000000 

-0.000000 -0.000000 0.000000 
0.000000 -0.000000 0.000000 
0.000000 0.000000 0.000000 

-0.000000 0.000000 0.000000 
0.000000 0.000000 0.000000 
0.000000 0.000000 0.000000 

0.000000 0.000000 0.000000 
0.000000 0.000000 0.000000 
0.000000 0.000000 0.000000 

0.000000 0.000000 0.000000 
0.000000 -0.000000 0.000000 
0.000000 0.000000 0.000000 

-0.000000 -0.000000 0.000000 
0.000000 -0.000000 0.000000 
0.000000 0.000000 0.000000 

-0.000000 -0.000000 0.000000 
0.000000 -0.000000 0.000000 
0.000000 0.000000 0.000000 

-0.000000 -0.000000 0.000000 
0.000000 -0.000000 0.000000 
0.000000 0.000000 0.000000 

-0.000000 0.000000 0.000000 
0.000000 0.000000 0.000000 
0.000000 0.000000 0.000000 

-0.000000 0.000000 0.000000 
0.000000 -0.000000 0.000000 
0.000000 0.000000 0.000000 

-0.000000 0.000000 0.000000 
0.000000 0.000000 0.000000 
0.000000 0.000000 0.000000 

-0.000000 -0.000000 0.000000 
0.000000 0.000000 0.000000 
0.000000 0.000000 0.000000 

-0.000000 -0.000000 0.000000 
0.000000 0.000000 0.000000 
0.000000 0.000000 0.000000 

-0.000000 -0.000000 0.000000 
0.000000 0.000000 0.000000 
0.000000 0.000000 0.000000 

-0.000000 0.000000 0.000000 
0.000000 -0.000000 0.000000 
0.000000 0.000000 0.000000 

0.000000 0.000000 0.000000 
0.000000 0.000000 0.000000 
0.000000 0.000000 0.000000 

0.000000 0.000000 0.000000 
0.000000 0.000000 0.000000 
0.000000 0.000000 0.000000 

0.000000 -0.000000 0.000000 
0.000000 -0.000000 0.000000 
0.000000 0.000000 0.000000 

0.000000 0.000000 0.000000 
0.000000 -0.000000 0.000000 
0.000000 0.000000 0.000000 

0.000000 -0.000000 0.000000 
0.000000 0.000000 0.000000 
0.000000 0.000000 0.000000 

-0.000000 0.000000 0.000000 
0.000000 -0.000000 0.000000 
0.000000 0.000000 0.000000 

-0.000000 -0.000000 0.000000 
0.000000 -0.000000 0.000000 
0.000000 0.000000 0.000000 

-0.000000 -0.000000 0.000000 
0.000000 -0.000000 0.000000 
0.000000 0.000000 0.000000 

-0.000000 -0.000000 0.000000 
0.000000 -0.000000 0.000000 
0.000000 0.000000 0.000000 

-0.000000 0.000000 0.000000 
0.000000 0.000000 0.000000 
0.000000 0.000000 0.000000 

-0.000000 -0.000000 0.000000 
0.000000 -0.000000 0.000000 
0.000000 0.000000 0.000000 

-0.000000 0.000000 0.000000 
0.000000 -0.000000 0.000000 
0.000000 0.000000 0.000000 

0.000000 0.000000 0.000000 
0.000000 0.000000 0.000000 
0.000000 0.000000 0.000000 

-0.000000 -0.000000 0.000000 
0.000000 0.000000 0.000000 
0.000000 0.000000 0.000000 

-0.000000 -0.000000 0.000000 
0.000000 0.000000 0.000000 
0.000000 0.000000 0.000000 

-0.000000 -0.000000 0.000000 
0.000000 0.000000 0.000000 
0.000000 0.000000 0.000000 

-0.000000 0.000000 0.000000 
0.000000 0.000000 0.000000 
0.000000 0.000000 0.000000 

-0.000000 0.000000 0.000000 
0.000000 0.000000 0.000000 
0.000000 0.000000 0.000000 

0.000000 -0.000000 0.000000 
0.000000 0.000000 0.000000 
0.000000 0.000000 0.000000 

0.000000 0.000000 0.000000 
0.000000 -0.000000 0.000000 
0.000000 0.000000 0.000000 

0.000000 -0.000000 0.000000 
0.000000 0.000000 0.000000 
0.000000 0.000000 0.000000 

-0.000000 -0.000000 0.000000 
0.000000 -0.000000 0.000000 
0.000000 0.000000 0.000000 

-0.000000 -0.000000 0.000000 
0.000000 0.000000 0.000000 
0.000000 0.000000 0.000000 

0.000000 -0.000000 0.000000 
0.000000 -0.000000 0.000000 
0.000000 0.000000 0.000000 

0.000000 -0.000000 0.000000 
0.000000 0.000000 0.000000 
0.000000 0.000000 0.000000 

0.000000 -0.000000 0.000000 
0.000000 -0.000000 0.000000 
0.000000 0.000000 0.000000 

0.000000 -0.000000 0.000000 
0.000000 -0.000000 0.000000 
0.000000 0.000000 0.000000 

0.000000 -0.000000 0.000000 
0.000000 0.000000 0.000000 
0.000000 0.000000 0.000000 

-0.000000 -0.000000 0.000000 
0.000000 -0.000000 0.000000 
0.000000 0.000000 0.000000 

0.000000 -0.000000 0.000000 
0.000000 0.000000 0.000000 
0.000000 0.000000 0.000000 

0.000000 -0.000000 0.000000 
0.000000 -0.000000 0.000000 
0.000000 0.000000 0.000000 

0.000000 -0.000000 0.000000 
0.000000 -0.000000 0.000000 
0.000000 0.000000 0.000000 

0.000000 0.000000 0.000000 
0.000000 -0.000000 0.000000 
0.000000 0.000000 0.000000 

0.000000 0.000000 0.000000 
0.000000 0.000000 0.000000 
0.000000 0.000000 0.000000 

0.000000 0.000000 0.000000 
0.000000 -0.000000 0.000000 
0.000000 0.000000 0.000000 

0.000000 0.000000 0.000000 
0.000000 -0.000000 0.000000 
0.000000 0.000000 0.000000 

0.000000 0.000000 0.000000 
0.000000 0.000000 0.000000 
0.000000 0.000000 0.000000 

0.000000 0.000000 0.000000 
0.000000 -0.000000 0.000000 
0.000000 0.000000 0.000000 

0.000000 -0.000000 0.000000 
0.000000 0.000000 0.000000 
0.000000 0.000000 0.000000 

0.000000 0.000000 0.000000 
0.000000 -0.000000 0.000000 
0.000000 0.000000 0.000000 

-0.000000 -0.000000 0.000000 
0.000000 -0.000000 0.000000 
0.000000 0.000000 0.000000 

0.000000 0.000000 0.000000 
0.000000 -0.000000 0.000000 
0.000000 0.000000 0.000000 

0.000000 0.000000 0.000000 
0.000000 -0.000000 0.000000 
0.000000 0.000000 0.000000 

-0.000000 -0.000000 0.000000 
0.000000 -0.000000 0.000000 
0.000000 0.000000 0.000000 

-0.000000 0.000000 0.000000 
0.000000 -0.000000 0.000000 
0.000000 0.000000 0.000000 

-0.000000 -0.000000 0.000000 
0.000000 -0.000000 0.000000 
0.000000 0.000000 0.000000 

-0.000000 -0.000000 0.000000 
0.000000 0.000000 0.000000 
0.000000 0.000000 0.000000 

0.000000 0.000000 0.000000 
0.000000 -0.000000 0.000000 
0.000000 0.000000 0.000000 

0.000000 0.000000 0.000000 
0.000000 0.000000 0.000000 
0.000000 0.000000 0.000000 

0.000000 -0.000000 0.000000 
0.000000 0.000000 0.000000 
0.000000 0.000000 0.000000 

0.000000 0.000000 0.000000 
0.000000 -0.000000 0.000000 
0.000000 0.000000 0.000000 

0.000000 0.000000 0.000000 
0.000000 -0.000000 0.000000 
0.000000 0.000000 0.000000 

-0.000000 -0.000000 0.000000 
0.000000 -0.000000 0.000000 
0.000000 0.000000 0.000000 

0.000000 0.000000 0.000000 
0.000000 -0.000000 0.000000 
0.000000 0.000000 0.000000 

0.000000 -0.000000 0.000000 
0.000000 -0.000000 0.000000 
0.000000 0.000000 0.000000 

0.000000 0.000000 0.000000 
0.000000 0.000000 0.000000 
0.000000 0.000000 0.000000 

-0.000000 -0.000000 0.000000 
0.000000 -0.000000 0.000000 
0.000000 0.000000 0.000000 

-0.000000 0.000000 0.000000 
0.000000 0.000000 0.000000 
0.000000 0.000000 0.000000 

0.000000 -0.000000 0.000000 
0.000000 0.000000 0.000000 
0.000000 0.000000 0.000000 

0.000000 0.000000 0.000000 
0.000000 0.000000 0.000000 
0.000000 0.000000 0.000000 

-0.000000 0.000000 0.000000 
0.000000 0.000000 0.000000 
0.000000 0.000000 0.000000 

0.000000 0.000000 0.000000 
0.000000 -0.000000 0.000000 
0.000000 0.000000 0.000000 

0.000000 -0.000000 0.000000 
0.000000 -0.000000 0.000000 
0.000000 0.000000 0.000000 

0.000000 -0.000000 0.000000 
0.000000 0.000000 0.000000 
0.000000 0.000000 0.000000 

0.000000 -0.000000 0.000000 
0.000000 -0.000000 0.000000 
0.000000 0.000000 0.000000 

0.000000 0.000000 0.000000 
0.000000 0.000000 0.000000 
0.000000 0.000000 0.000000 

0.000000 -0.000000 0.000000 
0.000000 -0.000000 0.000000 
0.000000 0.000000 0.000000 

-0.000000 0.000000 0.000000 
0.000000 -0.000000 0.000000 
0.000000 0.000000 0.000000 

0.000000 0.000000 0.000000 
0.000000 0.000000 0.000000 
0.000000 0.000000 0.000000 

0.000000 0.000000 0.000000 
0.000000 0.000000 0.000000 
0.000000 0.000000 0.000000 

-0.000000 0.000000 0.000000 
0.000000 0.000000 0.000000 
0.000000 0.000000 0.000000 

0.000000 0.000000 0.000000 
0.000000 -0.000000 0.000000 
0.000000 0.000000 0.000000 

-0.000000 -0.000000 0.000000 
0.000000 -0.000000 0.000000 
0.000000 0.000000 0.000000 

-0.000000 -0.000000 0.000000 
0.000000 -0.000000 0.000000 
0.000000 0.000000 0.000000 

