# vtk DataFile Version 3.0 
vtk output 
ASCII 
DATASET UNSTRUCTURED_GRID 
POINTS 175 float 
-0.026061 -0.002715 0.000000 
-0.106992 0.065341 0.000000 
-0.054870 0.057108 0.000000 
-0.028809 0.102992 0.000000 
-0.186430 0.129416 0.000000 
-0.137056 0.126890 0.000000 
-0.114311 0.180537 0.000000 
-0.058186 0.164872 0.000000 
-0.029377 0.205049 0.000000 
-0.265318 0.192572 0.000000 
-0.217198 0.191772 0.000000 
-0.196633 0.249069 0.000000 
-0.143120 0.240360 0.000000 
-0.116563 0.287629 0.000000 
-0.058945 0.267983 0.000000 
-0.029568 0.306103 0.000000 
-0.344206 0.255728 0.000000 
-0.296791 0.255735 0.000000 
-0.278030 0.315678 0.000000 
-0.225992 0.309811 0.000000 
-0.201664 0.361928 0.000000 
-0.145749 0.348454 0.000000 
-0.117890 0.392797 0.000000 
-0.059328 0.370091 0.000000 
-0.029759 0.407157 0.000000 
-0.058559 -0.043466 0.000000 
-0.162226 -0.064308 0.000000 
-0.123292 -0.028690 0.000000 
-0.142917 0.020293 0.000000 
-0.261851 -0.086465 0.000000 
-0.229092 -0.049437 0.000000 
-0.256854 0.001794 0.000000 
-0.209613 0.035907 0.000000 
-0.223062 0.083481 0.000000 
-0.360414 -0.108765 0.000000 
-0.329787 -0.071642 0.000000 
-0.361761 -0.019840 0.000000 
-0.321587 0.016569 0.000000 
-0.341985 0.066803 0.000000 
-0.290702 0.099602 0.000000 
-0.302189 0.146337 0.000000 
-0.458977 -0.131065 0.000000 
-0.429420 -0.093990 0.000000 
-0.464588 -0.041948 0.000000 
-0.427556 -0.004921 0.000000 
-0.453135 0.046594 0.000000 
-0.407738 0.081909 0.000000 
-0.425037 0.131337 0.000000 
-0.370772 0.162966 0.000000 
-0.381315 0.209194 0.000000 
-0.046960 -0.094281 0.000000 
-0.095301 -0.188327 0.000000 
-0.098873 -0.135679 0.000000 
-0.149405 -0.120482 0.000000 
-0.140093 -0.280031 0.000000 
-0.148617 -0.231332 0.000000 
-0.205981 -0.221095 0.000000 
-0.203197 -0.162892 0.000000 
-0.248777 -0.143745 0.000000 
-0.184111 -0.370994 0.000000 
-0.194039 -0.323903 0.000000 
-0.254475 -0.316604 0.000000 
-0.257893 -0.262494 0.000000 
-0.309886 -0.247121 0.000000 
-0.303554 -0.186576 0.000000 
-0.347255 -0.166418 0.000000 
-0.228129 -0.461958 0.000000 
-0.238687 -0.415734 0.000000 
-0.301302 -0.410782 0.000000 
-0.307162 -0.358743 0.000000 
-0.363386 -0.346622 0.000000 
-0.362692 -0.289110 0.000000 
-0.412122 -0.271817 0.000000 
-0.403017 -0.209670 0.000000 
-0.445733 -0.189092 0.000000 
-0.000000 -0.116896 0.000000 
0.043388 -0.213326 0.000000 
-0.000000 -0.183294 0.000000 
-0.043388 -0.213326 0.000000 
0.087158 -0.305523 0.000000 
0.043769 -0.281824 0.000000 
-0.000000 -0.320290 0.000000 
-0.043769 -0.281824 0.000000 
-0.087158 -0.305523 0.000000 
0.130831 -0.396653 0.000000 
0.087824 -0.375054 0.000000 
0.044436 -0.417754 0.000000 
-0.000000 -0.386688 0.000000 
-0.044436 -0.417754 0.000000 
-0.087824 -0.375054 0.000000 
-0.130831 -0.396653 0.000000 
0.174505 -0.487782 0.000000 
0.131782 -0.467216 0.000000 
0.088871 -0.513083 0.000000 
0.044532 -0.485219 0.000000 
-0.000000 -0.521619 0.000000 
-0.044532 -0.485219 0.000000 
-0.088871 -0.513083 0.000000 
-0.131782 -0.467216 0.000000 
-0.174505 -0.487782 0.000000 
0.046960 -0.094281 0.000000 
0.149405 -0.120482 0.000000 
0.098873 -0.135679 0.000000 
0.095301 -0.188327 0.000000 
0.248777 -0.143745 0.000000 
0.203197 -0.162892 0.000000 
0.205981 -0.221095 0.000000 
0.148617 -0.231332 0.000000 
0.140093 -0.280031 0.000000 
0.347255 -0.166418 0.000000 
0.303554 -0.186576 0.000000 
0.309886 -0.247121 0.000000 
0.257893 -0.262494 0.000000 
0.254475 -0.316604 0.000000 
0.194039 -0.323903 0.000000 
0.184111 -0.370994 0.000000 
0.445733 -0.189092 0.000000 
0.403017 -0.209671 0.000000 
0.412122 -0.271817 0.000000 
0.362692 -0.289110 0.000000 
0.363386 -0.346622 0.000000 
0.307162 -0.358743 0.000000 
0.301302 -0.410782 0.000000 
0.238687 -0.415734 0.000000 
0.228129 -0.461958 0.000000 
0.058559 -0.043466 0.000000 
0.142917 0.020293 0.000000 
0.123292 -0.028690 0.000000 
0.162226 -0.064308 0.000000 
0.223062 0.083481 0.000000 
0.209613 0.035907 0.000000 
0.256854 0.001794 0.000000 
0.229092 -0.049437 0.000000 
0.261851 -0.086465 0.000000 
0.302189 0.146337 0.000000 
0.290702 0.099602 0.000000 
0.341985 0.066803 0.000000 
0.321587 0.016569 0.000000 
0.361761 -0.019840 0.000000 
0.329787 -0.071642 0.000000 
0.360414 -0.108765 0.000000 
0.381315 0.209194 0.000000 
0.370772 0.162966 0.000000 
0.425037 0.131337 0.000000 
0.407738 0.081909 0.000000 
0.453135 0.046594 0.000000 
0.427556 -0.004921 0.000000 
0.464588 -0.041948 0.000000 
0.429420 -0.093990 0.000000 
0.458977 -0.131065 0.000000 
0.026061 -0.002715 0.000000 
0.028809 0.102992 0.000000 
0.054870 0.057108 0.000000 
0.106992 0.065341 0.000000 
0.029377 0.205049 0.000000 
0.058186 0.164872 0.000000 
0.114311 0.180537 0.000000 
0.137056 0.126890 0.000000 
0.186430 0.129416 0.000000 
0.029568 0.306103 0.000000 
0.058945 0.267983 0.000000 
0.116563 0.287629 0.000000 
0.143120 0.240360 0.000000 
0.196633 0.249069 0.000000 
0.217198 0.191772 0.000000 
0.265318 0.192572 0.000000 
0.029759 0.407157 0.000000 
0.059328 0.370091 0.000000 
0.117890 0.392797 0.000000 
0.145749 0.348454 0.000000 
0.201664 0.361928 0.000000 
0.225992 0.309811 0.000000 
0.278030 0.315678 0.000000 
0.296791 0.255735 0.000000 
0.344206 0.255728 0.000000 
CELLS 175 350 
1 0 
1 1 
1 2 
1 3 
1 4 
1 5 
1 6 
1 7 
1 8 
1 9 
1 10 
1 11 
1 12 
1 13 
1 14 
1 15 
1 16 
1 17 
1 18 
1 19 
1 20 
1 21 
1 22 
1 23 
1 24 
1 25 
1 26 
1 27 
1 28 
1 29 
1 30 
1 31 
1 32 
1 33 
1 34 
1 35 
1 36 
1 37 
1 38 
1 39 
1 40 
1 41 
1 42 
1 43 
1 44 
1 45 
1 46 
1 47 
1 48 
1 49 
1 50 
1 51 
1 52 
1 53 
1 54 
1 55 
1 56 
1 57 
1 58 
1 59 
1 60 
1 61 
1 62 
1 63 
1 64 
1 65 
1 66 
1 67 
1 68 
1 69 
1 70 
1 71 
1 72 
1 73 
1 74 
1 75 
1 76 
1 77 
1 78 
1 79 
1 80 
1 81 
1 82 
1 83 
1 84 
1 85 
1 86 
1 87 
1 88 
1 89 
1 90 
1 91 
1 92 
1 93 
1 94 
1 95 
1 96 
1 97 
1 98 
1 99 
1 100 
1 101 
1 102 
1 103 
1 104 
1 105 
1 106 
1 107 
1 108 
1 109 
1 110 
1 111 
1 112 
1 113 
1 114 
1 115 
1 116 
1 117 
1 118 
1 119 
1 120 
1 121 
1 122 
1 123 
1 124 
1 125 
1 126 
1 127 
1 128 
1 129 
1 130 
1 131 
1 132 
1 133 
1 134 
1 135 
1 136 
1 137 
1 138 
1 139 
1 140 
1 141 
1 142 
1 143 
1 144 
1 145 
1 146 
1 147 
1 148 
1 149 
1 150 
1 151 
1 152 
1 153 
1 154 
1 155 
1 156 
1 157 
1 158 
1 159 
1 160 
1 161 
1 162 
1 163 
1 164 
1 165 
1 166 
1 167 
1 168 
1 169 
1 170 
1 171 
1 172 
1 173 
1 174 
CELL_TYPES 175 
1 
1 
1 
1 
1 
1 
1 
1 
1 
1 
1 
1 
1 
1 
1 
1 
1 
1 
1 
1 
1 
1 
1 
1 
1 
1 
1 
1 
1 
1 
1 
1 
1 
1 
1 
1 
1 
1 
1 
1 
1 
1 
1 
1 
1 
1 
1 
1 
1 
1 
1 
1 
1 
1 
1 
1 
1 
1 
1 
1 
1 
1 
1 
1 
1 
1 
1 
1 
1 
1 
1 
1 
1 
1 
1 
1 
1 
1 
1 
1 
1 
1 
1 
1 
1 
1 
1 
1 
1 
1 
1 
1 
1 
1 
1 
1 
1 
1 
1 
1 
1 
1 
1 
1 
1 
1 
1 
1 
1 
1 
1 
1 
1 
1 
1 
1 
1 
1 
1 
1 
1 
1 
1 
1 
1 
1 
1 
1 
1 
1 
1 
1 
1 
1 
1 
1 
1 
1 
1 
1 
1 
1 
1 
1 
1 
1 
1 
1 
1 
1 
1 
1 
1 
1 
1 
1 
1 
1 
1 
1 
1 
1 
1 
1 
1 
1 
1 
1 
1 
1 
1 
1 
1 
1 
1 
POINT_DATA 175 
VECTORS X_GC float 
-0.026061 -0.002715 0.000000 
-0.106992 0.065341 0.000000 
-0.054870 0.057108 0.000000 
-0.028809 0.102992 0.000000 
-0.186430 0.129416 0.000000 
-0.137056 0.126890 0.000000 
-0.114311 0.180537 0.000000 
-0.058186 0.164872 0.000000 
-0.029377 0.205049 0.000000 
-0.265318 0.192572 0.000000 
-0.217198 0.191772 0.000000 
-0.196633 0.249069 0.000000 
-0.143120 0.240360 0.000000 
-0.116563 0.287629 0.000000 
-0.058945 0.267983 0.000000 
-0.029568 0.306103 0.000000 
-0.344206 0.255728 0.000000 
-0.296791 0.255735 0.000000 
-0.278030 0.315678 0.000000 
-0.225992 0.309811 0.000000 
-0.201664 0.361928 0.000000 
-0.145749 0.348454 0.000000 
-0.117890 0.392797 0.000000 
-0.059328 0.370091 0.000000 
-0.029759 0.407157 0.000000 
-0.058559 -0.043466 0.000000 
-0.162226 -0.064308 0.000000 
-0.123292 -0.028690 0.000000 
-0.142917 0.020293 0.000000 
-0.261851 -0.086465 0.000000 
-0.229092 -0.049437 0.000000 
-0.256854 0.001794 0.000000 
-0.209613 0.035907 0.000000 
-0.223062 0.083481 0.000000 
-0.360414 -0.108765 0.000000 
-0.329787 -0.071642 0.000000 
-0.361761 -0.019840 0.000000 
-0.321587 0.016569 0.000000 
-0.341985 0.066803 0.000000 
-0.290702 0.099602 0.000000 
-0.302189 0.146337 0.000000 
-0.458977 -0.131065 0.000000 
-0.429420 -0.093990 0.000000 
-0.464588 -0.041948 0.000000 
-0.427556 -0.004921 0.000000 
-0.453135 0.046594 0.000000 
-0.407738 0.081909 0.000000 
-0.425037 0.131337 0.000000 
-0.370772 0.162966 0.000000 
-0.381315 0.209194 0.000000 
-0.046960 -0.094281 0.000000 
-0.095301 -0.188327 0.000000 
-0.098873 -0.135679 0.000000 
-0.149405 -0.120482 0.000000 
-0.140093 -0.280031 0.000000 
-0.148617 -0.231332 0.000000 
-0.205981 -0.221095 0.000000 
-0.203197 -0.162892 0.000000 
-0.248777 -0.143745 0.000000 
-0.184111 -0.370994 0.000000 
-0.194039 -0.323903 0.000000 
-0.254475 -0.316604 0.000000 
-0.257893 -0.262494 0.000000 
-0.309886 -0.247121 0.000000 
-0.303554 -0.186576 0.000000 
-0.347255 -0.166418 0.000000 
-0.228129 -0.461958 0.000000 
-0.238687 -0.415734 0.000000 
-0.301302 -0.410782 0.000000 
-0.307162 -0.358743 0.000000 
-0.363386 -0.346622 0.000000 
-0.362692 -0.289110 0.000000 
-0.412122 -0.271817 0.000000 
-0.403017 -0.209670 0.000000 
-0.445733 -0.189092 0.000000 
-0.000000 -0.116896 0.000000 
0.043388 -0.213326 0.000000 
-0.000000 -0.183294 0.000000 
-0.043388 -0.213326 0.000000 
0.087158 -0.305523 0.000000 
0.043769 -0.281824 0.000000 
-0.000000 -0.320290 0.000000 
-0.043769 -0.281824 0.000000 
-0.087158 -0.305523 0.000000 
0.130831 -0.396653 0.000000 
0.087824 -0.375054 0.000000 
0.044436 -0.417754 0.000000 
-0.000000 -0.386688 0.000000 
-0.044436 -0.417754 0.000000 
-0.087824 -0.375054 0.000000 
-0.130831 -0.396653 0.000000 
0.174505 -0.487782 0.000000 
0.131782 -0.467216 0.000000 
0.088871 -0.513083 0.000000 
0.044532 -0.485219 0.000000 
-0.000000 -0.521619 0.000000 
-0.044532 -0.485219 0.000000 
-0.088871 -0.513083 0.000000 
-0.131782 -0.467216 0.000000 
-0.174505 -0.487782 0.000000 
0.046960 -0.094281 0.000000 
0.149405 -0.120482 0.000000 
0.098873 -0.135679 0.000000 
0.095301 -0.188327 0.000000 
0.248777 -0.143745 0.000000 
0.203197 -0.162892 0.000000 
0.205981 -0.221095 0.000000 
0.148617 -0.231332 0.000000 
0.140093 -0.280031 0.000000 
0.347255 -0.166418 0.000000 
0.303554 -0.186576 0.000000 
0.309886 -0.247121 0.000000 
0.257893 -0.262494 0.000000 
0.254475 -0.316604 0.000000 
0.194039 -0.323903 0.000000 
0.184111 -0.370994 0.000000 
0.445733 -0.189092 0.000000 
0.403017 -0.209671 0.000000 
0.412122 -0.271817 0.000000 
0.362692 -0.289110 0.000000 
0.363386 -0.346622 0.000000 
0.307162 -0.358743 0.000000 
0.301302 -0.410782 0.000000 
0.238687 -0.415734 0.000000 
0.228129 -0.461958 0.000000 
0.058559 -0.043466 0.000000 
0.142917 0.020293 0.000000 
0.123292 -0.028690 0.000000 
0.162226 -0.064308 0.000000 
0.223062 0.083481 0.000000 
0.209613 0.035907 0.000000 
0.256854 0.001794 0.000000 
0.229092 -0.049437 0.000000 
0.261851 -0.086465 0.000000 
0.302189 0.146337 0.000000 
0.290702 0.099602 0.000000 
0.341985 0.066803 0.000000 
0.321587 0.016569 0.000000 
0.361761 -0.019840 0.000000 
0.329787 -0.071642 0.000000 
0.360414 -0.108765 0.000000 
0.381315 0.209194 0.000000 
0.370772 0.162966 0.000000 
0.425037 0.131337 0.000000 
0.407738 0.081909 0.000000 
0.453135 0.046594 0.000000 
0.427556 -0.004921 0.000000 
0.464588 -0.041948 0.000000 
0.429420 -0.093990 0.000000 
0.458977 -0.131065 0.000000 
0.026061 -0.002715 0.000000 
0.028809 0.102992 0.000000 
0.054870 0.057108 0.000000 
0.106992 0.065341 0.000000 
0.029377 0.205049 0.000000 
0.058186 0.164872 0.000000 
0.114311 0.180537 0.000000 
0.137056 0.126890 0.000000 
0.186430 0.129416 0.000000 
0.029568 0.306103 0.000000 
0.058945 0.267983 0.000000 
0.116563 0.287629 0.000000 
0.143120 0.240360 0.000000 
0.196633 0.249069 0.000000 
0.217198 0.191772 0.000000 
0.265318 0.192572 0.000000 
0.029759 0.407157 0.000000 
0.059328 0.370091 0.000000 
0.117890 0.392797 0.000000 
0.145749 0.348454 0.000000 
0.201664 0.361928 0.000000 
0.225992 0.309811 0.000000 
0.278030 0.315678 0.000000 
0.296791 0.255735 0.000000 
0.344206 0.255728 0.000000 
VECTORS X_EC float 
0.338794 0.536650 0.000000 
-0.609100 -0.382099 0.000000 
0.713312 -0.270958 0.000000 
0.374519 -0.890387 0.000000 
0.423588 0.752882 0.000000 
-0.218274 0.786986 0.000000 
-0.513962 0.062747 0.000000 
0.756418 0.274233 0.000000 
0.381900 -0.268159 0.000000 
-0.550868 -0.099721 0.000000 
0.823577 -0.088925 0.000000 
0.556234 -0.862429 0.000000 
-0.139443 -0.744861 0.000000 
-0.484677 0.617015 0.000000 
0.766286 0.882230 0.000000 
0.384386 0.367610 0.000000 
0.474677 -0.952324 0.000000 
-0.141715 -0.952421 0.000000 
-0.385608 0.238351 0.000000 
0.937896 0.317547 0.000000 
0.621631 -0.386033 0.000000 
-0.105264 -0.204134 0.000000 
-0.467428 -0.802760 0.000000 
0.771260 -0.496232 0.000000 
0.386873 -0.996621 0.000000 
0.761262 -0.913216 0.000000 
0.108942 -0.631839 0.000000 
-0.397202 0.887322 0.000000 
-0.142083 0.226046 0.000000 
-0.595936 -0.332728 0.000000 
0.978194 -0.832594 0.000000 
-0.660903 0.475781 0.000000 
0.724964 0.015261 0.000000 
0.899809 -0.626988 0.000000 
0.685384 -0.031676 0.000000 
0.287229 -0.532835 0.000000 
0.702895 0.767837 0.000000 
0.180633 0.276318 0.000000 
0.445811 -0.401841 0.000000 
-0.220880 -0.844627 0.000000 
-0.071546 0.524447 0.000000 
-0.033296 0.269376 0.000000 
-0.417537 -0.231134 0.000000 
0.039645 -0.933696 0.000000 
-0.441768 0.566433 0.000000 
-0.109248 -0.129018 0.000000 
-0.699407 -0.605774 0.000000 
-0.474522 0.726947 0.000000 
0.820030 0.299954 0.000000 
0.957100 -0.324118 0.000000 
0.610485 -0.227209 0.000000 
-0.761092 -0.957590 0.000000 
-0.714655 0.331673 0.000000 
-0.057734 0.126505 0.000000 
-0.178789 0.280414 0.000000 
-0.067979 -0.377012 0.000000 
0.677748 -0.515215 0.000000 
0.641556 0.699040 0.000000 
-0.765897 0.440561 0.000000 
0.393446 -0.491577 0.000000 
0.522510 0.872693 0.000000 
-0.691820 0.774149 0.000000 
-0.647393 0.043667 0.000000 
0.028512 -0.163860 0.000000 
-0.053800 -0.981220 0.000000 
0.514316 0.746649 0.000000 
0.965681 0.736432 0.000000 
-0.897068 0.112404 0.000000 
-0.083078 0.045551 0.000000 
-0.006893 -0.656974 0.000000 
0.724017 -0.820607 0.000000 
0.714996 0.402990 0.000000 
-0.642413 0.169532 0.000000 
-0.760780 -0.669448 0.000000 
-0.205471 -0.947264 0.000000 
0.000000 0.078092 0.000000 
-0.564049 -0.620095 0.000000 
0.000000 0.974469 0.000000 
0.564049 -0.620095 0.000000 
0.866949 0.624560 0.000000 
-0.569003 0.304629 0.000000 
0.000000 0.823917 0.000000 
0.569003 0.304629 0.000000 
-0.866949 0.624560 0.000000 
0.299194 -0.145189 0.000000 
0.858290 -0.436773 0.000000 
-0.577662 0.139673 0.000000 
0.000000 -0.279706 0.000000 
0.577662 0.139673 0.000000 
-0.858290 -0.436773 0.000000 
-0.299194 -0.145189 0.000000 
-0.268560 -0.914939 0.000000 
0.286830 0.807419 0.000000 
0.844677 -0.573383 0.000000 
-0.578910 -0.949545 0.000000 
0.000000 -0.458142 0.000000 
0.578910 -0.949545 0.000000 
-0.844677 -0.573383 0.000000 
-0.286830 0.807419 0.000000 
0.268560 -0.914939 0.000000 
-0.610485 -0.227209 0.000000 
0.057734 0.126505 0.000000 
0.714655 0.331673 0.000000 
0.761092 -0.957590 0.000000 
0.765897 0.440561 0.000000 
-0.641556 0.699040 0.000000 
-0.677748 -0.515215 0.000000 
0.067979 -0.377012 0.000000 
0.178789 0.280414 0.000000 
-0.514316 0.746649 0.000000 
0.053800 -0.981220 0.000000 
-0.028512 -0.163860 0.000000 
0.647393 0.043667 0.000000 
0.691820 0.774149 0.000000 
-0.522510 0.872693 0.000000 
-0.393446 -0.491577 0.000000 
0.205471 -0.947264 0.000000 
0.760780 -0.669448 0.000000 
0.642413 0.169532 0.000000 
-0.714996 0.402990 0.000000 
-0.724017 -0.820607 0.000000 
0.006894 -0.656974 0.000000 
0.083078 0.045551 0.000000 
0.897068 0.112404 0.000000 
-0.965681 0.736432 0.000000 
-0.761262 -0.913216 0.000000 
0.142083 0.226046 0.000000 
0.397202 0.887322 0.000000 
-0.108942 -0.631839 0.000000 
-0.899809 -0.626988 0.000000 
-0.724964 0.015261 0.000000 
0.660903 0.475781 0.000000 
-0.978194 -0.832594 0.000000 
0.595936 -0.332728 0.000000 
0.071546 0.524447 0.000000 
0.220880 -0.844627 0.000000 
-0.445811 -0.401841 0.000000 
-0.180633 0.276318 0.000000 
-0.702895 0.767837 0.000000 
-0.287229 -0.532835 0.000000 
-0.685384 -0.031676 0.000000 
-0.957100 -0.324118 0.000000 
-0.820030 0.299954 0.000000 
0.474522 0.726947 0.000000 
0.699407 -0.605773 0.000000 
0.109248 -0.129018 0.000000 
0.441768 0.566433 0.000000 
-0.039645 -0.933696 0.000000 
0.417537 -0.231134 0.000000 
0.033296 0.269376 0.000000 
-0.338794 0.536650 0.000000 
-0.374519 -0.890387 0.000000 
-0.713312 -0.270958 0.000000 
0.609100 -0.382099 0.000000 
-0.381900 -0.268159 0.000000 
-0.756418 0.274233 0.000000 
0.513962 0.062747 0.000000 
0.218274 0.786986 0.000000 
-0.423588 0.752882 0.000000 
-0.384386 0.367610 0.000000 
-0.766286 0.882230 0.000000 
0.484677 0.617015 0.000000 
0.139443 -0.744861 0.000000 
-0.556234 -0.862429 0.000000 
-0.823577 -0.088925 0.000000 
0.550868 -0.099721 0.000000 
-0.386873 -0.996621 0.000000 
-0.771260 -0.496232 0.000000 
0.467428 -0.802760 0.000000 
0.105264 -0.204134 0.000000 
-0.621631 -0.386033 0.000000 
-0.937896 0.317547 0.000000 
0.385608 0.238351 0.000000 
0.141715 -0.952421 0.000000 
-0.474677 -0.952324 0.000000 
CELL_DATA 175 
SCALARS MASS float 
LOOKUP_TABLE default 
0.078183 
0.086427 
0.094672 
0.086427 
0.088131 
0.092111 
0.085854 
0.092111 
0.088131 
0.088705 
0.091000 
0.086983 
0.091556 
0.086983 
0.091000 
0.088705 
0.089278 
0.091574 
0.089278 
0.092722 
0.089278 
0.092722 
0.089278 
0.091574 
0.089278 
0.078183 
0.086427 
0.094672 
0.086427 
0.088131 
0.092111 
0.085854 
0.092111 
0.088131 
0.088705 
0.091000 
0.086983 
0.091556 
0.086983 
0.091000 
0.088705 
0.089278 
0.091574 
0.089278 
0.092722 
0.089278 
0.092722 
0.089278 
0.091574 
0.089278 
0.078183 
0.086427 
0.094672 
0.086427 
0.088131 
0.092111 
0.085854 
0.092111 
0.088131 
0.088705 
0.091000 
0.086983 
0.091556 
0.086983 
0.091000 
0.088705 
0.089278 
0.091574 
0.089278 
0.092722 
0.089278 
0.092722 
0.089278 
0.091574 
0.089278 
0.078183 
0.086427 
0.094672 
0.086427 
0.088131 
0.092111 
0.085854 
0.092111 
0.088131 
0.088705 
0.091000 
0.086983 
0.091556 
0.086983 
0.091000 
0.088705 
0.089278 
0.091574 
0.089278 
0.092722 
0.089278 
0.092722 
0.089278 
0.091574 
0.089278 
0.078183 
0.086427 
0.094672 
0.086427 
0.088131 
0.092111 
0.085854 
0.092111 
0.088131 
0.088705 
0.091000 
0.086983 
0.091556 
0.086983 
0.091000 
0.088705 
0.089278 
0.091574 
0.089278 
0.092722 
0.089278 
0.092722 
0.089278 
0.091574 
0.089278 
0.078183 
0.086427 
0.094672 
0.086427 
0.088131 
0.092111 
0.085854 
0.092111 
0.088131 
0.088705 
0.091000 
0.086983 
0.091556 
0.086983 
0.091000 
0.088705 
0.089278 
0.091574 
0.089278 
0.092722 
0.089278 
0.092722 
0.089278 
0.091574 
0.089278 
0.078183 
0.086427 
0.094672 
0.086427 
0.088131 
0.092111 
0.085854 
0.092111 
0.088131 
0.088705 
0.091000 
0.086983 
0.091556 
0.086983 
0.091000 
0.088705 
0.089278 
0.091574 
0.089278 
0.092722 
0.089278 
0.092722 
0.089278 
0.091574 
0.089278 
SCALARS MASS float 
LOOKUP_TABLE default 
0.078183 
0.086427 
0.094672 
0.086427 
0.088131 
0.092111 
0.085854 
0.092111 
0.088131 
0.088705 
0.091000 
0.086983 
0.091556 
0.086983 
0.091000 
0.088705 
0.089278 
0.091574 
0.089278 
0.092722 
0.089278 
0.092722 
0.089278 
0.091574 
0.089278 
0.078183 
0.086427 
0.094672 
0.086427 
0.088131 
0.092111 
0.085854 
0.092111 
0.088131 
0.088705 
0.091000 
0.086983 
0.091556 
0.086983 
0.091000 
0.088705 
0.089278 
0.091574 
0.089278 
0.092722 
0.089278 
0.092722 
0.089278 
0.091574 
0.089278 
0.078183 
0.086427 
0.094672 
0.086427 
0.088131 
0.092111 
0.085854 
0.092111 
0.088131 
0.088705 
0.091000 
0.086983 
0.091556 
0.086983 
0.091000 
0.088705 
0.089278 
0.091574 
0.089278 
0.092722 
0.089278 
0.092722 
0.089278 
0.091574 
0.089278 
0.078183 
0.086427 
0.094672 
0.086427 
0.088131 
0.092111 
0.085854 
0.092111 
0.088131 
0.088705 
0.091000 
0.086983 
0.091556 
0.086983 
0.091000 
0.088705 
0.089278 
0.091574 
0.089278 
0.092722 
0.089278 
0.092722 
0.089278 
0.091574 
0.089278 
0.078183 
0.086427 
0.094672 
0.086427 
0.088131 
0.092111 
0.085854 
0.092111 
0.088131 
0.088705 
0.091000 
0.086983 
0.091556 
0.086983 
0.091000 
0.088705 
0.089278 
0.091574 
0.089278 
0.092722 
0.089278 
0.092722 
0.089278 
0.091574 
0.089278 
0.078183 
0.086427 
0.094672 
0.086427 
0.088131 
0.092111 
0.085854 
0.092111 
0.088131 
0.088705 
0.091000 
0.086983 
0.091556 
0.086983 
0.091000 
0.088705 
0.089278 
0.091574 
0.089278 
0.092722 
0.089278 
0.092722 
0.089278 
0.091574 
0.089278 
0.078183 
0.086427 
0.094672 
0.086427 
0.088131 
0.092111 
0.085854 
0.092111 
0.088131 
0.088705 
0.091000 
0.086983 
0.091556 
0.086983 
0.091000 
0.088705 
0.089278 
0.091574 
0.089278 
0.092722 
0.089278 
0.092722 
0.089278 
0.091574 
0.089278 
SCALARS DENSITY float 
LOOKUP_TABLE default 
20.000000 
20.000000 
20.000000 
20.000000 
20.000000 
20.000000 
20.000000 
20.000000 
20.000000 
20.000000 
20.000000 
20.000000 
20.000000 
20.000000 
20.000000 
20.000000 
20.000000 
20.000000 
20.000000 
20.000000 
20.000000 
20.000000 
20.000000 
20.000000 
20.000000 
20.000000 
20.000000 
20.000000 
20.000000 
20.000000 
20.000000 
20.000000 
20.000000 
20.000000 
20.000000 
20.000000 
20.000000 
20.000000 
20.000000 
20.000000 
20.000000 
20.000000 
20.000000 
20.000000 
20.000000 
20.000000 
20.000000 
20.000000 
20.000000 
20.000000 
20.000000 
20.000000 
20.000000 
20.000000 
20.000000 
20.000000 
20.000000 
20.000000 
20.000000 
20.000000 
20.000000 
20.000000 
20.000000 
20.000000 
20.000000 
20.000000 
20.000000 
20.000000 
20.000000 
20.000000 
20.000000 
20.000000 
20.000000 
20.000000 
20.000000 
20.000000 
20.000000 
20.000000 
20.000000 
20.000000 
20.000000 
20.000000 
20.000000 
20.000000 
20.000000 
20.000000 
20.000000 
20.000000 
20.000000 
20.000000 
20.000000 
20.000000 
20.000000 
20.000000 
20.000000 
20.000000 
20.000000 
20.000000 
20.000000 
20.000000 
20.000000 
20.000000 
20.000000 
20.000000 
20.000000 
20.000000 
20.000000 
20.000000 
20.000000 
20.000000 
20.000000 
20.000000 
20.000000 
20.000000 
20.000000 
20.000000 
20.000000 
20.000000 
20.000000 
20.000000 
20.000000 
20.000000 
20.000000 
20.000000 
20.000000 
20.000000 
20.000000 
20.000000 
20.000000 
20.000000 
20.000000 
20.000000 
20.000000 
20.000000 
20.000000 
20.000000 
20.000000 
20.000000 
20.000000 
20.000000 
20.000000 
20.000000 
20.000000 
20.000000 
20.000000 
20.000000 
20.000000 
20.000000 
20.000000 
20.000000 
20.000000 
20.000000 
20.000000 
20.000000 
20.000000 
20.000000 
20.000000 
20.000000 
20.000000 
20.000000 
20.000000 
20.000000 
20.000000 
20.000000 
20.000000 
20.000000 
20.000000 
20.000000 
20.000000 
20.000000 
20.000000 
20.000000 
20.000000 
20.000000 
20.000000 
SCALARS ELEM_i float 
LOOKUP_TABLE default 
182 
209 
182 
182 
210 
210 
210 
183 
183 
237 
210 
210 
210 
211 
184 
184 
237 
237 
238 
211 
211 
211 
211 
184 
184 
181 
208 
209 
209 
235 
208 
236 
209 
209 
235 
235 
236 
236 
236 
236 
237 
262 
262 
262 
263 
263 
263 
264 
237 
237 
181 
207 
208 
208 
207 
207 
207 
208 
235 
206 
207 
234 
234 
234 
234 
235 
206 
233 
233 
233 
233 
234 
261 
261 
261 
181 
180 
181 
180 
153 
180 
180 
180 
207 
152 
152 
179 
179 
179 
206 
206 
151 
152 
151 
178 
178 
178 
205 
206 
205 
181 
154 
154 
153 
127 
154 
153 
153 
153 
127 
126 
126 
126 
126 
153 
152 
99 
99 
99 
126 
125 
125 
125 
125 
152 
181 
155 
155 
154 
155 
155 
128 
154 
127 
129 
128 
128 
128 
128 
127 
127 
129 
129 
102 
101 
101 
101 
100 
100 
100 
182 
182 
182 
155 
183 
183 
156 
156 
156 
184 
184 
157 
156 
156 
156 
129 
184 
184 
157 
157 
157 
157 
130 
129 
129 
VECTORS VELOCITY float 
0.000000 -1.055556 0.000000 
-0.000000 -1.055556 0.000000 
-0.000000 -1.055556 0.000000 
-0.000000 -1.055556 0.000000 
-0.000000 -1.055556 0.000000 
-0.000000 -1.055556 0.000000 
-0.000000 -1.055556 0.000000 
-0.000000 -1.055556 0.000000 
-0.000000 -1.055556 0.000000 
0.000000 -1.055556 0.000000 
0.000000 -1.055556 0.000000 
0.000000 -1.055556 0.000000 
0.000000 -1.055556 0.000000 
0.000000 -1.055556 0.000000 
0.000000 -1.055556 0.000000 
-0.000000 -1.055556 0.000000 
0.000000 -1.055556 0.000000 
0.000000 -1.055556 0.000000 
0.000000 -1.055556 0.000000 
0.000000 -1.055556 0.000000 
0.000000 -1.055556 0.000000 
0.000000 -1.055556 0.000000 
-0.000000 -1.055556 0.000000 
0.000000 -1.055556 0.000000 
-0.000000 -1.055556 0.000000 
0.000000 -1.055556 0.000000 
0.000000 -1.055556 0.000000 
0.000000 -1.055556 0.000000 
-0.000000 -1.055556 0.000000 
0.000000 -1.055556 0.000000 
-0.000000 -1.055556 0.000000 
-0.000000 -1.055556 0.000000 
-0.000000 -1.055556 0.000000 
-0.000000 -1.055556 0.000000 
0.000000 -1.055556 0.000000 
0.000000 -1.055556 0.000000 
0.000000 -1.055556 0.000000 
0.000000 -1.055556 0.000000 
-0.000000 -1.055556 0.000000 
-0.000000 -1.055556 0.000000 
-0.000000 -1.055556 0.000000 
-0.000000 -1.055556 0.000000 
-0.000000 -1.055556 0.000000 
-0.000000 -1.055556 0.000000 
0.000000 -1.055556 0.000000 
0.000000 -1.055556 0.000000 
-0.000000 -1.055556 0.000000 
-0.000000 -1.055556 0.000000 
-0.000000 -1.055556 0.000000 
0.000000 -1.055556 0.000000 
0.000000 -1.055556 0.000000 
0.000000 -1.055556 0.000000 
0.000000 -1.055556 0.000000 
0.000000 -1.055556 0.000000 
0.000000 -1.055556 0.000000 
0.000000 -1.055556 0.000000 
0.000000 -1.055556 0.000000 
0.000000 -1.055556 0.000000 
0.000000 -1.055556 0.000000 
-0.000000 -1.055556 0.000000 
-0.000000 -1.055556 0.000000 
-0.000000 -1.055556 0.000000 
0.000000 -1.055556 0.000000 
0.000000 -1.055556 0.000000 
0.000000 -1.055556 0.000000 
-0.000000 -1.055556 0.000000 
-0.000000 -1.055556 0.000000 
-0.000000 -1.055556 0.000000 
-0.000000 -1.055556 0.000000 
-0.000000 -1.055556 0.000000 
0.000000 -1.055556 0.000000 
0.000000 -1.055556 0.000000 
-0.000000 -1.055556 0.000000 
-0.000000 -1.055556 0.000000 
-0.000000 -1.055556 0.000000 
0.000000 -1.055556 0.000000 
0.000000 -1.055556 0.000000 
0.000000 -1.055556 0.000000 
0.000000 -1.055556 0.000000 
0.000000 -1.055556 0.000000 
0.000000 -1.055556 0.000000 
0.000000 -1.055556 0.000000 
0.000000 -1.055556 0.000000 
0.000000 -1.055556 0.000000 
0.000000 -1.055556 0.000000 
0.000000 -1.055556 0.000000 
0.000000 -1.055556 0.000000 
0.000000 -1.055556 0.000000 
-0.000000 -1.055556 0.000000 
0.000000 -1.055556 0.000000 
-0.000000 -1.055556 0.000000 
0.000000 -1.055556 0.000000 
0.000000 -1.055556 0.000000 
0.000000 -1.055556 0.000000 
-0.000000 -1.055556 0.000000 
0.000000 -1.055556 0.000000 
-0.000000 -1.055556 0.000000 
0.000000 -1.055556 0.000000 
-0.000000 -1.055556 0.000000 
0.000000 -1.055556 0.000000 
0.000000 -1.055556 0.000000 
-0.000000 -1.055556 0.000000 
0.000000 -1.055556 0.000000 
0.000000 -1.055556 0.000000 
-0.000000 -1.055556 0.000000 
-0.000000 -1.055556 0.000000 
-0.000000 -1.055556 0.000000 
0.000000 -1.055556 0.000000 
0.000000 -1.055556 0.000000 
-0.000000 -1.055556 0.000000 
-0.000000 -1.055556 0.000000 
-0.000000 -1.055556 0.000000 
-0.000000 -1.055556 0.000000 
-0.000000 -1.055556 0.000000 
-0.000000 -1.055556 0.000000 
-0.000000 -1.055556 0.000000 
0.000000 -1.055556 0.000000 
-0.000000 -1.055556 0.000000 
0.000000 -1.055556 0.000000 
0.000000 -1.055556 0.000000 
0.000000 -1.055556 0.000000 
0.000000 -1.055556 0.000000 
0.000000 -1.055556 0.000000 
-0.000000 -1.055556 0.000000 
0.000000 -1.055556 0.000000 
0.000000 -1.055556 0.000000 
0.000000 -1.055556 0.000000 
-0.000000 -1.055556 0.000000 
-0.000000 -1.055556 0.000000 
0.000000 -1.055556 0.000000 
0.000000 -1.055556 0.000000 
-0.000000 -1.055556 0.000000 
-0.000000 -1.055556 0.000000 
-0.000000 -1.055556 0.000000 
0.000000 -1.055556 0.000000 
0.000000 -1.055556 0.000000 
0.000000 -1.055556 0.000000 
0.000000 -1.055556 0.000000 
0.000000 -1.055556 0.000000 
-0.000000 -1.055556 0.000000 
-0.000000 -1.055556 0.000000 
-0.000000 -1.055556 0.000000 
-0.000000 -1.055556 0.000000 
-0.000000 -1.055556 0.000000 
-0.000000 -1.055556 0.000000 
-0.000000 -1.055556 0.000000 
0.000000 -1.055556 0.000000 
0.000000 -1.055556 0.000000 
0.000000 -1.055556 0.000000 
0.000000 -1.055556 0.000000 
0.000000 -1.055556 0.000000 
-0.000000 -1.055556 0.000000 
-0.000000 -1.055556 0.000000 
0.000000 -1.055556 0.000000 
-0.000000 -1.055556 0.000000 
-0.000000 -1.055556 0.000000 
0.000000 -1.055556 0.000000 
0.000000 -1.055556 0.000000 
0.000000 -1.055556 0.000000 
-0.000000 -1.055556 0.000000 
-0.000000 -1.055556 0.000000 
-0.000000 -1.055556 0.000000 
-0.000000 -1.055556 0.000000 
-0.000000 -1.055556 0.000000 
0.000000 -1.055556 0.000000 
0.000000 -1.055556 0.000000 
-0.000000 -1.055556 0.000000 
-0.000000 -1.055556 0.000000 
0.000000 -1.055556 0.000000 
-0.000000 -1.055556 0.000000 
0.000000 -1.055556 0.000000 
-0.000000 -1.055556 0.000000 
0.000000 -1.055556 0.000000 
-0.000000 -1.055556 0.000000 
-0.000000 -1.055556 0.000000 
TENSORS STRESS float 
-0.000000 -0.000000 0.000000 
0.000000 -0.000000 0.000000 
0.000000 0.000000 0.000000 

0.000000 -0.000000 0.000000 
0.000000 -0.000000 0.000000 
0.000000 0.000000 0.000000 

-0.000000 -0.000000 0.000000 
0.000000 -0.000000 0.000000 
0.000000 0.000000 0.000000 

0.000000 0.000000 0.000000 
0.000000 -0.000000 0.000000 
0.000000 0.000000 0.000000 

0.000000 0.000000 0.000000 
0.000000 0.000000 0.000000 
0.000000 0.000000 0.000000 

0.000000 0.000000 0.000000 
0.000000 0.000000 0.000000 
0.000000 0.000000 0.000000 

0.000000 0.000000 0.000000 
0.000000 0.000000 0.000000 
0.000000 0.000000 0.000000 

-0.000000 0.000000 0.000000 
0.000000 -0.000000 0.000000 
0.000000 0.000000 0.000000 

-0.000000 0.000000 0.000000 
0.000000 -0.000000 0.000000 
0.000000 0.000000 0.000000 

0.000000 0.000000 0.000000 
0.000000 0.000000 0.000000 
0.000000 0.000000 0.000000 

0.000000 0.000000 0.000000 
0.000000 -0.000000 0.000000 
0.000000 0.000000 0.000000 

0.000000 -0.000000 0.000000 
0.000000 -0.000000 0.000000 
0.000000 0.000000 0.000000 

0.000000 0.000000 0.000000 
0.000000 0.000000 0.000000 
0.000000 0.000000 0.000000 

0.000000 0.000000 0.000000 
0.000000 0.000000 0.000000 
0.000000 0.000000 0.000000 

-0.000000 -0.000000 0.000000 
0.000000 0.000000 0.000000 
0.000000 0.000000 0.000000 

-0.000000 -0.000000 0.000000 
0.000000 0.000000 0.000000 
0.000000 0.000000 0.000000 

0.000000 -0.000000 0.000000 
0.000000 -0.000000 0.000000 
0.000000 0.000000 0.000000 

0.000000 -0.000000 0.000000 
0.000000 0.000000 0.000000 
0.000000 0.000000 0.000000 

0.000000 -0.000000 0.000000 
0.000000 0.000000 0.000000 
0.000000 0.000000 0.000000 

-0.000000 0.000000 0.000000 
0.000000 -0.000000 0.000000 
0.000000 0.000000 0.000000 

-0.000000 0.000000 0.000000 
0.000000 0.000000 0.000000 
0.000000 0.000000 0.000000 

-0.000000 0.000000 0.000000 
0.000000 -0.000000 0.000000 
0.000000 0.000000 0.000000 

-0.000000 -0.000000 0.000000 
0.000000 -0.000000 0.000000 
0.000000 0.000000 0.000000 

0.000000 0.000000 0.000000 
0.000000 0.000000 0.000000 
0.000000 0.000000 0.000000 

0.000000 -0.000000 0.000000 
0.000000 0.000000 0.000000 
0.000000 0.000000 0.000000 

-0.000000 0.000000 0.000000 
0.000000 -0.000000 0.000000 
0.000000 0.000000 0.000000 

0.000000 -0.000000 0.000000 
0.000000 0.000000 0.000000 
0.000000 0.000000 0.000000 

0.000000 -0.000000 0.000000 
0.000000 0.000000 0.000000 
0.000000 0.000000 0.000000 

0.000000 -0.000000 0.000000 
0.000000 -0.000000 0.000000 
0.000000 0.000000 0.000000 

-0.000000 0.000000 0.000000 
0.000000 -0.000000 0.000000 
0.000000 0.000000 0.000000 

0.000000 -0.000000 0.000000 
0.000000 0.000000 0.000000 
0.000000 0.000000 0.000000 

-0.000000 -0.000000 0.000000 
0.000000 -0.000000 0.000000 
0.000000 0.000000 0.000000 

0.000000 -0.000000 0.000000 
0.000000 0.000000 0.000000 
0.000000 0.000000 0.000000 

0.000000 -0.000000 0.000000 
0.000000 -0.000000 0.000000 
0.000000 0.000000 0.000000 

0.000000 -0.000000 0.000000 
0.000000 0.000000 0.000000 
0.000000 0.000000 0.000000 

0.000000 -0.000000 0.000000 
0.000000 0.000000 0.000000 
0.000000 0.000000 0.000000 

0.000000 -0.000000 0.000000 
0.000000 -0.000000 0.000000 
0.000000 0.000000 0.000000 

-0.000000 -0.000000 0.000000 
0.000000 -0.000000 0.000000 
0.000000 0.000000 0.000000 

-0.000000 -0.000000 0.000000 
0.000000 -0.000000 0.000000 
0.000000 0.000000 0.000000 

0.000000 0.000000 0.000000 
0.000000 0.000000 0.000000 
0.000000 0.000000 0.000000 

0.000000 0.000000 0.000000 
0.000000 0.000000 0.000000 
0.000000 0.000000 0.000000 

0.000000 0.000000 0.000000 
0.000000 0.000000 0.000000 
0.000000 0.000000 0.000000 

0.000000 0.000000 0.000000 
0.000000 0.000000 0.000000 
0.000000 0.000000 0.000000 

0.000000 0.000000 0.000000 
0.000000 0.000000 0.000000 
0.000000 0.000000 0.000000 

-0.000000 0.000000 0.000000 
0.000000 -0.000000 0.000000 
0.000000 0.000000 0.000000 

-0.000000 0.000000 0.000000 
0.000000 -0.000000 0.000000 
0.000000 0.000000 0.000000 

-0.000000 0.000000 0.000000 
0.000000 -0.000000 0.000000 
0.000000 0.000000 0.000000 

0.000000 -0.000000 0.000000 
0.000000 -0.000000 0.000000 
0.000000 0.000000 0.000000 

0.000000 0.000000 0.000000 
0.000000 0.000000 0.000000 
0.000000 0.000000 0.000000 

0.000000 -0.000000 0.000000 
0.000000 0.000000 0.000000 
0.000000 0.000000 0.000000 

0.000000 -0.000000 0.000000 
0.000000 0.000000 0.000000 
0.000000 0.000000 0.000000 

-0.000000 -0.000000 0.000000 
0.000000 -0.000000 0.000000 
0.000000 0.000000 0.000000 

0.000000 -0.000000 0.000000 
0.000000 0.000000 0.000000 
0.000000 0.000000 0.000000 

0.000000 -0.000000 0.000000 
0.000000 0.000000 0.000000 
0.000000 0.000000 0.000000 

-0.000000 -0.000000 0.000000 
0.000000 -0.000000 0.000000 
0.000000 0.000000 0.000000 

-0.000000 -0.000000 0.000000 
0.000000 -0.000000 0.000000 
0.000000 0.000000 0.000000 

-0.000000 -0.000000 0.000000 
0.000000 0.000000 0.000000 
0.000000 0.000000 0.000000 

-0.000000 -0.000000 0.000000 
0.000000 -0.000000 0.000000 
0.000000 0.000000 0.000000 

-0.000000 -0.000000 0.000000 
0.000000 -0.000000 0.000000 
0.000000 0.000000 0.000000 

-0.000000 -0.000000 0.000000 
0.000000 -0.000000 0.000000 
0.000000 0.000000 0.000000 

0.000000 -0.000000 0.000000 
0.000000 0.000000 0.000000 
0.000000 0.000000 0.000000 

-0.000000 0.000000 0.000000 
0.000000 0.000000 0.000000 
0.000000 0.000000 0.000000 

-0.000000 -0.000000 0.000000 
0.000000 0.000000 0.000000 
0.000000 0.000000 0.000000 

-0.000000 0.000000 0.000000 
0.000000 0.000000 0.000000 
0.000000 0.000000 0.000000 

-0.000000 -0.000000 0.000000 
0.000000 0.000000 0.000000 
0.000000 0.000000 0.000000 

-0.000000 -0.000000 0.000000 
0.000000 -0.000000 0.000000 
0.000000 0.000000 0.000000 

-0.000000 -0.000000 0.000000 
0.000000 -0.000000 0.000000 
0.000000 0.000000 0.000000 

-0.000000 -0.000000 0.000000 
0.000000 -0.000000 0.000000 
0.000000 0.000000 0.000000 

-0.000000 -0.000000 0.000000 
0.000000 -0.000000 0.000000 
0.000000 0.000000 0.000000 

-0.000000 -0.000000 0.000000 
0.000000 -0.000000 0.000000 
0.000000 0.000000 0.000000 

-0.000000 -0.000000 0.000000 
0.000000 -0.000000 0.000000 
0.000000 0.000000 0.000000 

-0.000000 0.000000 0.000000 
0.000000 -0.000000 0.000000 
0.000000 0.000000 0.000000 

-0.000000 -0.000000 0.000000 
0.000000 -0.000000 0.000000 
0.000000 0.000000 0.000000 

-0.000000 0.000000 0.000000 
0.000000 0.000000 0.000000 
0.000000 0.000000 0.000000 

-0.000000 -0.000000 0.000000 
0.000000 -0.000000 0.000000 
0.000000 0.000000 0.000000 

0.000000 0.000000 0.000000 
0.000000 -0.000000 0.000000 
0.000000 0.000000 0.000000 

0.000000 -0.000000 0.000000 
0.000000 0.000000 0.000000 
0.000000 0.000000 0.000000 

0.000000 0.000000 0.000000 
0.000000 0.000000 0.000000 
0.000000 0.000000 0.000000 

-0.000000 -0.000000 0.000000 
0.000000 -0.000000 0.000000 
0.000000 0.000000 0.000000 

0.000000 0.000000 0.000000 
0.000000 -0.000000 0.000000 
0.000000 0.000000 0.000000 

-0.000000 -0.000000 0.000000 
0.000000 0.000000 0.000000 
0.000000 0.000000 0.000000 

-0.000000 -0.000000 0.000000 
0.000000 -0.000000 0.000000 
0.000000 0.000000 0.000000 

-0.000000 -0.000000 0.000000 
0.000000 -0.000000 0.000000 
0.000000 0.000000 0.000000 

-0.000000 -0.000000 0.000000 
0.000000 -0.000000 0.000000 
0.000000 0.000000 0.000000 

0.000000 0.000000 0.000000 
0.000000 -0.000000 0.000000 
0.000000 0.000000 0.000000 

0.000000 -0.000000 0.000000 
0.000000 0.000000 0.000000 
0.000000 0.000000 0.000000 

0.000000 -0.000000 0.000000 
0.000000 0.000000 0.000000 
0.000000 0.000000 0.000000 

0.000000 -0.000000 0.000000 
0.000000 0.000000 0.000000 
0.000000 0.000000 0.000000 

0.000000 0.000000 0.000000 
0.000000 0.000000 0.000000 
0.000000 0.000000 0.000000 

0.000000 0.000000 0.000000 
0.000000 0.000000 0.000000 
0.000000 0.000000 0.000000 

-0.000000 -0.000000 0.000000 
0.000000 -0.000000 0.000000 
0.000000 0.000000 0.000000 

0.000000 0.000000 0.000000 
0.000000 0.000000 0.000000 
0.000000 0.000000 0.000000 

0.000000 0.000000 0.000000 
0.000000 0.000000 0.000000 
0.000000 0.000000 0.000000 

0.000000 -0.000000 0.000000 
0.000000 0.000000 0.000000 
0.000000 0.000000 0.000000 

0.000000 -0.000000 0.000000 
0.000000 -0.000000 0.000000 
0.000000 0.000000 0.000000 

0.000000 0.000000 0.000000 
0.000000 -0.000000 0.000000 
0.000000 0.000000 0.000000 

0.000000 0.000000 0.000000 
0.000000 -0.000000 0.000000 
0.000000 0.000000 0.000000 

-0.000000 -0.000000 0.000000 
0.000000 -0.000000 0.000000 
0.000000 0.000000 0.000000 

-0.000000 -0.000000 0.000000 
0.000000 -0.000000 0.000000 
0.000000 0.000000 0.000000 

0.000000 -0.000000 0.000000 
0.000000 0.000000 0.000000 
0.000000 0.000000 0.000000 

-0.000000 0.000000 0.000000 
0.000000 -0.000000 0.000000 
0.000000 0.000000 0.000000 

0.000000 0.000000 0.000000 
0.000000 -0.000000 0.000000 
0.000000 0.000000 0.000000 

0.000000 0.000000 0.000000 
0.000000 -0.000000 0.000000 
0.000000 0.000000 0.000000 

0.000000 0.000000 0.000000 
0.000000 -0.000000 0.000000 
0.000000 0.000000 0.000000 

-0.000000 0.000000 0.000000 
0.000000 -0.000000 0.000000 
0.000000 0.000000 0.000000 

0.000000 0.000000 0.000000 
0.000000 -0.000000 0.000000 
0.000000 0.000000 0.000000 

0.000000 0.000000 0.000000 
0.000000 0.000000 0.000000 
0.000000 0.000000 0.000000 

0.000000 0.000000 0.000000 
0.000000 0.000000 0.000000 
0.000000 0.000000 0.000000 

0.000000 0.000000 0.000000 
0.000000 0.000000 0.000000 
0.000000 0.000000 0.000000 

-0.000000 0.000000 0.000000 
0.000000 -0.000000 0.000000 
0.000000 0.000000 0.000000 

0.000000 0.000000 0.000000 
0.000000 -0.000000 0.000000 
0.000000 0.000000 0.000000 

0.000000 0.000000 0.000000 
0.000000 0.000000 0.000000 
0.000000 0.000000 0.000000 

0.000000 0.000000 0.000000 
0.000000 0.000000 0.000000 
0.000000 0.000000 0.000000 

0.000000 0.000000 0.000000 
0.000000 -0.000000 0.000000 
0.000000 0.000000 0.000000 

0.000000 0.000000 0.000000 
0.000000 0.000000 0.000000 
0.000000 0.000000 0.000000 

0.000000 0.000000 0.000000 
0.000000 -0.000000 0.000000 
0.000000 0.000000 0.000000 

0.000000 -0.000000 0.000000 
0.000000 -0.000000 0.000000 
0.000000 0.000000 0.000000 

0.000000 -0.000000 0.000000 
0.000000 0.000000 0.000000 
0.000000 0.000000 0.000000 

0.000000 -0.000000 0.000000 
0.000000 0.000000 0.000000 
0.000000 0.000000 0.000000 

0.000000 0.000000 0.000000 
0.000000 0.000000 0.000000 
0.000000 0.000000 0.000000 

0.000000 0.000000 0.000000 
0.000000 0.000000 0.000000 
0.000000 0.000000 0.000000 

0.000000 0.000000 0.000000 
0.000000 -0.000000 0.000000 
0.000000 0.000000 0.000000 

-0.000000 0.000000 0.000000 
0.000000 -0.000000 0.000000 
0.000000 0.000000 0.000000 

-0.000000 -0.000000 0.000000 
0.000000 -0.000000 0.000000 
0.000000 0.000000 0.000000 

0.000000 -0.000000 0.000000 
0.000000 -0.000000 0.000000 
0.000000 0.000000 0.000000 

0.000000 -0.000000 0.000000 
0.000000 0.000000 0.000000 
0.000000 0.000000 0.000000 

0.000000 0.000000 0.000000 
0.000000 0.000000 0.000000 
0.000000 0.000000 0.000000 

0.000000 0.000000 0.000000 
0.000000 0.000000 0.000000 
0.000000 0.000000 0.000000 

-0.000000 0.000000 0.000000 
0.000000 -0.000000 0.000000 
0.000000 0.000000 0.000000 

0.000000 0.000000 0.000000 
0.000000 0.000000 0.000000 
0.000000 0.000000 0.000000 

0.000000 0.000000 0.000000 
0.000000 0.000000 0.000000 
0.000000 0.000000 0.000000 

-0.000000 0.000000 0.000000 
0.000000 -0.000000 0.000000 
0.000000 0.000000 0.000000 

0.000000 0.000000 0.000000 
0.000000 0.000000 0.000000 
0.000000 0.000000 0.000000 

-0.000000 -0.000000 0.000000 
0.000000 -0.000000 0.000000 
0.000000 0.000000 0.000000 

0.000000 0.000000 0.000000 
0.000000 -0.000000 0.000000 
0.000000 0.000000 0.000000 

0.000000 -0.000000 0.000000 
0.000000 0.000000 0.000000 
0.000000 0.000000 0.000000 

0.000000 0.000000 0.000000 
0.000000 0.000000 0.000000 
0.000000 0.000000 0.000000 

0.000000 0.000000 0.000000 
0.000000 0.000000 0.000000 
0.000000 0.000000 0.000000 

0.000000 0.000000 0.000000 
0.000000 0.000000 0.000000 
0.000000 0.000000 0.000000 

-0.000000 0.000000 0.000000 
0.000000 -0.000000 0.000000 
0.000000 0.000000 0.000000 

-0.000000 0.000000 0.000000 
0.000000 -0.000000 0.000000 
0.000000 0.000000 0.000000 

0.000000 0.000000 0.000000 
0.000000 0.000000 0.000000 
0.000000 0.000000 0.000000 

0.000000 -0.000000 0.000000 
0.000000 0.000000 0.000000 
0.000000 0.000000 0.000000 

0.000000 0.000000 0.000000 
0.000000 0.000000 0.000000 
0.000000 0.000000 0.000000 

-0.000000 0.000000 0.000000 
0.000000 -0.000000 0.000000 
0.000000 0.000000 0.000000 

0.000000 0.000000 0.000000 
0.000000 0.000000 0.000000 
0.000000 0.000000 0.000000 

0.000000 0.000000 0.000000 
0.000000 0.000000 0.000000 
0.000000 0.000000 0.000000 

0.000000 0.000000 0.000000 
0.000000 -0.000000 0.000000 
0.000000 0.000000 0.000000 

-0.000000 0.000000 0.000000 
0.000000 -0.000000 0.000000 
0.000000 0.000000 0.000000 

0.000000 -0.000000 0.000000 
0.000000 -0.000000 0.000000 
0.000000 0.000000 0.000000 

0.000000 -0.000000 0.000000 
0.000000 -0.000000 0.000000 
0.000000 0.000000 0.000000 

-0.000000 0.000000 0.000000 
0.000000 -0.000000 0.000000 
0.000000 0.000000 0.000000 

0.000000 0.000000 0.000000 
0.000000 -0.000000 0.000000 
0.000000 0.000000 0.000000 

0.000000 0.000000 0.000000 
0.000000 0.000000 0.000000 
0.000000 0.000000 0.000000 

-0.000000 -0.000000 0.000000 
0.000000 -0.000000 0.000000 
0.000000 0.000000 0.000000 

-0.000000 -0.000000 0.000000 
0.000000 -0.000000 0.000000 
0.000000 0.000000 0.000000 

-0.000000 0.000000 0.000000 
0.000000 -0.000000 0.000000 
0.000000 0.000000 0.000000 

-0.000000 0.000000 0.000000 
0.000000 -0.000000 0.000000 
0.000000 0.000000 0.000000 

-0.000000 0.000000 0.000000 
0.000000 -0.000000 0.000000 
0.000000 0.000000 0.000000 

0.000000 -0.000000 0.000000 
0.000000 0.000000 0.000000 
0.000000 0.000000 0.000000 

0.000000 -0.000000 0.000000 
0.000000 0.000000 0.000000 
0.000000 0.000000 0.000000 

0.000000 -0.000000 0.000000 
0.000000 0.000000 0.000000 
0.000000 0.000000 0.000000 

-0.000000 -0.000000 0.000000 
0.000000 -0.000000 0.000000 
0.000000 0.000000 0.000000 

-0.000000 0.000000 0.000000 
0.000000 -0.000000 0.000000 
0.000000 0.000000 0.000000 

-0.000000 0.000000 0.000000 
0.000000 -0.000000 0.000000 
0.000000 0.000000 0.000000 

0.000000 0.000000 0.000000 
0.000000 -0.000000 0.000000 
0.000000 0.000000 0.000000 

0.000000 0.000000 0.000000 
0.000000 0.000000 0.000000 
0.000000 0.000000 0.000000 

0.000000 0.000000 0.000000 
0.000000 0.000000 0.000000 
0.000000 0.000000 0.000000 

0.000000 0.000000 0.000000 
0.000000 -0.000000 0.000000 
0.000000 0.000000 0.000000 

0.000000 -0.000000 0.000000 
0.000000 0.000000 0.000000 
0.000000 0.000000 0.000000 

0.000000 0.000000 0.000000 
0.000000 -0.000000 0.000000 
0.000000 0.000000 0.000000 

0.000000 0.000000 0.000000 
0.000000 -0.000000 0.000000 
0.000000 0.000000 0.000000 

0.000000 0.000000 0.000000 
0.000000 0.000000 0.000000 
0.000000 0.000000 0.000000 

0.000000 0.000000 0.000000 
0.000000 0.000000 0.000000 
0.000000 0.000000 0.000000 

0.000000 0.000000 0.000000 
0.000000 0.000000 0.000000 
0.000000 0.000000 0.000000 

TENSORS STRAIN float 
0.000000 -0.000000 0.000000 
0.000000 -0.000000 0.000000 
0.000000 0.000000 0.000000 

0.000000 -0.000000 0.000000 
0.000000 -0.000000 0.000000 
0.000000 0.000000 0.000000 

0.000000 -0.000000 0.000000 
0.000000 -0.000000 0.000000 
0.000000 0.000000 0.000000 

0.000000 0.000000 0.000000 
0.000000 -0.000000 0.000000 
0.000000 0.000000 0.000000 

0.000000 0.000000 0.000000 
0.000000 -0.000000 0.000000 
0.000000 0.000000 0.000000 

0.000000 0.000000 0.000000 
0.000000 0.000000 0.000000 
0.000000 0.000000 0.000000 

0.000000 0.000000 0.000000 
0.000000 0.000000 0.000000 
0.000000 0.000000 0.000000 

0.000000 0.000000 0.000000 
0.000000 -0.000000 0.000000 
0.000000 0.000000 0.000000 

-0.000000 0.000000 0.000000 
0.000000 -0.000000 0.000000 
0.000000 0.000000 0.000000 

0.000000 0.000000 0.000000 
0.000000 0.000000 0.000000 
0.000000 0.000000 0.000000 

0.000000 0.000000 0.000000 
0.000000 -0.000000 0.000000 
0.000000 0.000000 0.000000 

0.000000 -0.000000 0.000000 
0.000000 -0.000000 0.000000 
0.000000 0.000000 0.000000 

0.000000 0.000000 0.000000 
0.000000 0.000000 0.000000 
0.000000 0.000000 0.000000 

0.000000 0.000000 0.000000 
0.000000 0.000000 0.000000 
0.000000 0.000000 0.000000 

-0.000000 -0.000000 0.000000 
0.000000 0.000000 0.000000 
0.000000 0.000000 0.000000 

-0.000000 -0.000000 0.000000 
0.000000 0.000000 0.000000 
0.000000 0.000000 0.000000 

0.000000 -0.000000 0.000000 
0.000000 -0.000000 0.000000 
0.000000 0.000000 0.000000 

0.000000 -0.000000 0.000000 
0.000000 0.000000 0.000000 
0.000000 0.000000 0.000000 

0.000000 -0.000000 0.000000 
0.000000 0.000000 0.000000 
0.000000 0.000000 0.000000 

0.000000 0.000000 0.000000 
0.000000 -0.000000 0.000000 
0.000000 0.000000 0.000000 

-0.000000 0.000000 0.000000 
0.000000 0.000000 0.000000 
0.000000 0.000000 0.000000 

-0.000000 0.000000 0.000000 
0.000000 -0.000000 0.000000 
0.000000 0.000000 0.000000 

-0.000000 -0.000000 0.000000 
0.000000 -0.000000 0.000000 
0.000000 0.000000 0.000000 

-0.000000 0.000000 0.000000 
0.000000 0.000000 0.000000 
0.000000 0.000000 0.000000 

0.000000 -0.000000 0.000000 
0.000000 0.000000 0.000000 
0.000000 0.000000 0.000000 

0.000000 0.000000 0.000000 
0.000000 -0.000000 0.000000 
0.000000 0.000000 0.000000 

0.000000 -0.000000 0.000000 
0.000000 0.000000 0.000000 
0.000000 0.000000 0.000000 

0.000000 -0.000000 0.000000 
0.000000 0.000000 0.000000 
0.000000 0.000000 0.000000 

0.000000 -0.000000 0.000000 
0.000000 -0.000000 0.000000 
0.000000 0.000000 0.000000 

0.000000 0.000000 0.000000 
0.000000 -0.000000 0.000000 
0.000000 0.000000 0.000000 

0.000000 -0.000000 0.000000 
0.000000 -0.000000 0.000000 
0.000000 0.000000 0.000000 

0.000000 -0.000000 0.000000 
0.000000 -0.000000 0.000000 
0.000000 0.000000 0.000000 

0.000000 -0.000000 0.000000 
0.000000 -0.000000 0.000000 
0.000000 0.000000 0.000000 

0.000000 -0.000000 0.000000 
0.000000 -0.000000 0.000000 
0.000000 0.000000 0.000000 

0.000000 -0.000000 0.000000 
0.000000 0.000000 0.000000 
0.000000 0.000000 0.000000 

0.000000 -0.000000 0.000000 
0.000000 0.000000 0.000000 
0.000000 0.000000 0.000000 

0.000000 -0.000000 0.000000 
0.000000 -0.000000 0.000000 
0.000000 0.000000 0.000000 

0.000000 -0.000000 0.000000 
0.000000 -0.000000 0.000000 
0.000000 0.000000 0.000000 

0.000000 -0.000000 0.000000 
0.000000 -0.000000 0.000000 
0.000000 0.000000 0.000000 

0.000000 0.000000 0.000000 
0.000000 0.000000 0.000000 
0.000000 0.000000 0.000000 

0.000000 0.000000 0.000000 
0.000000 0.000000 0.000000 
0.000000 0.000000 0.000000 

-0.000000 0.000000 0.000000 
0.000000 0.000000 0.000000 
0.000000 0.000000 0.000000 

-0.000000 0.000000 0.000000 
0.000000 0.000000 0.000000 
0.000000 0.000000 0.000000 

0.000000 0.000000 0.000000 
0.000000 0.000000 0.000000 
0.000000 0.000000 0.000000 

-0.000000 0.000000 0.000000 
0.000000 -0.000000 0.000000 
0.000000 0.000000 0.000000 

-0.000000 0.000000 0.000000 
0.000000 -0.000000 0.000000 
0.000000 0.000000 0.000000 

-0.000000 0.000000 0.000000 
0.000000 0.000000 0.000000 
0.000000 0.000000 0.000000 

0.000000 -0.000000 0.000000 
0.000000 -0.000000 0.000000 
0.000000 0.000000 0.000000 

0.000000 0.000000 0.000000 
0.000000 0.000000 0.000000 
0.000000 0.000000 0.000000 

0.000000 -0.000000 0.000000 
0.000000 0.000000 0.000000 
0.000000 0.000000 0.000000 

0.000000 -0.000000 0.000000 
0.000000 0.000000 0.000000 
0.000000 0.000000 0.000000 

-0.000000 -0.000000 0.000000 
0.000000 -0.000000 0.000000 
0.000000 0.000000 0.000000 

0.000000 -0.000000 0.000000 
0.000000 0.000000 0.000000 
0.000000 0.000000 0.000000 

0.000000 -0.000000 0.000000 
0.000000 0.000000 0.000000 
0.000000 0.000000 0.000000 

-0.000000 -0.000000 0.000000 
0.000000 -0.000000 0.000000 
0.000000 0.000000 0.000000 

-0.000000 -0.000000 0.000000 
0.000000 -0.000000 0.000000 
0.000000 0.000000 0.000000 

-0.000000 -0.000000 0.000000 
0.000000 0.000000 0.000000 
0.000000 0.000000 0.000000 

-0.000000 -0.000000 0.000000 
0.000000 -0.000000 0.000000 
0.000000 0.000000 0.000000 

-0.000000 -0.000000 0.000000 
0.000000 -0.000000 0.000000 
0.000000 0.000000 0.000000 

-0.000000 -0.000000 0.000000 
0.000000 0.000000 0.000000 
0.000000 0.000000 0.000000 

-0.000000 -0.000000 0.000000 
0.000000 0.000000 0.000000 
0.000000 0.000000 0.000000 

-0.000000 0.000000 0.000000 
0.000000 0.000000 0.000000 
0.000000 0.000000 0.000000 

-0.000000 -0.000000 0.000000 
0.000000 0.000000 0.000000 
0.000000 0.000000 0.000000 

-0.000000 0.000000 0.000000 
0.000000 0.000000 0.000000 
0.000000 0.000000 0.000000 

-0.000000 -0.000000 0.000000 
0.000000 0.000000 0.000000 
0.000000 0.000000 0.000000 

-0.000000 -0.000000 0.000000 
0.000000 0.000000 0.000000 
0.000000 0.000000 0.000000 

-0.000000 -0.000000 0.000000 
0.000000 -0.000000 0.000000 
0.000000 0.000000 0.000000 

-0.000000 -0.000000 0.000000 
0.000000 -0.000000 0.000000 
0.000000 0.000000 0.000000 

-0.000000 -0.000000 0.000000 
0.000000 -0.000000 0.000000 
0.000000 0.000000 0.000000 

-0.000000 -0.000000 0.000000 
0.000000 -0.000000 0.000000 
0.000000 0.000000 0.000000 

-0.000000 -0.000000 0.000000 
0.000000 -0.000000 0.000000 
0.000000 0.000000 0.000000 

-0.000000 0.000000 0.000000 
0.000000 0.000000 0.000000 
0.000000 0.000000 0.000000 

-0.000000 -0.000000 0.000000 
0.000000 -0.000000 0.000000 
0.000000 0.000000 0.000000 

-0.000000 0.000000 0.000000 
0.000000 0.000000 0.000000 
0.000000 0.000000 0.000000 

-0.000000 -0.000000 0.000000 
0.000000 0.000000 0.000000 
0.000000 0.000000 0.000000 

0.000000 0.000000 0.000000 
0.000000 -0.000000 0.000000 
0.000000 0.000000 0.000000 

-0.000000 -0.000000 0.000000 
0.000000 0.000000 0.000000 
0.000000 0.000000 0.000000 

0.000000 0.000000 0.000000 
0.000000 0.000000 0.000000 
0.000000 0.000000 0.000000 

-0.000000 -0.000000 0.000000 
0.000000 -0.000000 0.000000 
0.000000 0.000000 0.000000 

0.000000 0.000000 0.000000 
0.000000 -0.000000 0.000000 
0.000000 0.000000 0.000000 

-0.000000 -0.000000 0.000000 
0.000000 0.000000 0.000000 
0.000000 0.000000 0.000000 

-0.000000 -0.000000 0.000000 
0.000000 0.000000 0.000000 
0.000000 0.000000 0.000000 

-0.000000 -0.000000 0.000000 
0.000000 -0.000000 0.000000 
0.000000 0.000000 0.000000 

-0.000000 -0.000000 0.000000 
0.000000 -0.000000 0.000000 
0.000000 0.000000 0.000000 

0.000000 0.000000 0.000000 
0.000000 -0.000000 0.000000 
0.000000 0.000000 0.000000 

0.000000 -0.000000 0.000000 
0.000000 0.000000 0.000000 
0.000000 0.000000 0.000000 

0.000000 -0.000000 0.000000 
0.000000 0.000000 0.000000 
0.000000 0.000000 0.000000 

0.000000 -0.000000 0.000000 
0.000000 0.000000 0.000000 
0.000000 0.000000 0.000000 

0.000000 0.000000 0.000000 
0.000000 0.000000 0.000000 
0.000000 0.000000 0.000000 

-0.000000 0.000000 0.000000 
0.000000 0.000000 0.000000 
0.000000 0.000000 0.000000 

-0.000000 -0.000000 0.000000 
0.000000 -0.000000 0.000000 
0.000000 0.000000 0.000000 

0.000000 0.000000 0.000000 
0.000000 0.000000 0.000000 
0.000000 0.000000 0.000000 

0.000000 0.000000 0.000000 
0.000000 0.000000 0.000000 
0.000000 0.000000 0.000000 

0.000000 -0.000000 0.000000 
0.000000 -0.000000 0.000000 
0.000000 0.000000 0.000000 

0.000000 -0.000000 0.000000 
0.000000 -0.000000 0.000000 
0.000000 0.000000 0.000000 

0.000000 0.000000 0.000000 
0.000000 -0.000000 0.000000 
0.000000 0.000000 0.000000 

0.000000 0.000000 0.000000 
0.000000 -0.000000 0.000000 
0.000000 0.000000 0.000000 

-0.000000 -0.000000 0.000000 
0.000000 0.000000 0.000000 
0.000000 0.000000 0.000000 

-0.000000 -0.000000 0.000000 
0.000000 0.000000 0.000000 
0.000000 0.000000 0.000000 

-0.000000 -0.000000 0.000000 
0.000000 0.000000 0.000000 
0.000000 0.000000 0.000000 

0.000000 0.000000 0.000000 
0.000000 -0.000000 0.000000 
0.000000 0.000000 0.000000 

0.000000 0.000000 0.000000 
0.000000 -0.000000 0.000000 
0.000000 0.000000 0.000000 

0.000000 0.000000 0.000000 
0.000000 -0.000000 0.000000 
0.000000 0.000000 0.000000 

0.000000 0.000000 0.000000 
0.000000 -0.000000 0.000000 
0.000000 0.000000 0.000000 

0.000000 0.000000 0.000000 
0.000000 -0.000000 0.000000 
0.000000 0.000000 0.000000 

0.000000 0.000000 0.000000 
0.000000 -0.000000 0.000000 
0.000000 0.000000 0.000000 

0.000000 0.000000 0.000000 
0.000000 -0.000000 0.000000 
0.000000 0.000000 0.000000 

0.000000 0.000000 0.000000 
0.000000 0.000000 0.000000 
0.000000 0.000000 0.000000 

0.000000 0.000000 0.000000 
0.000000 0.000000 0.000000 
0.000000 0.000000 0.000000 

0.000000 0.000000 0.000000 
0.000000 -0.000000 0.000000 
0.000000 0.000000 0.000000 

0.000000 0.000000 0.000000 
0.000000 -0.000000 0.000000 
0.000000 0.000000 0.000000 

0.000000 0.000000 0.000000 
0.000000 0.000000 0.000000 
0.000000 0.000000 0.000000 

0.000000 0.000000 0.000000 
0.000000 -0.000000 0.000000 
0.000000 0.000000 0.000000 

0.000000 0.000000 0.000000 
0.000000 -0.000000 0.000000 
0.000000 0.000000 0.000000 

0.000000 0.000000 0.000000 
0.000000 0.000000 0.000000 
0.000000 0.000000 0.000000 

0.000000 0.000000 0.000000 
0.000000 -0.000000 0.000000 
0.000000 0.000000 0.000000 

0.000000 -0.000000 0.000000 
0.000000 -0.000000 0.000000 
0.000000 0.000000 0.000000 

0.000000 -0.000000 0.000000 
0.000000 0.000000 0.000000 
0.000000 0.000000 0.000000 

0.000000 -0.000000 0.000000 
0.000000 0.000000 0.000000 
0.000000 0.000000 0.000000 

0.000000 0.000000 0.000000 
0.000000 0.000000 0.000000 
0.000000 0.000000 0.000000 

0.000000 0.000000 0.000000 
0.000000 0.000000 0.000000 
0.000000 0.000000 0.000000 

0.000000 0.000000 0.000000 
0.000000 -0.000000 0.000000 
0.000000 0.000000 0.000000 

-0.000000 0.000000 0.000000 
0.000000 -0.000000 0.000000 
0.000000 0.000000 0.000000 

-0.000000 -0.000000 0.000000 
0.000000 -0.000000 0.000000 
0.000000 0.000000 0.000000 

0.000000 -0.000000 0.000000 
0.000000 -0.000000 0.000000 
0.000000 0.000000 0.000000 

0.000000 -0.000000 0.000000 
0.000000 0.000000 0.000000 
0.000000 0.000000 0.000000 

0.000000 0.000000 0.000000 
0.000000 0.000000 0.000000 
0.000000 0.000000 0.000000 

-0.000000 0.000000 0.000000 
0.000000 0.000000 0.000000 
0.000000 0.000000 0.000000 

0.000000 0.000000 0.000000 
0.000000 -0.000000 0.000000 
0.000000 0.000000 0.000000 

0.000000 0.000000 0.000000 
0.000000 -0.000000 0.000000 
0.000000 0.000000 0.000000 

0.000000 0.000000 0.000000 
0.000000 0.000000 0.000000 
0.000000 0.000000 0.000000 

0.000000 0.000000 0.000000 
0.000000 -0.000000 0.000000 
0.000000 0.000000 0.000000 

0.000000 0.000000 0.000000 
0.000000 0.000000 0.000000 
0.000000 0.000000 0.000000 

0.000000 -0.000000 0.000000 
0.000000 -0.000000 0.000000 
0.000000 0.000000 0.000000 

0.000000 0.000000 0.000000 
0.000000 -0.000000 0.000000 
0.000000 0.000000 0.000000 

0.000000 -0.000000 0.000000 
0.000000 0.000000 0.000000 
0.000000 0.000000 0.000000 

0.000000 0.000000 0.000000 
0.000000 0.000000 0.000000 
0.000000 0.000000 0.000000 

0.000000 0.000000 0.000000 
0.000000 0.000000 0.000000 
0.000000 0.000000 0.000000 

0.000000 0.000000 0.000000 
0.000000 0.000000 0.000000 
0.000000 0.000000 0.000000 

0.000000 0.000000 0.000000 
0.000000 -0.000000 0.000000 
0.000000 0.000000 0.000000 

0.000000 0.000000 0.000000 
0.000000 -0.000000 0.000000 
0.000000 0.000000 0.000000 

0.000000 0.000000 0.000000 
0.000000 0.000000 0.000000 
0.000000 0.000000 0.000000 

0.000000 -0.000000 0.000000 
0.000000 0.000000 0.000000 
0.000000 0.000000 0.000000 

0.000000 0.000000 0.000000 
0.000000 0.000000 0.000000 
0.000000 0.000000 0.000000 

0.000000 0.000000 0.000000 
0.000000 -0.000000 0.000000 
0.000000 0.000000 0.000000 

0.000000 0.000000 0.000000 
0.000000 0.000000 0.000000 
0.000000 0.000000 0.000000 

0.000000 0.000000 0.000000 
0.000000 0.000000 0.000000 
0.000000 0.000000 0.000000 

0.000000 0.000000 0.000000 
0.000000 -0.000000 0.000000 
0.000000 0.000000 0.000000 

0.000000 0.000000 0.000000 
0.000000 -0.000000 0.000000 
0.000000 0.000000 0.000000 

0.000000 -0.000000 0.000000 
0.000000 -0.000000 0.000000 
0.000000 0.000000 0.000000 

0.000000 -0.000000 0.000000 
0.000000 -0.000000 0.000000 
0.000000 0.000000 0.000000 

0.000000 0.000000 0.000000 
0.000000 -0.000000 0.000000 
0.000000 0.000000 0.000000 

0.000000 0.000000 0.000000 
0.000000 -0.000000 0.000000 
0.000000 0.000000 0.000000 

0.000000 0.000000 0.000000 
0.000000 -0.000000 0.000000 
0.000000 0.000000 0.000000 

-0.000000 -0.000000 0.000000 
0.000000 -0.000000 0.000000 
0.000000 0.000000 0.000000 

0.000000 -0.000000 0.000000 
0.000000 -0.000000 0.000000 
0.000000 0.000000 0.000000 

0.000000 0.000000 0.000000 
0.000000 -0.000000 0.000000 
0.000000 0.000000 0.000000 

0.000000 0.000000 0.000000 
0.000000 -0.000000 0.000000 
0.000000 0.000000 0.000000 

0.000000 0.000000 0.000000 
0.000000 -0.000000 0.000000 
0.000000 0.000000 0.000000 

-0.000000 -0.000000 0.000000 
0.000000 0.000000 0.000000 
0.000000 0.000000 0.000000 

-0.000000 -0.000000 0.000000 
0.000000 0.000000 0.000000 
0.000000 0.000000 0.000000 

0.000000 -0.000000 0.000000 
0.000000 0.000000 0.000000 
0.000000 0.000000 0.000000 

-0.000000 -0.000000 0.000000 
0.000000 -0.000000 0.000000 
0.000000 0.000000 0.000000 

-0.000000 0.000000 0.000000 
0.000000 -0.000000 0.000000 
0.000000 0.000000 0.000000 

0.000000 0.000000 0.000000 
0.000000 -0.000000 0.000000 
0.000000 0.000000 0.000000 

0.000000 0.000000 0.000000 
0.000000 -0.000000 0.000000 
0.000000 0.000000 0.000000 

0.000000 0.000000 0.000000 
0.000000 0.000000 0.000000 
0.000000 0.000000 0.000000 

-0.000000 0.000000 0.000000 
0.000000 0.000000 0.000000 
0.000000 0.000000 0.000000 

0.000000 0.000000 0.000000 
0.000000 -0.000000 0.000000 
0.000000 0.000000 0.000000 

0.000000 -0.000000 0.000000 
0.000000 0.000000 0.000000 
0.000000 0.000000 0.000000 

0.000000 0.000000 0.000000 
0.000000 -0.000000 0.000000 
0.000000 0.000000 0.000000 

0.000000 0.000000 0.000000 
0.000000 -0.000000 0.000000 
0.000000 0.000000 0.000000 

0.000000 0.000000 0.000000 
0.000000 -0.000000 0.000000 
0.000000 0.000000 0.000000 

0.000000 0.000000 0.000000 
0.000000 -0.000000 0.000000 
0.000000 0.000000 0.000000 

0.000000 0.000000 0.000000 
0.000000 0.000000 0.000000 
0.000000 0.000000 0.000000 

