# vtk DataFile Version 3.0 
vtk output 
ASCII 
DATASET UNSTRUCTURED_GRID 
POINTS 175 float 
-0.026061 -0.488488 0.000000 
-0.106992 -0.420433 0.000000 
-0.054870 -0.428666 0.000000 
-0.028809 -0.382782 0.000000 
-0.186430 -0.356357 0.000000 
-0.137056 -0.358884 0.000000 
-0.114311 -0.305236 0.000000 
-0.058186 -0.320902 0.000000 
-0.029377 -0.280725 0.000000 
-0.265318 -0.293202 0.000000 
-0.217198 -0.294001 0.000000 
-0.196633 -0.236705 0.000000 
-0.143120 -0.245413 0.000000 
-0.116563 -0.198145 0.000000 
-0.058945 -0.217791 0.000000 
-0.029568 -0.179671 0.000000 
-0.344206 -0.230046 0.000000 
-0.296791 -0.230039 0.000000 
-0.278030 -0.170096 0.000000 
-0.225992 -0.175962 0.000000 
-0.201664 -0.123845 0.000000 
-0.145749 -0.137319 0.000000 
-0.117890 -0.092976 0.000000 
-0.059328 -0.115682 0.000000 
-0.029759 -0.078616 0.000000 
-0.058559 -0.529239 0.000000 
-0.162226 -0.550082 0.000000 
-0.123292 -0.514464 0.000000 
-0.142917 -0.465481 0.000000 
-0.261851 -0.572238 0.000000 
-0.229092 -0.535211 0.000000 
-0.256854 -0.483979 0.000000 
-0.209613 -0.449867 0.000000 
-0.223062 -0.402293 0.000000 
-0.360414 -0.594538 0.000000 
-0.329787 -0.557415 0.000000 
-0.361761 -0.505613 0.000000 
-0.321587 -0.469204 0.000000 
-0.341985 -0.418970 0.000000 
-0.290702 -0.386171 0.000000 
-0.302189 -0.339436 0.000000 
-0.458977 -0.616838 0.000000 
-0.429420 -0.579764 0.000000 
-0.464588 -0.527722 0.000000 
-0.427556 -0.490694 0.000000 
-0.453135 -0.439180 0.000000 
-0.407738 -0.403864 0.000000 
-0.425037 -0.354436 0.000000 
-0.370772 -0.322807 0.000000 
-0.381315 -0.276580 0.000000 
-0.046960 -0.580054 0.000000 
-0.095301 -0.674100 0.000000 
-0.098873 -0.621453 0.000000 
-0.149405 -0.606255 0.000000 
-0.140093 -0.765804 0.000000 
-0.148617 -0.717106 0.000000 
-0.205981 -0.706869 0.000000 
-0.203197 -0.648665 0.000000 
-0.248777 -0.629519 0.000000 
-0.184111 -0.856768 0.000000 
-0.194039 -0.809677 0.000000 
-0.254475 -0.802377 0.000000 
-0.257893 -0.748267 0.000000 
-0.309886 -0.732895 0.000000 
-0.303554 -0.672350 0.000000 
-0.347255 -0.652192 0.000000 
-0.228129 -0.947731 0.000000 
-0.238687 -0.901507 0.000000 
-0.301302 -0.896555 0.000000 
-0.307162 -0.844516 0.000000 
-0.363386 -0.832395 0.000000 
-0.362692 -0.774884 0.000000 
-0.412122 -0.757591 0.000000 
-0.403017 -0.695444 0.000000 
-0.445733 -0.674865 0.000000 
-0.000000 -0.602669 0.000000 
0.043388 -0.699100 0.000000 
-0.000000 -0.669068 0.000000 
-0.043388 -0.699100 0.000000 
0.087158 -0.791296 0.000000 
0.043769 -0.767598 0.000000 
-0.000000 -0.806064 0.000000 
-0.043769 -0.767598 0.000000 
-0.087158 -0.791296 0.000000 
0.130831 -0.882426 0.000000 
0.087824 -0.860827 0.000000 
0.044436 -0.903527 0.000000 
-0.000000 -0.872462 0.000000 
-0.044436 -0.903527 0.000000 
-0.087824 -0.860827 0.000000 
-0.130831 -0.882426 0.000000 
0.174505 -0.973556 0.000000 
0.131782 -0.952990 0.000000 
0.088871 -0.998856 0.000000 
0.044532 -0.970992 0.000000 
-0.000000 -1.007393 0.000000 
-0.044532 -0.970992 0.000000 
-0.088871 -0.998856 0.000000 
-0.131782 -0.952990 0.000000 
-0.174505 -0.973556 0.000000 
0.046960 -0.580054 0.000000 
0.149405 -0.606255 0.000000 
0.098873 -0.621453 0.000000 
0.095301 -0.674100 0.000000 
0.248777 -0.629519 0.000000 
0.203197 -0.648665 0.000000 
0.205981 -0.706869 0.000000 
0.148617 -0.717106 0.000000 
0.140093 -0.765804 0.000000 
0.347255 -0.652192 0.000000 
0.303554 -0.672350 0.000000 
0.309886 -0.732895 0.000000 
0.257893 -0.748267 0.000000 
0.254475 -0.802377 0.000000 
0.194039 -0.809677 0.000000 
0.184111 -0.856768 0.000000 
0.445733 -0.674865 0.000000 
0.403017 -0.695444 0.000000 
0.412122 -0.757591 0.000000 
0.362692 -0.774884 0.000000 
0.363386 -0.832395 0.000000 
0.307162 -0.844516 0.000000 
0.301302 -0.896555 0.000000 
0.238687 -0.901507 0.000000 
0.228129 -0.947731 0.000000 
0.058559 -0.529239 0.000000 
0.142917 -0.465481 0.000000 
0.123292 -0.514464 0.000000 
0.162226 -0.550082 0.000000 
0.223062 -0.402293 0.000000 
0.209613 -0.449867 0.000000 
0.256854 -0.483979 0.000000 
0.229092 -0.535211 0.000000 
0.261851 -0.572238 0.000000 
0.302189 -0.339436 0.000000 
0.290702 -0.386171 0.000000 
0.341985 -0.418970 0.000000 
0.321587 -0.469204 0.000000 
0.361761 -0.505613 0.000000 
0.329787 -0.557415 0.000000 
0.360414 -0.594538 0.000000 
0.381315 -0.276580 0.000000 
0.370772 -0.322807 0.000000 
0.425037 -0.354436 0.000000 
0.407738 -0.403864 0.000000 
0.453135 -0.439180 0.000000 
0.427556 -0.490694 0.000000 
0.464588 -0.527722 0.000000 
0.429420 -0.579764 0.000000 
0.458977 -0.616838 0.000000 
0.026061 -0.488488 0.000000 
0.028809 -0.382782 0.000000 
0.054870 -0.428666 0.000000 
0.106992 -0.420433 0.000000 
0.029377 -0.280725 0.000000 
0.058186 -0.320902 0.000000 
0.114311 -0.305236 0.000000 
0.137056 -0.358884 0.000000 
0.186430 -0.356357 0.000000 
0.029568 -0.179671 0.000000 
0.058945 -0.217791 0.000000 
0.116563 -0.198145 0.000000 
0.143120 -0.245413 0.000000 
0.196633 -0.236705 0.000000 
0.217198 -0.294001 0.000000 
0.265318 -0.293202 0.000000 
0.029759 -0.078616 0.000000 
0.059328 -0.115682 0.000000 
0.117890 -0.092976 0.000000 
0.145749 -0.137319 0.000000 
0.201664 -0.123845 0.000000 
0.225992 -0.175962 0.000000 
0.278030 -0.170096 0.000000 
0.296791 -0.230039 0.000000 
0.344206 -0.230046 0.000000 
CELLS 175 350 
1 0 
1 1 
1 2 
1 3 
1 4 
1 5 
1 6 
1 7 
1 8 
1 9 
1 10 
1 11 
1 12 
1 13 
1 14 
1 15 
1 16 
1 17 
1 18 
1 19 
1 20 
1 21 
1 22 
1 23 
1 24 
1 25 
1 26 
1 27 
1 28 
1 29 
1 30 
1 31 
1 32 
1 33 
1 34 
1 35 
1 36 
1 37 
1 38 
1 39 
1 40 
1 41 
1 42 
1 43 
1 44 
1 45 
1 46 
1 47 
1 48 
1 49 
1 50 
1 51 
1 52 
1 53 
1 54 
1 55 
1 56 
1 57 
1 58 
1 59 
1 60 
1 61 
1 62 
1 63 
1 64 
1 65 
1 66 
1 67 
1 68 
1 69 
1 70 
1 71 
1 72 
1 73 
1 74 
1 75 
1 76 
1 77 
1 78 
1 79 
1 80 
1 81 
1 82 
1 83 
1 84 
1 85 
1 86 
1 87 
1 88 
1 89 
1 90 
1 91 
1 92 
1 93 
1 94 
1 95 
1 96 
1 97 
1 98 
1 99 
1 100 
1 101 
1 102 
1 103 
1 104 
1 105 
1 106 
1 107 
1 108 
1 109 
1 110 
1 111 
1 112 
1 113 
1 114 
1 115 
1 116 
1 117 
1 118 
1 119 
1 120 
1 121 
1 122 
1 123 
1 124 
1 125 
1 126 
1 127 
1 128 
1 129 
1 130 
1 131 
1 132 
1 133 
1 134 
1 135 
1 136 
1 137 
1 138 
1 139 
1 140 
1 141 
1 142 
1 143 
1 144 
1 145 
1 146 
1 147 
1 148 
1 149 
1 150 
1 151 
1 152 
1 153 
1 154 
1 155 
1 156 
1 157 
1 158 
1 159 
1 160 
1 161 
1 162 
1 163 
1 164 
1 165 
1 166 
1 167 
1 168 
1 169 
1 170 
1 171 
1 172 
1 173 
1 174 
CELL_TYPES 175 
1 
1 
1 
1 
1 
1 
1 
1 
1 
1 
1 
1 
1 
1 
1 
1 
1 
1 
1 
1 
1 
1 
1 
1 
1 
1 
1 
1 
1 
1 
1 
1 
1 
1 
1 
1 
1 
1 
1 
1 
1 
1 
1 
1 
1 
1 
1 
1 
1 
1 
1 
1 
1 
1 
1 
1 
1 
1 
1 
1 
1 
1 
1 
1 
1 
1 
1 
1 
1 
1 
1 
1 
1 
1 
1 
1 
1 
1 
1 
1 
1 
1 
1 
1 
1 
1 
1 
1 
1 
1 
1 
1 
1 
1 
1 
1 
1 
1 
1 
1 
1 
1 
1 
1 
1 
1 
1 
1 
1 
1 
1 
1 
1 
1 
1 
1 
1 
1 
1 
1 
1 
1 
1 
1 
1 
1 
1 
1 
1 
1 
1 
1 
1 
1 
1 
1 
1 
1 
1 
1 
1 
1 
1 
1 
1 
1 
1 
1 
1 
1 
1 
1 
1 
1 
1 
1 
1 
1 
1 
1 
1 
1 
1 
1 
1 
1 
1 
1 
1 
1 
1 
1 
1 
1 
1 
POINT_DATA 175 
VECTORS X_GC float 
-0.026061 -0.488488 0.000000 
-0.106992 -0.420433 0.000000 
-0.054870 -0.428666 0.000000 
-0.028809 -0.382782 0.000000 
-0.186430 -0.356357 0.000000 
-0.137056 -0.358884 0.000000 
-0.114311 -0.305236 0.000000 
-0.058186 -0.320902 0.000000 
-0.029377 -0.280725 0.000000 
-0.265318 -0.293202 0.000000 
-0.217198 -0.294001 0.000000 
-0.196633 -0.236705 0.000000 
-0.143120 -0.245413 0.000000 
-0.116563 -0.198145 0.000000 
-0.058945 -0.217791 0.000000 
-0.029568 -0.179671 0.000000 
-0.344206 -0.230046 0.000000 
-0.296791 -0.230039 0.000000 
-0.278030 -0.170096 0.000000 
-0.225992 -0.175962 0.000000 
-0.201664 -0.123845 0.000000 
-0.145749 -0.137319 0.000000 
-0.117890 -0.092976 0.000000 
-0.059328 -0.115682 0.000000 
-0.029759 -0.078616 0.000000 
-0.058559 -0.529239 0.000000 
-0.162226 -0.550082 0.000000 
-0.123292 -0.514464 0.000000 
-0.142917 -0.465481 0.000000 
-0.261851 -0.572238 0.000000 
-0.229092 -0.535211 0.000000 
-0.256854 -0.483979 0.000000 
-0.209613 -0.449867 0.000000 
-0.223062 -0.402293 0.000000 
-0.360414 -0.594538 0.000000 
-0.329787 -0.557415 0.000000 
-0.361761 -0.505613 0.000000 
-0.321587 -0.469204 0.000000 
-0.341985 -0.418970 0.000000 
-0.290702 -0.386171 0.000000 
-0.302189 -0.339436 0.000000 
-0.458977 -0.616838 0.000000 
-0.429420 -0.579764 0.000000 
-0.464588 -0.527722 0.000000 
-0.427556 -0.490694 0.000000 
-0.453135 -0.439180 0.000000 
-0.407738 -0.403864 0.000000 
-0.425037 -0.354436 0.000000 
-0.370772 -0.322807 0.000000 
-0.381315 -0.276580 0.000000 
-0.046960 -0.580054 0.000000 
-0.095301 -0.674100 0.000000 
-0.098873 -0.621453 0.000000 
-0.149405 -0.606255 0.000000 
-0.140093 -0.765804 0.000000 
-0.148617 -0.717106 0.000000 
-0.205981 -0.706869 0.000000 
-0.203197 -0.648665 0.000000 
-0.248777 -0.629519 0.000000 
-0.184111 -0.856768 0.000000 
-0.194039 -0.809677 0.000000 
-0.254475 -0.802377 0.000000 
-0.257893 -0.748267 0.000000 
-0.309886 -0.732895 0.000000 
-0.303554 -0.672350 0.000000 
-0.347255 -0.652192 0.000000 
-0.228129 -0.947731 0.000000 
-0.238687 -0.901507 0.000000 
-0.301302 -0.896555 0.000000 
-0.307162 -0.844516 0.000000 
-0.363386 -0.832395 0.000000 
-0.362692 -0.774884 0.000000 
-0.412122 -0.757591 0.000000 
-0.403017 -0.695444 0.000000 
-0.445733 -0.674865 0.000000 
-0.000000 -0.602669 0.000000 
0.043388 -0.699100 0.000000 
-0.000000 -0.669068 0.000000 
-0.043388 -0.699100 0.000000 
0.087158 -0.791296 0.000000 
0.043769 -0.767598 0.000000 
-0.000000 -0.806064 0.000000 
-0.043769 -0.767598 0.000000 
-0.087158 -0.791296 0.000000 
0.130831 -0.882426 0.000000 
0.087824 -0.860827 0.000000 
0.044436 -0.903527 0.000000 
-0.000000 -0.872462 0.000000 
-0.044436 -0.903527 0.000000 
-0.087824 -0.860827 0.000000 
-0.130831 -0.882426 0.000000 
0.174505 -0.973556 0.000000 
0.131782 -0.952990 0.000000 
0.088871 -0.998856 0.000000 
0.044532 -0.970992 0.000000 
-0.000000 -1.007393 0.000000 
-0.044532 -0.970992 0.000000 
-0.088871 -0.998856 0.000000 
-0.131782 -0.952990 0.000000 
-0.174505 -0.973556 0.000000 
0.046960 -0.580054 0.000000 
0.149405 -0.606255 0.000000 
0.098873 -0.621453 0.000000 
0.095301 -0.674100 0.000000 
0.248777 -0.629519 0.000000 
0.203197 -0.648665 0.000000 
0.205981 -0.706869 0.000000 
0.148617 -0.717106 0.000000 
0.140093 -0.765804 0.000000 
0.347255 -0.652192 0.000000 
0.303554 -0.672350 0.000000 
0.309886 -0.732895 0.000000 
0.257893 -0.748267 0.000000 
0.254475 -0.802377 0.000000 
0.194039 -0.809677 0.000000 
0.184111 -0.856768 0.000000 
0.445733 -0.674865 0.000000 
0.403017 -0.695444 0.000000 
0.412122 -0.757591 0.000000 
0.362692 -0.774884 0.000000 
0.363386 -0.832395 0.000000 
0.307162 -0.844516 0.000000 
0.301302 -0.896555 0.000000 
0.238687 -0.901507 0.000000 
0.228129 -0.947731 0.000000 
0.058559 -0.529239 0.000000 
0.142917 -0.465481 0.000000 
0.123292 -0.514464 0.000000 
0.162226 -0.550082 0.000000 
0.223062 -0.402293 0.000000 
0.209613 -0.449867 0.000000 
0.256854 -0.483979 0.000000 
0.229092 -0.535211 0.000000 
0.261851 -0.572238 0.000000 
0.302189 -0.339436 0.000000 
0.290702 -0.386171 0.000000 
0.341985 -0.418970 0.000000 
0.321587 -0.469204 0.000000 
0.361761 -0.505613 0.000000 
0.329787 -0.557415 0.000000 
0.360414 -0.594538 0.000000 
0.381315 -0.276580 0.000000 
0.370772 -0.322807 0.000000 
0.425037 -0.354436 0.000000 
0.407738 -0.403864 0.000000 
0.453135 -0.439180 0.000000 
0.427556 -0.490694 0.000000 
0.464588 -0.527722 0.000000 
0.429420 -0.579764 0.000000 
0.458977 -0.616838 0.000000 
0.026061 -0.488488 0.000000 
0.028809 -0.382782 0.000000 
0.054870 -0.428666 0.000000 
0.106992 -0.420433 0.000000 
0.029377 -0.280725 0.000000 
0.058186 -0.320902 0.000000 
0.114311 -0.305236 0.000000 
0.137056 -0.358884 0.000000 
0.186430 -0.356357 0.000000 
0.029568 -0.179671 0.000000 
0.058945 -0.217791 0.000000 
0.116563 -0.198145 0.000000 
0.143120 -0.245413 0.000000 
0.196633 -0.236705 0.000000 
0.217198 -0.294001 0.000000 
0.265318 -0.293202 0.000000 
0.029759 -0.078616 0.000000 
0.059328 -0.115682 0.000000 
0.117890 -0.092976 0.000000 
0.145749 -0.137319 0.000000 
0.201664 -0.123845 0.000000 
0.225992 -0.175962 0.000000 
0.278030 -0.170096 0.000000 
0.296791 -0.230039 0.000000 
0.344206 -0.230046 0.000000 
VECTORS X_EC float 
0.338794 -0.905408 0.000000 
-0.609100 0.175844 0.000000 
0.713312 0.286984 0.000000 
0.374519 -0.332445 0.000000 
0.423588 -0.689176 0.000000 
-0.218274 -0.655072 0.000000 
-0.513962 0.620689 0.000000 
0.756418 0.832175 0.000000 
0.381900 0.289783 0.000000 
-0.550868 0.458221 0.000000 
0.823577 0.469017 0.000000 
0.556234 -0.304487 0.000000 
-0.139443 -0.186919 0.000000 
-0.484677 -0.825043 0.000000 
0.766286 -0.559828 0.000000 
0.384386 0.925552 0.000000 
0.474677 -0.394382 0.000000 
-0.141715 -0.394478 0.000000 
-0.385608 0.796293 0.000000 
0.937896 0.875489 0.000000 
0.621631 0.171909 0.000000 
-0.105264 0.353808 0.000000 
-0.467428 -0.244818 0.000000 
0.771260 0.061710 0.000000 
0.386873 -0.438679 0.000000 
0.761262 -0.355273 0.000000 
0.108942 -0.073897 0.000000 
-0.397202 -0.554736 0.000000 
-0.142083 0.783989 0.000000 
-0.595936 0.225214 0.000000 
0.978194 -0.274652 0.000000 
-0.660903 -0.966277 0.000000 
0.724964 0.573203 0.000000 
0.899809 -0.069046 0.000000 
0.685384 0.526266 0.000000 
0.287229 0.025108 0.000000 
0.702895 -0.674221 0.000000 
0.180633 0.834260 0.000000 
0.445811 0.156101 0.000000 
-0.220880 -0.286685 0.000000 
-0.071546 -0.917611 0.000000 
-0.033296 0.827318 0.000000 
-0.417537 0.326809 0.000000 
0.039645 -0.375754 0.000000 
-0.441768 -0.875625 0.000000 
-0.109248 0.428924 0.000000 
-0.699407 -0.047831 0.000000 
-0.474522 -0.715111 0.000000 
0.820030 0.857896 0.000000 
0.957100 0.233824 0.000000 
0.610485 0.330733 0.000000 
-0.761092 -0.399648 0.000000 
-0.714655 0.889615 0.000000 
-0.057734 0.684448 0.000000 
-0.178789 0.838356 0.000000 
-0.067979 0.180930 0.000000 
0.677748 0.042727 0.000000 
0.641556 -0.743018 0.000000 
-0.765897 0.998503 0.000000 
0.393446 0.066366 0.000000 
0.522510 -0.569364 0.000000 
-0.691820 -0.667909 0.000000 
-0.647393 0.601609 0.000000 
0.028512 0.394082 0.000000 
-0.053800 -0.423278 0.000000 
0.514316 -0.695409 0.000000 
0.965681 -0.705625 0.000000 
-0.897068 0.670346 0.000000 
-0.083078 0.603493 0.000000 
-0.006893 -0.099032 0.000000 
0.724017 -0.262665 0.000000 
0.714996 0.960932 0.000000 
-0.642413 0.727474 0.000000 
-0.760780 -0.111506 0.000000 
-0.205471 -0.389321 0.000000 
0.000000 0.636034 0.000000 
-0.564049 -0.062153 0.000000 
0.000000 -0.467589 0.000000 
0.564049 -0.062153 0.000000 
0.866949 -0.817497 0.000000 
-0.569003 0.862572 0.000000 
0.000000 -0.618140 0.000000 
0.569003 0.862572 0.000000 
-0.866949 -0.817497 0.000000 
0.299194 0.412753 0.000000 
0.858290 0.121169 0.000000 
-0.577662 0.697615 0.000000 
0.000000 0.278237 0.000000 
0.577662 0.697615 0.000000 
-0.858290 0.121169 0.000000 
-0.299194 0.412753 0.000000 
-0.268560 -0.356997 0.000000 
0.286830 -0.634639 0.000000 
0.844677 -0.015441 0.000000 
-0.578910 -0.391603 0.000000 
0.000000 0.099801 0.000000 
0.578910 -0.391603 0.000000 
-0.844677 -0.015441 0.000000 
-0.286830 -0.634639 0.000000 
0.268560 -0.356997 0.000000 
-0.610485 0.330733 0.000000 
0.057734 0.684448 0.000000 
0.714655 0.889615 0.000000 
0.761092 -0.399648 0.000000 
0.765897 0.998503 0.000000 
-0.641556 -0.743018 0.000000 
-0.677748 0.042727 0.000000 
0.067979 0.180930 0.000000 
0.178789 0.838356 0.000000 
-0.514316 -0.695409 0.000000 
0.053800 -0.423278 0.000000 
-0.028512 0.394082 0.000000 
0.647393 0.601609 0.000000 
0.691820 -0.667909 0.000000 
-0.522510 -0.569364 0.000000 
-0.393446 0.066366 0.000000 
0.205471 -0.389321 0.000000 
0.760780 -0.111506 0.000000 
0.642413 0.727474 0.000000 
-0.714996 0.960932 0.000000 
-0.724017 -0.262665 0.000000 
0.006894 -0.099032 0.000000 
0.083078 0.603493 0.000000 
0.897068 0.670346 0.000000 
-0.965681 -0.705625 0.000000 
-0.761262 -0.355273 0.000000 
0.142083 0.783989 0.000000 
0.397202 -0.554736 0.000000 
-0.108942 -0.073897 0.000000 
-0.899809 -0.069046 0.000000 
-0.724964 0.573203 0.000000 
0.660903 -0.966277 0.000000 
-0.978194 -0.274652 0.000000 
0.595936 0.225214 0.000000 
0.071546 -0.917611 0.000000 
0.220880 -0.286685 0.000000 
-0.445811 0.156101 0.000000 
-0.180633 0.834260 0.000000 
-0.702895 -0.674221 0.000000 
-0.287229 0.025108 0.000000 
-0.685384 0.526266 0.000000 
-0.957100 0.233824 0.000000 
-0.820030 0.857896 0.000000 
0.474522 -0.715111 0.000000 
0.699407 -0.047831 0.000000 
0.109248 0.428924 0.000000 
0.441768 -0.875625 0.000000 
-0.039645 -0.375754 0.000000 
0.417537 0.326809 0.000000 
0.033296 0.827318 0.000000 
-0.338794 -0.905408 0.000000 
-0.374519 -0.332445 0.000000 
-0.713312 0.286984 0.000000 
0.609100 0.175844 0.000000 
-0.381900 0.289783 0.000000 
-0.756418 0.832175 0.000000 
0.513962 0.620689 0.000000 
0.218274 -0.655072 0.000000 
-0.423588 -0.689176 0.000000 
-0.384386 0.925552 0.000000 
-0.766286 -0.559828 0.000000 
0.484677 -0.825043 0.000000 
0.139443 -0.186919 0.000000 
-0.556234 -0.304487 0.000000 
-0.823577 0.469017 0.000000 
0.550868 0.458221 0.000000 
-0.386873 -0.438679 0.000000 
-0.771260 0.061710 0.000000 
0.467428 -0.244818 0.000000 
0.105264 0.353808 0.000000 
-0.621631 0.171909 0.000000 
-0.937896 0.875489 0.000000 
0.385608 0.796293 0.000000 
0.141715 -0.394478 0.000000 
-0.474677 -0.394382 0.000000 
CELL_DATA 175 
SCALARS MASS float 
LOOKUP_TABLE default 
0.078183 
0.086427 
0.094672 
0.086427 
0.088131 
0.092111 
0.085854 
0.092111 
0.088131 
0.088705 
0.091000 
0.086983 
0.091556 
0.086983 
0.091000 
0.088705 
0.089278 
0.091574 
0.089278 
0.092722 
0.089278 
0.092722 
0.089278 
0.091574 
0.089278 
0.078183 
0.086427 
0.094672 
0.086427 
0.088131 
0.092111 
0.085854 
0.092111 
0.088131 
0.088705 
0.091000 
0.086983 
0.091556 
0.086983 
0.091000 
0.088705 
0.089278 
0.091574 
0.089278 
0.092722 
0.089278 
0.092722 
0.089278 
0.091574 
0.089278 
0.078183 
0.086427 
0.094672 
0.086427 
0.088131 
0.092111 
0.085854 
0.092111 
0.088131 
0.088705 
0.091000 
0.086983 
0.091556 
0.086983 
0.091000 
0.088705 
0.089278 
0.091574 
0.089278 
0.092722 
0.089278 
0.092722 
0.089278 
0.091574 
0.089278 
0.078183 
0.086427 
0.094672 
0.086427 
0.088131 
0.092111 
0.085854 
0.092111 
0.088131 
0.088705 
0.091000 
0.086983 
0.091556 
0.086983 
0.091000 
0.088705 
0.089278 
0.091574 
0.089278 
0.092722 
0.089278 
0.092722 
0.089278 
0.091574 
0.089278 
0.078183 
0.086427 
0.094672 
0.086427 
0.088131 
0.092111 
0.085854 
0.092111 
0.088131 
0.088705 
0.091000 
0.086983 
0.091556 
0.086983 
0.091000 
0.088705 
0.089278 
0.091574 
0.089278 
0.092722 
0.089278 
0.092722 
0.089278 
0.091574 
0.089278 
0.078183 
0.086427 
0.094672 
0.086427 
0.088131 
0.092111 
0.085854 
0.092111 
0.088131 
0.088705 
0.091000 
0.086983 
0.091556 
0.086983 
0.091000 
0.088705 
0.089278 
0.091574 
0.089278 
0.092722 
0.089278 
0.092722 
0.089278 
0.091574 
0.089278 
0.078183 
0.086427 
0.094672 
0.086427 
0.088131 
0.092111 
0.085854 
0.092111 
0.088131 
0.088705 
0.091000 
0.086983 
0.091556 
0.086983 
0.091000 
0.088705 
0.089278 
0.091574 
0.089278 
0.092722 
0.089278 
0.092722 
0.089278 
0.091574 
0.089278 
SCALARS MASS float 
LOOKUP_TABLE default 
0.078183 
0.086427 
0.094672 
0.086427 
0.088131 
0.092111 
0.085854 
0.092111 
0.088131 
0.088705 
0.091000 
0.086983 
0.091556 
0.086983 
0.091000 
0.088705 
0.089278 
0.091574 
0.089278 
0.092722 
0.089278 
0.092722 
0.089278 
0.091574 
0.089278 
0.078183 
0.086427 
0.094672 
0.086427 
0.088131 
0.092111 
0.085854 
0.092111 
0.088131 
0.088705 
0.091000 
0.086983 
0.091556 
0.086983 
0.091000 
0.088705 
0.089278 
0.091574 
0.089278 
0.092722 
0.089278 
0.092722 
0.089278 
0.091574 
0.089278 
0.078183 
0.086427 
0.094672 
0.086427 
0.088131 
0.092111 
0.085854 
0.092111 
0.088131 
0.088705 
0.091000 
0.086983 
0.091556 
0.086983 
0.091000 
0.088705 
0.089278 
0.091574 
0.089278 
0.092722 
0.089278 
0.092722 
0.089278 
0.091574 
0.089278 
0.078183 
0.086427 
0.094672 
0.086427 
0.088131 
0.092111 
0.085854 
0.092111 
0.088131 
0.088705 
0.091000 
0.086983 
0.091556 
0.086983 
0.091000 
0.088705 
0.089278 
0.091574 
0.089278 
0.092722 
0.089278 
0.092722 
0.089278 
0.091574 
0.089278 
0.078183 
0.086427 
0.094672 
0.086427 
0.088131 
0.092111 
0.085854 
0.092111 
0.088131 
0.088705 
0.091000 
0.086983 
0.091556 
0.086983 
0.091000 
0.088705 
0.089278 
0.091574 
0.089278 
0.092722 
0.089278 
0.092722 
0.089278 
0.091574 
0.089278 
0.078183 
0.086427 
0.094672 
0.086427 
0.088131 
0.092111 
0.085854 
0.092111 
0.088131 
0.088705 
0.091000 
0.086983 
0.091556 
0.086983 
0.091000 
0.088705 
0.089278 
0.091574 
0.089278 
0.092722 
0.089278 
0.092722 
0.089278 
0.091574 
0.089278 
0.078183 
0.086427 
0.094672 
0.086427 
0.088131 
0.092111 
0.085854 
0.092111 
0.088131 
0.088705 
0.091000 
0.086983 
0.091556 
0.086983 
0.091000 
0.088705 
0.089278 
0.091574 
0.089278 
0.092722 
0.089278 
0.092722 
0.089278 
0.091574 
0.089278 
SCALARS DENSITY float 
LOOKUP_TABLE default 
20.000000 
20.000000 
20.000000 
20.000000 
20.000000 
20.000000 
20.000000 
20.000000 
20.000000 
20.000000 
20.000000 
20.000000 
20.000000 
20.000000 
20.000000 
20.000000 
20.000000 
20.000000 
20.000000 
20.000000 
20.000000 
20.000000 
20.000000 
20.000000 
20.000000 
20.000000 
20.000000 
20.000000 
20.000000 
20.000000 
20.000000 
20.000000 
20.000000 
20.000000 
20.000000 
20.000000 
20.000000 
20.000000 
20.000000 
20.000000 
20.000000 
20.000000 
20.000000 
20.000000 
20.000000 
20.000000 
20.000000 
20.000000 
20.000000 
20.000000 
20.000000 
20.000000 
20.000000 
20.000000 
20.000000 
20.000000 
20.000000 
20.000000 
20.000000 
20.000000 
20.000000 
20.000000 
20.000000 
20.000000 
20.000000 
20.000000 
20.000000 
20.000000 
20.000000 
20.000000 
20.000000 
20.000000 
20.000000 
20.000000 
20.000000 
20.000000 
20.000000 
20.000000 
20.000000 
20.000000 
20.000000 
20.000000 
20.000000 
20.000000 
20.000000 
20.000000 
20.000000 
20.000000 
20.000000 
20.000000 
20.000000 
20.000000 
20.000000 
20.000000 
20.000000 
20.000000 
20.000000 
20.000000 
20.000000 
20.000000 
20.000000 
20.000000 
20.000000 
20.000000 
20.000000 
20.000000 
20.000000 
20.000000 
20.000000 
20.000000 
20.000000 
20.000000 
20.000000 
20.000000 
20.000000 
20.000000 
20.000000 
20.000000 
20.000000 
20.000000 
20.000000 
20.000000 
20.000000 
20.000000 
20.000000 
20.000000 
20.000000 
20.000000 
20.000000 
20.000000 
20.000000 
20.000000 
20.000000 
20.000000 
20.000000 
20.000000 
20.000000 
20.000000 
20.000000 
20.000000 
20.000000 
20.000000 
20.000000 
20.000000 
20.000000 
20.000000 
20.000000 
20.000000 
20.000000 
20.000000 
20.000000 
20.000000 
20.000000 
20.000000 
20.000000 
20.000000 
20.000000 
20.000000 
20.000000 
20.000000 
20.000000 
20.000000 
20.000000 
20.000000 
20.000000 
20.000000 
20.000000 
20.000000 
20.000000 
20.000000 
20.000000 
20.000000 
20.000000 
20.000000 
20.000000 
SCALARS ELEM_i float 
LOOKUP_TABLE default 
178 
206 
179 
179 
206 
206 
207 
180 
180 
234 
207 
207 
207 
207 
180 
181 
234 
234 
235 
208 
208 
208 
208 
181 
181 
178 
205 
205 
206 
232 
205 
232 
206 
206 
232 
232 
232 
233 
233 
233 
233 
259 
259 
259 
259 
260 
260 
260 
234 
234 
178 
204 
205 
205 
204 
204 
204 
204 
232 
203 
203 
230 
231 
231 
231 
231 
202 
230 
230 
230 
230 
231 
258 
258 
258 
178 
177 
177 
177 
149 
177 
176 
177 
203 
149 
149 
176 
176 
176 
203 
203 
148 
148 
148 
175 
175 
175 
202 
202 
202 
178 
151 
151 
150 
124 
150 
150 
150 
150 
123 
123 
123 
123 
122 
149 
149 
96 
96 
96 
123 
122 
122 
122 
122 
148 
178 
152 
151 
151 
152 
152 
124 
151 
124 
125 
125 
125 
125 
124 
124 
124 
126 
126 
98 
98 
98 
97 
97 
97 
97 
178 
179 
179 
152 
180 
180 
153 
152 
152 
181 
180 
153 
153 
153 
153 
126 
181 
181 
154 
154 
154 
154 
127 
126 
126 
VECTORS VELOCITY float 
-0.000000 -3.262414 0.000000 
-0.000000 -3.262414 0.000000 
0.000000 -3.262414 0.000000 
0.000000 -3.262414 0.000000 
0.000000 -3.262414 0.000000 
0.000000 -3.262414 0.000000 
0.000000 -3.262414 0.000000 
0.000000 -3.262414 0.000000 
0.000000 -3.262414 0.000000 
0.000000 -3.262414 0.000000 
-0.000000 -3.262414 0.000000 
-0.000000 -3.262414 0.000000 
-0.000000 -3.262414 0.000000 
0.000000 -3.262414 0.000000 
0.000000 -3.262414 0.000000 
0.000000 -3.262414 0.000000 
0.000000 -3.262414 0.000000 
-0.000000 -3.262414 0.000000 
0.000000 -3.262414 0.000000 
-0.000000 -3.262414 0.000000 
0.000000 -3.262414 0.000000 
-0.000000 -3.262414 0.000000 
-0.000000 -3.262414 0.000000 
-0.000000 -3.262414 0.000000 
-0.000000 -3.262414 0.000000 
-0.000000 -3.262414 0.000000 
0.000000 -3.262414 0.000000 
-0.000000 -3.262414 0.000000 
-0.000000 -3.262414 0.000000 
0.000000 -3.262414 0.000000 
0.000000 -3.262414 0.000000 
-0.000000 -3.262414 0.000000 
-0.000000 -3.262414 0.000000 
0.000000 -3.262414 0.000000 
0.000000 -3.262414 0.000000 
0.000000 -3.262414 0.000000 
-0.000000 -3.262414 0.000000 
-0.000000 -3.262414 0.000000 
0.000000 -3.262414 0.000000 
0.000000 -3.262414 0.000000 
0.000000 -3.262414 0.000000 
-0.000000 -3.262414 0.000000 
-0.000000 -3.262414 0.000000 
-0.000000 -3.262414 0.000000 
-0.000000 -3.262414 0.000000 
0.000000 -3.262414 0.000000 
0.000000 -3.262414 0.000000 
-0.000000 -3.262414 0.000000 
0.000000 -3.262414 0.000000 
-0.000000 -3.262414 0.000000 
0.000000 -3.262414 0.000000 
0.000000 -3.262414 0.000000 
0.000000 -3.262414 0.000000 
0.000000 -3.262414 0.000000 
-0.000000 -3.262414 0.000000 
-0.000000 -3.262414 0.000000 
-0.000000 -3.262414 0.000000 
0.000000 -3.262414 0.000000 
0.000000 -3.262414 0.000000 
-0.000000 -3.262414 0.000000 
-0.000000 -3.262414 0.000000 
-0.000000 -3.262414 0.000000 
-0.000000 -3.262414 0.000000 
0.000000 -3.262414 0.000000 
0.000000 -3.262414 0.000000 
0.000000 -3.262414 0.000000 
-0.000000 -3.262414 0.000000 
-0.000000 -3.262414 0.000000 
-0.000000 -3.262414 0.000000 
-0.000000 -3.262414 0.000000 
0.000000 -3.262414 0.000000 
0.000000 -3.262414 0.000000 
-0.000000 -3.262414 0.000000 
0.000000 -3.262414 0.000000 
-0.000000 -3.262414 0.000000 
0.000000 -3.262414 0.000000 
-0.000000 -3.262414 0.000000 
0.000000 -3.262414 0.000000 
0.000000 -3.262414 0.000000 
-0.000000 -3.262414 0.000000 
0.000000 -3.262414 0.000000 
0.000000 -3.262414 0.000000 
0.000000 -3.262414 0.000000 
0.000000 -3.262414 0.000000 
0.000000 -3.262414 0.000000 
0.000000 -3.262414 0.000000 
0.000000 -3.262414 0.000000 
-0.000000 -3.262414 0.000000 
-0.000000 -3.262414 0.000000 
-0.000000 -3.262414 0.000000 
-0.000000 -3.262414 0.000000 
-0.000000 -3.262414 0.000000 
0.000000 -3.262414 0.000000 
0.000000 -3.262414 0.000000 
-0.000000 -3.262414 0.000000 
0.000000 -3.262414 0.000000 
-0.000000 -3.262414 0.000000 
-0.000000 -3.262414 0.000000 
-0.000000 -3.262414 0.000000 
0.000000 -3.262414 0.000000 
-0.000000 -3.262414 0.000000 
-0.000000 -3.262414 0.000000 
-0.000000 -3.262414 0.000000 
-0.000000 -3.262414 0.000000 
0.000000 -3.262414 0.000000 
-0.000000 -3.262414 0.000000 
-0.000000 -3.262414 0.000000 
-0.000000 -3.262414 0.000000 
-0.000000 -3.262414 0.000000 
0.000000 -3.262414 0.000000 
0.000000 -3.262414 0.000000 
0.000000 -3.262414 0.000000 
-0.000000 -3.262414 0.000000 
-0.000000 -3.262414 0.000000 
-0.000000 -3.262414 0.000000 
-0.000000 -3.262414 0.000000 
0.000000 -3.262414 0.000000 
0.000000 -3.262414 0.000000 
-0.000000 -3.262414 0.000000 
0.000000 -3.262414 0.000000 
0.000000 -3.262414 0.000000 
-0.000000 -3.262414 0.000000 
0.000000 -3.262414 0.000000 
0.000000 -3.262414 0.000000 
0.000000 -3.262414 0.000000 
0.000000 -3.262414 0.000000 
0.000000 -3.262414 0.000000 
0.000000 -3.262414 0.000000 
0.000000 -3.262414 0.000000 
-0.000000 -3.262414 0.000000 
-0.000000 -3.262414 0.000000 
-0.000000 -3.262414 0.000000 
0.000000 -3.262414 0.000000 
0.000000 -3.262414 0.000000 
0.000000 -3.262414 0.000000 
0.000000 -3.262414 0.000000 
0.000000 -3.262414 0.000000 
-0.000000 -3.262414 0.000000 
-0.000000 -3.262414 0.000000 
-0.000000 -3.262414 0.000000 
-0.000000 -3.262414 0.000000 
0.000000 -3.262414 0.000000 
0.000000 -3.262414 0.000000 
-0.000000 -3.262414 0.000000 
-0.000000 -3.262414 0.000000 
-0.000000 -3.262414 0.000000 
-0.000000 -3.262414 0.000000 
-0.000000 -3.262414 0.000000 
-0.000000 -3.262414 0.000000 
0.000000 -3.262414 0.000000 
0.000000 -3.262414 0.000000 
0.000000 -3.262414 0.000000 
0.000000 -3.262414 0.000000 
0.000000 -3.262414 0.000000 
-0.000000 -3.262414 0.000000 
0.000000 -3.262414 0.000000 
0.000000 -3.262414 0.000000 
0.000000 -3.262414 0.000000 
0.000000 -3.262414 0.000000 
-0.000000 -3.262414 0.000000 
-0.000000 -3.262414 0.000000 
-0.000000 -3.262414 0.000000 
-0.000000 -3.262414 0.000000 
0.000000 -3.262414 0.000000 
0.000000 -3.262414 0.000000 
0.000000 -3.262414 0.000000 
-0.000000 -3.262414 0.000000 
-0.000000 -3.262414 0.000000 
-0.000000 -3.262414 0.000000 
-0.000000 -3.262414 0.000000 
0.000000 -3.262414 0.000000 
-0.000000 -3.262414 0.000000 
0.000000 -3.262414 0.000000 
0.000000 -3.262414 0.000000 
0.000000 -3.262414 0.000000 
TENSORS STRESS float 
-0.000000 -0.000000 0.000000 
0.000000 -0.000000 0.000000 
0.000000 0.000000 0.000000 

0.000000 -0.000000 0.000000 
0.000000 0.000000 0.000000 
0.000000 0.000000 0.000000 

-0.000000 0.000000 0.000000 
0.000000 -0.000000 0.000000 
0.000000 0.000000 0.000000 

-0.000000 0.000000 0.000000 
0.000000 -0.000000 0.000000 
0.000000 0.000000 0.000000 

-0.000000 -0.000000 0.000000 
0.000000 -0.000000 0.000000 
0.000000 0.000000 0.000000 

0.000000 -0.000000 0.000000 
0.000000 0.000000 0.000000 
0.000000 0.000000 0.000000 

-0.000000 0.000000 0.000000 
0.000000 -0.000000 0.000000 
0.000000 0.000000 0.000000 

0.000000 0.000000 0.000000 
0.000000 0.000000 0.000000 
0.000000 0.000000 0.000000 

-0.000000 -0.000000 0.000000 
0.000000 -0.000000 0.000000 
0.000000 0.000000 0.000000 

-0.000000 0.000000 0.000000 
0.000000 -0.000000 0.000000 
0.000000 0.000000 0.000000 

-0.000000 -0.000000 0.000000 
0.000000 -0.000000 0.000000 
0.000000 0.000000 0.000000 

0.000000 0.000000 0.000000 
0.000000 0.000000 0.000000 
0.000000 0.000000 0.000000 

0.000000 0.000000 0.000000 
0.000000 0.000000 0.000000 
0.000000 0.000000 0.000000 

0.000000 0.000000 0.000000 
0.000000 0.000000 0.000000 
0.000000 0.000000 0.000000 

-0.000000 0.000000 0.000000 
0.000000 -0.000000 0.000000 
0.000000 0.000000 0.000000 

-0.000000 -0.000000 0.000000 
0.000000 -0.000000 0.000000 
0.000000 0.000000 0.000000 

0.000000 0.000000 0.000000 
0.000000 0.000000 0.000000 
0.000000 0.000000 0.000000 

0.000000 0.000000 0.000000 
0.000000 0.000000 0.000000 
0.000000 0.000000 0.000000 

0.000000 -0.000000 0.000000 
0.000000 0.000000 0.000000 
0.000000 0.000000 0.000000 

-0.000000 0.000000 0.000000 
0.000000 -0.000000 0.000000 
0.000000 0.000000 0.000000 

-0.000000 -0.000000 0.000000 
0.000000 -0.000000 0.000000 
0.000000 0.000000 0.000000 

-0.000000 -0.000000 0.000000 
0.000000 -0.000000 0.000000 
0.000000 0.000000 0.000000 

0.000000 -0.000000 0.000000 
0.000000 -0.000000 0.000000 
0.000000 0.000000 0.000000 

-0.000000 0.000000 0.000000 
0.000000 -0.000000 0.000000 
0.000000 0.000000 0.000000 

0.000000 0.000000 0.000000 
0.000000 0.000000 0.000000 
0.000000 0.000000 0.000000 

-0.000000 -0.000000 0.000000 
0.000000 0.000000 0.000000 
0.000000 0.000000 0.000000 

0.000000 0.000000 0.000000 
0.000000 0.000000 0.000000 
0.000000 0.000000 0.000000 

-0.000000 -0.000000 0.000000 
0.000000 -0.000000 0.000000 
0.000000 0.000000 0.000000 

-0.000000 -0.000000 0.000000 
0.000000 -0.000000 0.000000 
0.000000 0.000000 0.000000 

-0.000000 0.000000 0.000000 
0.000000 -0.000000 0.000000 
0.000000 0.000000 0.000000 

-0.000000 -0.000000 0.000000 
0.000000 -0.000000 0.000000 
0.000000 0.000000 0.000000 

-0.000000 -0.000000 0.000000 
0.000000 -0.000000 0.000000 
0.000000 0.000000 0.000000 

-0.000000 -0.000000 0.000000 
0.000000 0.000000 0.000000 
0.000000 0.000000 0.000000 

-0.000000 -0.000000 0.000000 
0.000000 -0.000000 0.000000 
0.000000 0.000000 0.000000 

-0.000000 -0.000000 0.000000 
0.000000 -0.000000 0.000000 
0.000000 0.000000 0.000000 

0.000000 0.000000 0.000000 
0.000000 0.000000 0.000000 
0.000000 0.000000 0.000000 

-0.000000 0.000000 0.000000 
0.000000 -0.000000 0.000000 
0.000000 0.000000 0.000000 

-0.000000 0.000000 0.000000 
0.000000 -0.000000 0.000000 
0.000000 0.000000 0.000000 

0.000000 -0.000000 0.000000 
0.000000 0.000000 0.000000 
0.000000 0.000000 0.000000 

-0.000000 0.000000 0.000000 
0.000000 0.000000 0.000000 
0.000000 0.000000 0.000000 

-0.000000 -0.000000 0.000000 
0.000000 0.000000 0.000000 
0.000000 0.000000 0.000000 

-0.000000 -0.000000 0.000000 
0.000000 -0.000000 0.000000 
0.000000 0.000000 0.000000 

0.000000 0.000000 0.000000 
0.000000 0.000000 0.000000 
0.000000 0.000000 0.000000 

0.000000 -0.000000 0.000000 
0.000000 0.000000 0.000000 
0.000000 0.000000 0.000000 

0.000000 0.000000 0.000000 
0.000000 0.000000 0.000000 
0.000000 0.000000 0.000000 

0.000000 -0.000000 0.000000 
0.000000 0.000000 0.000000 
0.000000 0.000000 0.000000 

0.000000 -0.000000 0.000000 
0.000000 -0.000000 0.000000 
0.000000 0.000000 0.000000 

0.000000 -0.000000 0.000000 
0.000000 0.000000 0.000000 
0.000000 0.000000 0.000000 

0.000000 -0.000000 0.000000 
0.000000 0.000000 0.000000 
0.000000 0.000000 0.000000 

-0.000000 -0.000000 0.000000 
0.000000 -0.000000 0.000000 
0.000000 0.000000 0.000000 

-0.000000 -0.000000 0.000000 
0.000000 0.000000 0.000000 
0.000000 0.000000 0.000000 

-0.000000 0.000000 0.000000 
0.000000 -0.000000 0.000000 
0.000000 0.000000 0.000000 

-0.000000 0.000000 0.000000 
0.000000 -0.000000 0.000000 
0.000000 0.000000 0.000000 

-0.000000 0.000000 0.000000 
0.000000 -0.000000 0.000000 
0.000000 0.000000 0.000000 

-0.000000 0.000000 0.000000 
0.000000 -0.000000 0.000000 
0.000000 0.000000 0.000000 

-0.000000 0.000000 0.000000 
0.000000 -0.000000 0.000000 
0.000000 0.000000 0.000000 

0.000000 0.000000 0.000000 
0.000000 0.000000 0.000000 
0.000000 0.000000 0.000000 

0.000000 -0.000000 0.000000 
0.000000 0.000000 0.000000 
0.000000 0.000000 0.000000 

-0.000000 0.000000 0.000000 
0.000000 -0.000000 0.000000 
0.000000 0.000000 0.000000 

0.000000 0.000000 0.000000 
0.000000 0.000000 0.000000 
0.000000 0.000000 0.000000 

-0.000000 0.000000 0.000000 
0.000000 0.000000 0.000000 
0.000000 0.000000 0.000000 

0.000000 0.000000 0.000000 
0.000000 -0.000000 0.000000 
0.000000 0.000000 0.000000 

0.000000 -0.000000 0.000000 
0.000000 0.000000 0.000000 
0.000000 0.000000 0.000000 

-0.000000 0.000000 0.000000 
0.000000 -0.000000 0.000000 
0.000000 0.000000 0.000000 

0.000000 0.000000 0.000000 
0.000000 0.000000 0.000000 
0.000000 0.000000 0.000000 

-0.000000 0.000000 0.000000 
0.000000 -0.000000 0.000000 
0.000000 0.000000 0.000000 

0.000000 0.000000 0.000000 
0.000000 0.000000 0.000000 
0.000000 0.000000 0.000000 

0.000000 -0.000000 0.000000 
0.000000 0.000000 0.000000 
0.000000 0.000000 0.000000 

0.000000 0.000000 0.000000 
0.000000 0.000000 0.000000 
0.000000 0.000000 0.000000 

0.000000 -0.000000 0.000000 
0.000000 0.000000 0.000000 
0.000000 0.000000 0.000000 

0.000000 -0.000000 0.000000 
0.000000 -0.000000 0.000000 
0.000000 0.000000 0.000000 

-0.000000 -0.000000 0.000000 
0.000000 -0.000000 0.000000 
0.000000 0.000000 0.000000 

-0.000000 0.000000 0.000000 
0.000000 0.000000 0.000000 
0.000000 0.000000 0.000000 

-0.000000 0.000000 0.000000 
0.000000 -0.000000 0.000000 
0.000000 0.000000 0.000000 

-0.000000 0.000000 0.000000 
0.000000 0.000000 0.000000 
0.000000 0.000000 0.000000 

-0.000000 -0.000000 0.000000 
0.000000 -0.000000 0.000000 
0.000000 0.000000 0.000000 

-0.000000 -0.000000 0.000000 
0.000000 -0.000000 0.000000 
0.000000 0.000000 0.000000 

-0.000000 -0.000000 0.000000 
0.000000 0.000000 0.000000 
0.000000 0.000000 0.000000 

-0.000000 -0.000000 0.000000 
0.000000 0.000000 0.000000 
0.000000 0.000000 0.000000 

-0.000000 -0.000000 0.000000 
0.000000 -0.000000 0.000000 
0.000000 0.000000 0.000000 

-0.000000 0.000000 0.000000 
0.000000 -0.000000 0.000000 
0.000000 0.000000 0.000000 

-0.000000 -0.000000 0.000000 
0.000000 -0.000000 0.000000 
0.000000 0.000000 0.000000 

-0.000000 0.000000 0.000000 
0.000000 -0.000000 0.000000 
0.000000 0.000000 0.000000 

-0.000000 0.000000 0.000000 
0.000000 0.000000 0.000000 
0.000000 0.000000 0.000000 

-0.000000 -0.000000 0.000000 
0.000000 0.000000 0.000000 
0.000000 0.000000 0.000000 

-0.000000 0.000000 0.000000 
0.000000 0.000000 0.000000 
0.000000 0.000000 0.000000 

0.000000 0.000000 0.000000 
0.000000 0.000000 0.000000 
0.000000 0.000000 0.000000 

0.000000 -0.000000 0.000000 
0.000000 0.000000 0.000000 
0.000000 0.000000 0.000000 

0.000000 -0.000000 0.000000 
0.000000 0.000000 0.000000 
0.000000 0.000000 0.000000 

0.000000 0.000000 0.000000 
0.000000 0.000000 0.000000 
0.000000 0.000000 0.000000 

-0.000000 0.000000 0.000000 
0.000000 -0.000000 0.000000 
0.000000 0.000000 0.000000 

-0.000000 -0.000000 0.000000 
0.000000 -0.000000 0.000000 
0.000000 0.000000 0.000000 

0.000000 0.000000 0.000000 
0.000000 0.000000 0.000000 
0.000000 0.000000 0.000000 

0.000000 -0.000000 0.000000 
0.000000 0.000000 0.000000 
0.000000 0.000000 0.000000 

0.000000 -0.000000 0.000000 
0.000000 0.000000 0.000000 
0.000000 0.000000 0.000000 

0.000000 -0.000000 0.000000 
0.000000 0.000000 0.000000 
0.000000 0.000000 0.000000 

-0.000000 -0.000000 0.000000 
0.000000 -0.000000 0.000000 
0.000000 0.000000 0.000000 

0.000000 0.000000 0.000000 
0.000000 -0.000000 0.000000 
0.000000 0.000000 0.000000 

0.000000 -0.000000 0.000000 
0.000000 -0.000000 0.000000 
0.000000 0.000000 0.000000 

0.000000 0.000000 0.000000 
0.000000 -0.000000 0.000000 
0.000000 0.000000 0.000000 

-0.000000 -0.000000 0.000000 
0.000000 -0.000000 0.000000 
0.000000 0.000000 0.000000 

-0.000000 -0.000000 0.000000 
0.000000 -0.000000 0.000000 
0.000000 0.000000 0.000000 

-0.000000 -0.000000 0.000000 
0.000000 -0.000000 0.000000 
0.000000 0.000000 0.000000 

0.000000 0.000000 0.000000 
0.000000 0.000000 0.000000 
0.000000 0.000000 0.000000 

-0.000000 -0.000000 0.000000 
0.000000 -0.000000 0.000000 
0.000000 0.000000 0.000000 

0.000000 0.000000 0.000000 
0.000000 0.000000 0.000000 
0.000000 0.000000 0.000000 

0.000000 0.000000 0.000000 
0.000000 0.000000 0.000000 
0.000000 0.000000 0.000000 

-0.000000 -0.000000 0.000000 
0.000000 -0.000000 0.000000 
0.000000 0.000000 0.000000 

-0.000000 -0.000000 0.000000 
0.000000 -0.000000 0.000000 
0.000000 0.000000 0.000000 

0.000000 -0.000000 0.000000 
0.000000 0.000000 0.000000 
0.000000 0.000000 0.000000 

-0.000000 -0.000000 0.000000 
0.000000 -0.000000 0.000000 
0.000000 0.000000 0.000000 

0.000000 -0.000000 0.000000 
0.000000 0.000000 0.000000 
0.000000 0.000000 0.000000 

0.000000 -0.000000 0.000000 
0.000000 0.000000 0.000000 
0.000000 0.000000 0.000000 

-0.000000 -0.000000 0.000000 
0.000000 -0.000000 0.000000 
0.000000 0.000000 0.000000 

-0.000000 -0.000000 0.000000 
0.000000 -0.000000 0.000000 
0.000000 0.000000 0.000000 

-0.000000 -0.000000 0.000000 
0.000000 -0.000000 0.000000 
0.000000 0.000000 0.000000 

-0.000000 -0.000000 0.000000 
0.000000 0.000000 0.000000 
0.000000 0.000000 0.000000 

-0.000000 -0.000000 0.000000 
0.000000 0.000000 0.000000 
0.000000 0.000000 0.000000 

0.000000 -0.000000 0.000000 
0.000000 -0.000000 0.000000 
0.000000 0.000000 0.000000 

-0.000000 -0.000000 0.000000 
0.000000 -0.000000 0.000000 
0.000000 0.000000 0.000000 

0.000000 -0.000000 0.000000 
0.000000 0.000000 0.000000 
0.000000 0.000000 0.000000 

0.000000 -0.000000 0.000000 
0.000000 0.000000 0.000000 
0.000000 0.000000 0.000000 

-0.000000 0.000000 0.000000 
0.000000 -0.000000 0.000000 
0.000000 0.000000 0.000000 

-0.000000 -0.000000 0.000000 
0.000000 -0.000000 0.000000 
0.000000 0.000000 0.000000 

0.000000 -0.000000 0.000000 
0.000000 0.000000 0.000000 
0.000000 0.000000 0.000000 

-0.000000 -0.000000 0.000000 
0.000000 -0.000000 0.000000 
0.000000 0.000000 0.000000 

-0.000000 0.000000 0.000000 
0.000000 -0.000000 0.000000 
0.000000 0.000000 0.000000 

-0.000000 -0.000000 0.000000 
0.000000 -0.000000 0.000000 
0.000000 0.000000 0.000000 

-0.000000 -0.000000 0.000000 
0.000000 0.000000 0.000000 
0.000000 0.000000 0.000000 

-0.000000 0.000000 0.000000 
0.000000 -0.000000 0.000000 
0.000000 0.000000 0.000000 

0.000000 -0.000000 0.000000 
0.000000 0.000000 0.000000 
0.000000 0.000000 0.000000 

-0.000000 -0.000000 0.000000 
0.000000 -0.000000 0.000000 
0.000000 0.000000 0.000000 

-0.000000 -0.000000 0.000000 
0.000000 0.000000 0.000000 
0.000000 0.000000 0.000000 

0.000000 0.000000 0.000000 
0.000000 -0.000000 0.000000 
0.000000 0.000000 0.000000 

0.000000 0.000000 0.000000 
0.000000 0.000000 0.000000 
0.000000 0.000000 0.000000 

-0.000000 -0.000000 0.000000 
0.000000 -0.000000 0.000000 
0.000000 0.000000 0.000000 

-0.000000 -0.000000 0.000000 
0.000000 -0.000000 0.000000 
0.000000 0.000000 0.000000 

0.000000 -0.000000 0.000000 
0.000000 0.000000 0.000000 
0.000000 0.000000 0.000000 

-0.000000 -0.000000 0.000000 
0.000000 -0.000000 0.000000 
0.000000 0.000000 0.000000 

-0.000000 -0.000000 0.000000 
0.000000 -0.000000 0.000000 
0.000000 0.000000 0.000000 

0.000000 -0.000000 0.000000 
0.000000 0.000000 0.000000 
0.000000 0.000000 0.000000 

0.000000 -0.000000 0.000000 
0.000000 0.000000 0.000000 
0.000000 0.000000 0.000000 

0.000000 0.000000 0.000000 
0.000000 -0.000000 0.000000 
0.000000 0.000000 0.000000 

-0.000000 -0.000000 0.000000 
0.000000 -0.000000 0.000000 
0.000000 0.000000 0.000000 

0.000000 -0.000000 0.000000 
0.000000 0.000000 0.000000 
0.000000 0.000000 0.000000 

-0.000000 0.000000 0.000000 
0.000000 0.000000 0.000000 
0.000000 0.000000 0.000000 

0.000000 0.000000 0.000000 
0.000000 0.000000 0.000000 
0.000000 0.000000 0.000000 

0.000000 -0.000000 0.000000 
0.000000 0.000000 0.000000 
0.000000 0.000000 0.000000 

-0.000000 -0.000000 0.000000 
0.000000 -0.000000 0.000000 
0.000000 0.000000 0.000000 

-0.000000 -0.000000 0.000000 
0.000000 0.000000 0.000000 
0.000000 0.000000 0.000000 

-0.000000 -0.000000 0.000000 
0.000000 0.000000 0.000000 
0.000000 0.000000 0.000000 

0.000000 0.000000 0.000000 
0.000000 0.000000 0.000000 
0.000000 0.000000 0.000000 

0.000000 0.000000 0.000000 
0.000000 0.000000 0.000000 
0.000000 0.000000 0.000000 

-0.000000 0.000000 0.000000 
0.000000 -0.000000 0.000000 
0.000000 0.000000 0.000000 

-0.000000 -0.000000 0.000000 
0.000000 -0.000000 0.000000 
0.000000 0.000000 0.000000 

0.000000 -0.000000 0.000000 
0.000000 0.000000 0.000000 
0.000000 0.000000 0.000000 

-0.000000 0.000000 0.000000 
0.000000 0.000000 0.000000 
0.000000 0.000000 0.000000 

-0.000000 -0.000000 0.000000 
0.000000 -0.000000 0.000000 
0.000000 0.000000 0.000000 

-0.000000 0.000000 0.000000 
0.000000 0.000000 0.000000 
0.000000 0.000000 0.000000 

-0.000000 -0.000000 0.000000 
0.000000 -0.000000 0.000000 
0.000000 0.000000 0.000000 

-0.000000 -0.000000 0.000000 
0.000000 -0.000000 0.000000 
0.000000 0.000000 0.000000 

0.000000 -0.000000 0.000000 
0.000000 0.000000 0.000000 
0.000000 0.000000 0.000000 

-0.000000 -0.000000 0.000000 
0.000000 0.000000 0.000000 
0.000000 0.000000 0.000000 

-0.000000 0.000000 0.000000 
0.000000 0.000000 0.000000 
0.000000 0.000000 0.000000 

0.000000 0.000000 0.000000 
0.000000 0.000000 0.000000 
0.000000 0.000000 0.000000 

0.000000 -0.000000 0.000000 
0.000000 0.000000 0.000000 
0.000000 0.000000 0.000000 

-0.000000 0.000000 0.000000 
0.000000 -0.000000 0.000000 
0.000000 0.000000 0.000000 

-0.000000 0.000000 0.000000 
0.000000 -0.000000 0.000000 
0.000000 0.000000 0.000000 

-0.000000 -0.000000 0.000000 
0.000000 -0.000000 0.000000 
0.000000 0.000000 0.000000 

-0.000000 -0.000000 0.000000 
0.000000 -0.000000 0.000000 
0.000000 0.000000 0.000000 

-0.000000 -0.000000 0.000000 
0.000000 0.000000 0.000000 
0.000000 0.000000 0.000000 

-0.000000 0.000000 0.000000 
0.000000 -0.000000 0.000000 
0.000000 0.000000 0.000000 

-0.000000 0.000000 0.000000 
0.000000 -0.000000 0.000000 
0.000000 0.000000 0.000000 

-0.000000 -0.000000 0.000000 
0.000000 -0.000000 0.000000 
0.000000 0.000000 0.000000 

-0.000000 -0.000000 0.000000 
0.000000 0.000000 0.000000 
0.000000 0.000000 0.000000 

TENSORS STRAIN float 
-0.000000 -0.000000 0.000000 
0.000000 -0.000000 0.000000 
0.000000 0.000000 0.000000 

-0.000000 -0.000000 0.000000 
0.000000 0.000000 0.000000 
0.000000 0.000000 0.000000 

-0.000000 0.000000 0.000000 
0.000000 -0.000000 0.000000 
0.000000 0.000000 0.000000 

0.000000 0.000000 0.000000 
0.000000 -0.000000 0.000000 
0.000000 0.000000 0.000000 

-0.000000 -0.000000 0.000000 
0.000000 -0.000000 0.000000 
0.000000 0.000000 0.000000 

-0.000000 -0.000000 0.000000 
0.000000 0.000000 0.000000 
0.000000 0.000000 0.000000 

0.000000 0.000000 0.000000 
0.000000 -0.000000 0.000000 
0.000000 0.000000 0.000000 

-0.000000 0.000000 0.000000 
0.000000 0.000000 0.000000 
0.000000 0.000000 0.000000 

-0.000000 -0.000000 0.000000 
0.000000 0.000000 0.000000 
0.000000 0.000000 0.000000 

0.000000 0.000000 0.000000 
0.000000 -0.000000 0.000000 
0.000000 0.000000 0.000000 

0.000000 -0.000000 0.000000 
0.000000 -0.000000 0.000000 
0.000000 0.000000 0.000000 

-0.000000 0.000000 0.000000 
0.000000 0.000000 0.000000 
0.000000 0.000000 0.000000 

0.000000 0.000000 0.000000 
0.000000 0.000000 0.000000 
0.000000 0.000000 0.000000 

-0.000000 0.000000 0.000000 
0.000000 0.000000 0.000000 
0.000000 0.000000 0.000000 

0.000000 0.000000 0.000000 
0.000000 -0.000000 0.000000 
0.000000 0.000000 0.000000 

-0.000000 -0.000000 0.000000 
0.000000 -0.000000 0.000000 
0.000000 0.000000 0.000000 

0.000000 0.000000 0.000000 
0.000000 0.000000 0.000000 
0.000000 0.000000 0.000000 

0.000000 0.000000 0.000000 
0.000000 -0.000000 0.000000 
0.000000 0.000000 0.000000 

0.000000 -0.000000 0.000000 
0.000000 0.000000 0.000000 
0.000000 0.000000 0.000000 

-0.000000 0.000000 0.000000 
0.000000 -0.000000 0.000000 
0.000000 0.000000 0.000000 

0.000000 -0.000000 0.000000 
0.000000 -0.000000 0.000000 
0.000000 0.000000 0.000000 

-0.000000 -0.000000 0.000000 
0.000000 -0.000000 0.000000 
0.000000 0.000000 0.000000 

0.000000 -0.000000 0.000000 
0.000000 -0.000000 0.000000 
0.000000 0.000000 0.000000 

-0.000000 0.000000 0.000000 
0.000000 -0.000000 0.000000 
0.000000 0.000000 0.000000 

-0.000000 0.000000 0.000000 
0.000000 0.000000 0.000000 
0.000000 0.000000 0.000000 

-0.000000 -0.000000 0.000000 
0.000000 0.000000 0.000000 
0.000000 0.000000 0.000000 

-0.000000 0.000000 0.000000 
0.000000 0.000000 0.000000 
0.000000 0.000000 0.000000 

-0.000000 -0.000000 0.000000 
0.000000 -0.000000 0.000000 
0.000000 0.000000 0.000000 

-0.000000 -0.000000 0.000000 
0.000000 -0.000000 0.000000 
0.000000 0.000000 0.000000 

-0.000000 0.000000 0.000000 
0.000000 0.000000 0.000000 
0.000000 0.000000 0.000000 

-0.000000 -0.000000 0.000000 
0.000000 -0.000000 0.000000 
0.000000 0.000000 0.000000 

-0.000000 -0.000000 0.000000 
0.000000 -0.000000 0.000000 
0.000000 0.000000 0.000000 

-0.000000 -0.000000 0.000000 
0.000000 0.000000 0.000000 
0.000000 0.000000 0.000000 

-0.000000 -0.000000 0.000000 
0.000000 -0.000000 0.000000 
0.000000 0.000000 0.000000 

-0.000000 -0.000000 0.000000 
0.000000 -0.000000 0.000000 
0.000000 0.000000 0.000000 

-0.000000 0.000000 0.000000 
0.000000 0.000000 0.000000 
0.000000 0.000000 0.000000 

-0.000000 0.000000 0.000000 
0.000000 -0.000000 0.000000 
0.000000 0.000000 0.000000 

-0.000000 0.000000 0.000000 
0.000000 -0.000000 0.000000 
0.000000 0.000000 0.000000 

-0.000000 -0.000000 0.000000 
0.000000 0.000000 0.000000 
0.000000 0.000000 0.000000 

-0.000000 0.000000 0.000000 
0.000000 0.000000 0.000000 
0.000000 0.000000 0.000000 

-0.000000 -0.000000 0.000000 
0.000000 0.000000 0.000000 
0.000000 0.000000 0.000000 

-0.000000 -0.000000 0.000000 
0.000000 -0.000000 0.000000 
0.000000 0.000000 0.000000 

-0.000000 0.000000 0.000000 
0.000000 0.000000 0.000000 
0.000000 0.000000 0.000000 

0.000000 -0.000000 0.000000 
0.000000 0.000000 0.000000 
0.000000 0.000000 0.000000 

0.000000 0.000000 0.000000 
0.000000 0.000000 0.000000 
0.000000 0.000000 0.000000 

0.000000 -0.000000 0.000000 
0.000000 0.000000 0.000000 
0.000000 0.000000 0.000000 

0.000000 -0.000000 0.000000 
0.000000 -0.000000 0.000000 
0.000000 0.000000 0.000000 

0.000000 -0.000000 0.000000 
0.000000 -0.000000 0.000000 
0.000000 0.000000 0.000000 

0.000000 -0.000000 0.000000 
0.000000 0.000000 0.000000 
0.000000 0.000000 0.000000 

0.000000 -0.000000 0.000000 
0.000000 -0.000000 0.000000 
0.000000 0.000000 0.000000 

-0.000000 -0.000000 0.000000 
0.000000 0.000000 0.000000 
0.000000 0.000000 0.000000 

-0.000000 0.000000 0.000000 
0.000000 -0.000000 0.000000 
0.000000 0.000000 0.000000 

-0.000000 0.000000 0.000000 
0.000000 -0.000000 0.000000 
0.000000 0.000000 0.000000 

-0.000000 0.000000 0.000000 
0.000000 -0.000000 0.000000 
0.000000 0.000000 0.000000 

-0.000000 0.000000 0.000000 
0.000000 -0.000000 0.000000 
0.000000 0.000000 0.000000 

-0.000000 0.000000 0.000000 
0.000000 -0.000000 0.000000 
0.000000 0.000000 0.000000 

-0.000000 0.000000 0.000000 
0.000000 0.000000 0.000000 
0.000000 0.000000 0.000000 

-0.000000 -0.000000 0.000000 
0.000000 0.000000 0.000000 
0.000000 0.000000 0.000000 

-0.000000 0.000000 0.000000 
0.000000 0.000000 0.000000 
0.000000 0.000000 0.000000 

-0.000000 0.000000 0.000000 
0.000000 0.000000 0.000000 
0.000000 0.000000 0.000000 

-0.000000 0.000000 0.000000 
0.000000 0.000000 0.000000 
0.000000 0.000000 0.000000 

0.000000 0.000000 0.000000 
0.000000 -0.000000 0.000000 
0.000000 0.000000 0.000000 

0.000000 -0.000000 0.000000 
0.000000 -0.000000 0.000000 
0.000000 0.000000 0.000000 

0.000000 0.000000 0.000000 
0.000000 -0.000000 0.000000 
0.000000 0.000000 0.000000 

-0.000000 0.000000 0.000000 
0.000000 0.000000 0.000000 
0.000000 0.000000 0.000000 

-0.000000 0.000000 0.000000 
0.000000 -0.000000 0.000000 
0.000000 0.000000 0.000000 

0.000000 0.000000 0.000000 
0.000000 0.000000 0.000000 
0.000000 0.000000 0.000000 

0.000000 -0.000000 0.000000 
0.000000 0.000000 0.000000 
0.000000 0.000000 0.000000 

0.000000 0.000000 0.000000 
0.000000 0.000000 0.000000 
0.000000 0.000000 0.000000 

0.000000 -0.000000 0.000000 
0.000000 0.000000 0.000000 
0.000000 0.000000 0.000000 

0.000000 -0.000000 0.000000 
0.000000 -0.000000 0.000000 
0.000000 0.000000 0.000000 

0.000000 -0.000000 0.000000 
0.000000 -0.000000 0.000000 
0.000000 0.000000 0.000000 

-0.000000 0.000000 0.000000 
0.000000 0.000000 0.000000 
0.000000 0.000000 0.000000 

-0.000000 0.000000 0.000000 
0.000000 -0.000000 0.000000 
0.000000 0.000000 0.000000 

-0.000000 0.000000 0.000000 
0.000000 0.000000 0.000000 
0.000000 0.000000 0.000000 

-0.000000 -0.000000 0.000000 
0.000000 -0.000000 0.000000 
0.000000 0.000000 0.000000 

-0.000000 -0.000000 0.000000 
0.000000 -0.000000 0.000000 
0.000000 0.000000 0.000000 

-0.000000 -0.000000 0.000000 
0.000000 0.000000 0.000000 
0.000000 0.000000 0.000000 

-0.000000 -0.000000 0.000000 
0.000000 0.000000 0.000000 
0.000000 0.000000 0.000000 

-0.000000 -0.000000 0.000000 
0.000000 -0.000000 0.000000 
0.000000 0.000000 0.000000 

-0.000000 0.000000 0.000000 
0.000000 -0.000000 0.000000 
0.000000 0.000000 0.000000 

-0.000000 -0.000000 0.000000 
0.000000 -0.000000 0.000000 
0.000000 0.000000 0.000000 

-0.000000 0.000000 0.000000 
0.000000 -0.000000 0.000000 
0.000000 0.000000 0.000000 

-0.000000 0.000000 0.000000 
0.000000 0.000000 0.000000 
0.000000 0.000000 0.000000 

-0.000000 -0.000000 0.000000 
0.000000 0.000000 0.000000 
0.000000 0.000000 0.000000 

-0.000000 0.000000 0.000000 
0.000000 0.000000 0.000000 
0.000000 0.000000 0.000000 

-0.000000 0.000000 0.000000 
0.000000 0.000000 0.000000 
0.000000 0.000000 0.000000 

-0.000000 -0.000000 0.000000 
0.000000 0.000000 0.000000 
0.000000 0.000000 0.000000 

-0.000000 -0.000000 0.000000 
0.000000 0.000000 0.000000 
0.000000 0.000000 0.000000 

-0.000000 0.000000 0.000000 
0.000000 0.000000 0.000000 
0.000000 0.000000 0.000000 

0.000000 0.000000 0.000000 
0.000000 -0.000000 0.000000 
0.000000 0.000000 0.000000 

-0.000000 -0.000000 0.000000 
0.000000 -0.000000 0.000000 
0.000000 0.000000 0.000000 

-0.000000 0.000000 0.000000 
0.000000 0.000000 0.000000 
0.000000 0.000000 0.000000 

-0.000000 -0.000000 0.000000 
0.000000 0.000000 0.000000 
0.000000 0.000000 0.000000 

-0.000000 -0.000000 0.000000 
0.000000 0.000000 0.000000 
0.000000 0.000000 0.000000 

0.000000 -0.000000 0.000000 
0.000000 0.000000 0.000000 
0.000000 0.000000 0.000000 

-0.000000 -0.000000 0.000000 
0.000000 0.000000 0.000000 
0.000000 0.000000 0.000000 

0.000000 0.000000 0.000000 
0.000000 -0.000000 0.000000 
0.000000 0.000000 0.000000 

0.000000 -0.000000 0.000000 
0.000000 -0.000000 0.000000 
0.000000 0.000000 0.000000 

0.000000 0.000000 0.000000 
0.000000 -0.000000 0.000000 
0.000000 0.000000 0.000000 

-0.000000 -0.000000 0.000000 
0.000000 -0.000000 0.000000 
0.000000 0.000000 0.000000 

-0.000000 -0.000000 0.000000 
0.000000 -0.000000 0.000000 
0.000000 0.000000 0.000000 

-0.000000 -0.000000 0.000000 
0.000000 0.000000 0.000000 
0.000000 0.000000 0.000000 

0.000000 0.000000 0.000000 
0.000000 0.000000 0.000000 
0.000000 0.000000 0.000000 

0.000000 -0.000000 0.000000 
0.000000 -0.000000 0.000000 
0.000000 0.000000 0.000000 

0.000000 0.000000 0.000000 
0.000000 0.000000 0.000000 
0.000000 0.000000 0.000000 

-0.000000 0.000000 0.000000 
0.000000 0.000000 0.000000 
0.000000 0.000000 0.000000 

-0.000000 -0.000000 0.000000 
0.000000 -0.000000 0.000000 
0.000000 0.000000 0.000000 

-0.000000 -0.000000 0.000000 
0.000000 -0.000000 0.000000 
0.000000 0.000000 0.000000 

-0.000000 -0.000000 0.000000 
0.000000 0.000000 0.000000 
0.000000 0.000000 0.000000 

-0.000000 -0.000000 0.000000 
0.000000 -0.000000 0.000000 
0.000000 0.000000 0.000000 

0.000000 -0.000000 0.000000 
0.000000 -0.000000 0.000000 
0.000000 0.000000 0.000000 

0.000000 -0.000000 0.000000 
0.000000 0.000000 0.000000 
0.000000 0.000000 0.000000 

0.000000 -0.000000 0.000000 
0.000000 -0.000000 0.000000 
0.000000 0.000000 0.000000 

-0.000000 -0.000000 0.000000 
0.000000 0.000000 0.000000 
0.000000 0.000000 0.000000 

-0.000000 -0.000000 0.000000 
0.000000 -0.000000 0.000000 
0.000000 0.000000 0.000000 

-0.000000 -0.000000 0.000000 
0.000000 0.000000 0.000000 
0.000000 0.000000 0.000000 

-0.000000 -0.000000 0.000000 
0.000000 0.000000 0.000000 
0.000000 0.000000 0.000000 

0.000000 -0.000000 0.000000 
0.000000 -0.000000 0.000000 
0.000000 0.000000 0.000000 

0.000000 -0.000000 0.000000 
0.000000 -0.000000 0.000000 
0.000000 0.000000 0.000000 

0.000000 -0.000000 0.000000 
0.000000 0.000000 0.000000 
0.000000 0.000000 0.000000 

0.000000 -0.000000 0.000000 
0.000000 0.000000 0.000000 
0.000000 0.000000 0.000000 

-0.000000 0.000000 0.000000 
0.000000 0.000000 0.000000 
0.000000 0.000000 0.000000 

-0.000000 -0.000000 0.000000 
0.000000 -0.000000 0.000000 
0.000000 0.000000 0.000000 

-0.000000 -0.000000 0.000000 
0.000000 0.000000 0.000000 
0.000000 0.000000 0.000000 

-0.000000 -0.000000 0.000000 
0.000000 -0.000000 0.000000 
0.000000 0.000000 0.000000 

-0.000000 0.000000 0.000000 
0.000000 -0.000000 0.000000 
0.000000 0.000000 0.000000 

-0.000000 -0.000000 0.000000 
0.000000 -0.000000 0.000000 
0.000000 0.000000 0.000000 

-0.000000 -0.000000 0.000000 
0.000000 0.000000 0.000000 
0.000000 0.000000 0.000000 

0.000000 0.000000 0.000000 
0.000000 -0.000000 0.000000 
0.000000 0.000000 0.000000 

0.000000 -0.000000 0.000000 
0.000000 0.000000 0.000000 
0.000000 0.000000 0.000000 

-0.000000 -0.000000 0.000000 
0.000000 -0.000000 0.000000 
0.000000 0.000000 0.000000 

-0.000000 -0.000000 0.000000 
0.000000 0.000000 0.000000 
0.000000 0.000000 0.000000 

0.000000 0.000000 0.000000 
0.000000 -0.000000 0.000000 
0.000000 0.000000 0.000000 

0.000000 0.000000 0.000000 
0.000000 0.000000 0.000000 
0.000000 0.000000 0.000000 

-0.000000 -0.000000 0.000000 
0.000000 0.000000 0.000000 
0.000000 0.000000 0.000000 

0.000000 -0.000000 0.000000 
0.000000 -0.000000 0.000000 
0.000000 0.000000 0.000000 

-0.000000 -0.000000 0.000000 
0.000000 0.000000 0.000000 
0.000000 0.000000 0.000000 

0.000000 -0.000000 0.000000 
0.000000 -0.000000 0.000000 
0.000000 0.000000 0.000000 

0.000000 -0.000000 0.000000 
0.000000 -0.000000 0.000000 
0.000000 0.000000 0.000000 

-0.000000 -0.000000 0.000000 
0.000000 0.000000 0.000000 
0.000000 0.000000 0.000000 

0.000000 -0.000000 0.000000 
0.000000 -0.000000 0.000000 
0.000000 0.000000 0.000000 

0.000000 0.000000 0.000000 
0.000000 -0.000000 0.000000 
0.000000 0.000000 0.000000 

-0.000000 -0.000000 0.000000 
0.000000 -0.000000 0.000000 
0.000000 0.000000 0.000000 

-0.000000 -0.000000 0.000000 
0.000000 0.000000 0.000000 
0.000000 0.000000 0.000000 

-0.000000 0.000000 0.000000 
0.000000 0.000000 0.000000 
0.000000 0.000000 0.000000 

-0.000000 0.000000 0.000000 
0.000000 0.000000 0.000000 
0.000000 0.000000 0.000000 

-0.000000 -0.000000 0.000000 
0.000000 0.000000 0.000000 
0.000000 0.000000 0.000000 

-0.000000 -0.000000 0.000000 
0.000000 -0.000000 0.000000 
0.000000 0.000000 0.000000 

-0.000000 -0.000000 0.000000 
0.000000 0.000000 0.000000 
0.000000 0.000000 0.000000 

-0.000000 -0.000000 0.000000 
0.000000 0.000000 0.000000 
0.000000 0.000000 0.000000 

0.000000 0.000000 0.000000 
0.000000 0.000000 0.000000 
0.000000 0.000000 0.000000 

-0.000000 0.000000 0.000000 
0.000000 0.000000 0.000000 
0.000000 0.000000 0.000000 

-0.000000 0.000000 0.000000 
0.000000 -0.000000 0.000000 
0.000000 0.000000 0.000000 

-0.000000 -0.000000 0.000000 
0.000000 -0.000000 0.000000 
0.000000 0.000000 0.000000 

-0.000000 -0.000000 0.000000 
0.000000 0.000000 0.000000 
0.000000 0.000000 0.000000 

-0.000000 0.000000 0.000000 
0.000000 0.000000 0.000000 
0.000000 0.000000 0.000000 

-0.000000 -0.000000 0.000000 
0.000000 -0.000000 0.000000 
0.000000 0.000000 0.000000 

-0.000000 0.000000 0.000000 
0.000000 0.000000 0.000000 
0.000000 0.000000 0.000000 

-0.000000 -0.000000 0.000000 
0.000000 -0.000000 0.000000 
0.000000 0.000000 0.000000 

0.000000 -0.000000 0.000000 
0.000000 -0.000000 0.000000 
0.000000 0.000000 0.000000 

-0.000000 -0.000000 0.000000 
0.000000 0.000000 0.000000 
0.000000 0.000000 0.000000 

-0.000000 -0.000000 0.000000 
0.000000 0.000000 0.000000 
0.000000 0.000000 0.000000 

-0.000000 0.000000 0.000000 
0.000000 0.000000 0.000000 
0.000000 0.000000 0.000000 

-0.000000 0.000000 0.000000 
0.000000 0.000000 0.000000 
0.000000 0.000000 0.000000 

0.000000 -0.000000 0.000000 
0.000000 0.000000 0.000000 
0.000000 0.000000 0.000000 

-0.000000 0.000000 0.000000 
0.000000 -0.000000 0.000000 
0.000000 0.000000 0.000000 

-0.000000 0.000000 0.000000 
0.000000 -0.000000 0.000000 
0.000000 0.000000 0.000000 

-0.000000 -0.000000 0.000000 
0.000000 0.000000 0.000000 
0.000000 0.000000 0.000000 

-0.000000 -0.000000 0.000000 
0.000000 -0.000000 0.000000 
0.000000 0.000000 0.000000 

-0.000000 -0.000000 0.000000 
0.000000 0.000000 0.000000 
0.000000 0.000000 0.000000 

-0.000000 0.000000 0.000000 
0.000000 -0.000000 0.000000 
0.000000 0.000000 0.000000 

-0.000000 0.000000 0.000000 
0.000000 -0.000000 0.000000 
0.000000 0.000000 0.000000 

-0.000000 -0.000000 0.000000 
0.000000 -0.000000 0.000000 
0.000000 0.000000 0.000000 

-0.000000 -0.000000 0.000000 
0.000000 0.000000 0.000000 
0.000000 0.000000 0.000000 

