# vtk DataFile Version 3.0 
vtk output 
ASCII 
DATASET UNSTRUCTURED_GRID 
POINTS 175 float 
-0.026061 -0.738078 0.000000 
-0.106992 -0.670023 0.000000 
-0.054870 -0.678255 0.000000 
-0.028809 -0.632372 0.000000 
-0.186430 -0.605947 0.000000 
-0.137056 -0.608473 0.000000 
-0.114311 -0.554826 0.000000 
-0.058186 -0.570492 0.000000 
-0.029377 -0.530314 0.000000 
-0.265318 -0.542791 0.000000 
-0.217198 -0.543591 0.000000 
-0.196633 -0.486294 0.000000 
-0.143120 -0.495003 0.000000 
-0.116563 -0.447735 0.000000 
-0.058945 -0.467380 0.000000 
-0.029568 -0.429260 0.000000 
-0.344206 -0.479636 0.000000 
-0.296791 -0.479628 0.000000 
-0.278030 -0.419686 0.000000 
-0.225992 -0.425552 0.000000 
-0.201664 -0.373435 0.000000 
-0.145749 -0.386909 0.000000 
-0.117890 -0.342566 0.000000 
-0.059328 -0.365272 0.000000 
-0.029759 -0.328206 0.000000 
-0.058559 -0.778829 0.000000 
-0.162226 -0.799672 0.000000 
-0.123292 -0.764054 0.000000 
-0.142917 -0.715070 0.000000 
-0.261851 -0.821828 0.000000 
-0.229092 -0.784801 0.000000 
-0.256854 -0.733569 0.000000 
-0.209613 -0.699457 0.000000 
-0.223062 -0.651883 0.000000 
-0.360414 -0.844128 0.000000 
-0.329787 -0.807005 0.000000 
-0.361761 -0.755203 0.000000 
-0.321587 -0.718794 0.000000 
-0.341985 -0.668560 0.000000 
-0.290702 -0.635761 0.000000 
-0.302189 -0.589026 0.000000 
-0.458977 -0.866428 0.000000 
-0.429420 -0.829353 0.000000 
-0.464588 -0.777312 0.000000 
-0.427556 -0.740284 0.000000 
-0.453135 -0.688769 0.000000 
-0.407738 -0.653454 0.000000 
-0.425037 -0.604026 0.000000 
-0.370772 -0.572397 0.000000 
-0.381315 -0.526169 0.000000 
-0.046960 -0.829644 0.000000 
-0.095301 -0.923690 0.000000 
-0.098873 -0.871043 0.000000 
-0.149405 -0.855845 0.000000 
-0.140093 -1.015394 0.000000 
-0.148617 -0.966696 0.000000 
-0.205981 -0.956458 0.000000 
-0.203197 -0.898255 0.000000 
-0.248777 -0.879109 0.000000 
-0.184111 -1.106358 0.000000 
-0.194039 -1.059267 0.000000 
-0.254475 -1.051967 0.000000 
-0.257893 -0.997857 0.000000 
-0.309886 -0.982485 0.000000 
-0.303554 -0.921940 0.000000 
-0.347255 -0.901782 0.000000 
-0.228129 -1.197321 0.000000 
-0.238687 -1.151097 0.000000 
-0.301302 -1.146145 0.000000 
-0.307162 -1.094106 0.000000 
-0.363386 -1.081985 0.000000 
-0.362692 -1.024474 0.000000 
-0.412122 -1.007181 0.000000 
-0.403017 -0.945034 0.000000 
-0.445733 -0.924455 0.000000 
-0.000000 -0.852259 0.000000 
0.043388 -0.948690 0.000000 
-0.000000 -0.918657 0.000000 
-0.043388 -0.948690 0.000000 
0.087158 -1.040886 0.000000 
0.043769 -1.017188 0.000000 
-0.000000 -1.055653 0.000000 
-0.043769 -1.017188 0.000000 
-0.087158 -1.040886 0.000000 
0.130831 -1.132016 0.000000 
0.087824 -1.110417 0.000000 
0.044436 -1.153117 0.000000 
-0.000000 -1.122052 0.000000 
-0.044436 -1.153117 0.000000 
-0.087824 -1.110417 0.000000 
-0.130831 -1.132016 0.000000 
0.174505 -1.223146 0.000000 
0.131782 -1.202580 0.000000 
0.088871 -1.248446 0.000000 
0.044532 -1.220582 0.000000 
-0.000000 -1.256982 0.000000 
-0.044532 -1.220582 0.000000 
-0.088871 -1.248446 0.000000 
-0.131782 -1.202580 0.000000 
-0.174505 -1.223146 0.000000 
0.046960 -0.829644 0.000000 
0.149405 -0.855845 0.000000 
0.098873 -0.871043 0.000000 
0.095301 -0.923690 0.000000 
0.248777 -0.879109 0.000000 
0.203197 -0.898255 0.000000 
0.205981 -0.956458 0.000000 
0.148617 -0.966696 0.000000 
0.140093 -1.015394 0.000000 
0.347255 -0.901782 0.000000 
0.303554 -0.921940 0.000000 
0.309886 -0.982485 0.000000 
0.257893 -0.997857 0.000000 
0.254475 -1.051967 0.000000 
0.194039 -1.059267 0.000000 
0.184111 -1.106358 0.000000 
0.445733 -0.924455 0.000000 
0.403017 -0.945034 0.000000 
0.412122 -1.007181 0.000000 
0.362692 -1.024474 0.000000 
0.363386 -1.081985 0.000000 
0.307162 -1.094106 0.000000 
0.301302 -1.146145 0.000000 
0.238687 -1.151097 0.000000 
0.228129 -1.197321 0.000000 
0.058559 -0.778829 0.000000 
0.142917 -0.715070 0.000000 
0.123292 -0.764054 0.000000 
0.162226 -0.799672 0.000000 
0.223062 -0.651883 0.000000 
0.209613 -0.699457 0.000000 
0.256854 -0.733569 0.000000 
0.229092 -0.784801 0.000000 
0.261851 -0.821828 0.000000 
0.302189 -0.589026 0.000000 
0.290702 -0.635761 0.000000 
0.341985 -0.668560 0.000000 
0.321587 -0.718794 0.000000 
0.361761 -0.755203 0.000000 
0.329787 -0.807005 0.000000 
0.360414 -0.844128 0.000000 
0.381315 -0.526169 0.000000 
0.370772 -0.572397 0.000000 
0.425037 -0.604026 0.000000 
0.407738 -0.653454 0.000000 
0.453135 -0.688769 0.000000 
0.427556 -0.740284 0.000000 
0.464588 -0.777312 0.000000 
0.429420 -0.829353 0.000000 
0.458977 -0.866428 0.000000 
0.026061 -0.738078 0.000000 
0.028809 -0.632372 0.000000 
0.054870 -0.678255 0.000000 
0.106992 -0.670023 0.000000 
0.029377 -0.530314 0.000000 
0.058186 -0.570492 0.000000 
0.114311 -0.554826 0.000000 
0.137056 -0.608473 0.000000 
0.186430 -0.605947 0.000000 
0.029568 -0.429260 0.000000 
0.058945 -0.467380 0.000000 
0.116563 -0.447735 0.000000 
0.143120 -0.495003 0.000000 
0.196633 -0.486294 0.000000 
0.217198 -0.543591 0.000000 
0.265318 -0.542791 0.000000 
0.029759 -0.328206 0.000000 
0.059328 -0.365272 0.000000 
0.117890 -0.342566 0.000000 
0.145749 -0.386909 0.000000 
0.201664 -0.373435 0.000000 
0.225992 -0.425552 0.000000 
0.278030 -0.419686 0.000000 
0.296791 -0.479628 0.000000 
0.344206 -0.479636 0.000000 
CELLS 175 350 
1 0 
1 1 
1 2 
1 3 
1 4 
1 5 
1 6 
1 7 
1 8 
1 9 
1 10 
1 11 
1 12 
1 13 
1 14 
1 15 
1 16 
1 17 
1 18 
1 19 
1 20 
1 21 
1 22 
1 23 
1 24 
1 25 
1 26 
1 27 
1 28 
1 29 
1 30 
1 31 
1 32 
1 33 
1 34 
1 35 
1 36 
1 37 
1 38 
1 39 
1 40 
1 41 
1 42 
1 43 
1 44 
1 45 
1 46 
1 47 
1 48 
1 49 
1 50 
1 51 
1 52 
1 53 
1 54 
1 55 
1 56 
1 57 
1 58 
1 59 
1 60 
1 61 
1 62 
1 63 
1 64 
1 65 
1 66 
1 67 
1 68 
1 69 
1 70 
1 71 
1 72 
1 73 
1 74 
1 75 
1 76 
1 77 
1 78 
1 79 
1 80 
1 81 
1 82 
1 83 
1 84 
1 85 
1 86 
1 87 
1 88 
1 89 
1 90 
1 91 
1 92 
1 93 
1 94 
1 95 
1 96 
1 97 
1 98 
1 99 
1 100 
1 101 
1 102 
1 103 
1 104 
1 105 
1 106 
1 107 
1 108 
1 109 
1 110 
1 111 
1 112 
1 113 
1 114 
1 115 
1 116 
1 117 
1 118 
1 119 
1 120 
1 121 
1 122 
1 123 
1 124 
1 125 
1 126 
1 127 
1 128 
1 129 
1 130 
1 131 
1 132 
1 133 
1 134 
1 135 
1 136 
1 137 
1 138 
1 139 
1 140 
1 141 
1 142 
1 143 
1 144 
1 145 
1 146 
1 147 
1 148 
1 149 
1 150 
1 151 
1 152 
1 153 
1 154 
1 155 
1 156 
1 157 
1 158 
1 159 
1 160 
1 161 
1 162 
1 163 
1 164 
1 165 
1 166 
1 167 
1 168 
1 169 
1 170 
1 171 
1 172 
1 173 
1 174 
CELL_TYPES 175 
1 
1 
1 
1 
1 
1 
1 
1 
1 
1 
1 
1 
1 
1 
1 
1 
1 
1 
1 
1 
1 
1 
1 
1 
1 
1 
1 
1 
1 
1 
1 
1 
1 
1 
1 
1 
1 
1 
1 
1 
1 
1 
1 
1 
1 
1 
1 
1 
1 
1 
1 
1 
1 
1 
1 
1 
1 
1 
1 
1 
1 
1 
1 
1 
1 
1 
1 
1 
1 
1 
1 
1 
1 
1 
1 
1 
1 
1 
1 
1 
1 
1 
1 
1 
1 
1 
1 
1 
1 
1 
1 
1 
1 
1 
1 
1 
1 
1 
1 
1 
1 
1 
1 
1 
1 
1 
1 
1 
1 
1 
1 
1 
1 
1 
1 
1 
1 
1 
1 
1 
1 
1 
1 
1 
1 
1 
1 
1 
1 
1 
1 
1 
1 
1 
1 
1 
1 
1 
1 
1 
1 
1 
1 
1 
1 
1 
1 
1 
1 
1 
1 
1 
1 
1 
1 
1 
1 
1 
1 
1 
1 
1 
1 
1 
1 
1 
1 
1 
1 
1 
1 
1 
1 
1 
1 
POINT_DATA 175 
VECTORS X_GC float 
-0.026061 -0.738078 0.000000 
-0.106992 -0.670023 0.000000 
-0.054870 -0.678255 0.000000 
-0.028809 -0.632372 0.000000 
-0.186430 -0.605947 0.000000 
-0.137056 -0.608473 0.000000 
-0.114311 -0.554826 0.000000 
-0.058186 -0.570492 0.000000 
-0.029377 -0.530314 0.000000 
-0.265318 -0.542791 0.000000 
-0.217198 -0.543591 0.000000 
-0.196633 -0.486294 0.000000 
-0.143120 -0.495003 0.000000 
-0.116563 -0.447735 0.000000 
-0.058945 -0.467380 0.000000 
-0.029568 -0.429260 0.000000 
-0.344206 -0.479636 0.000000 
-0.296791 -0.479628 0.000000 
-0.278030 -0.419686 0.000000 
-0.225992 -0.425552 0.000000 
-0.201664 -0.373435 0.000000 
-0.145749 -0.386909 0.000000 
-0.117890 -0.342566 0.000000 
-0.059328 -0.365272 0.000000 
-0.029759 -0.328206 0.000000 
-0.058559 -0.778829 0.000000 
-0.162226 -0.799672 0.000000 
-0.123292 -0.764054 0.000000 
-0.142917 -0.715070 0.000000 
-0.261851 -0.821828 0.000000 
-0.229092 -0.784801 0.000000 
-0.256854 -0.733569 0.000000 
-0.209613 -0.699457 0.000000 
-0.223062 -0.651883 0.000000 
-0.360414 -0.844128 0.000000 
-0.329787 -0.807005 0.000000 
-0.361761 -0.755203 0.000000 
-0.321587 -0.718794 0.000000 
-0.341985 -0.668560 0.000000 
-0.290702 -0.635761 0.000000 
-0.302189 -0.589026 0.000000 
-0.458977 -0.866428 0.000000 
-0.429420 -0.829353 0.000000 
-0.464588 -0.777312 0.000000 
-0.427556 -0.740284 0.000000 
-0.453135 -0.688769 0.000000 
-0.407738 -0.653454 0.000000 
-0.425037 -0.604026 0.000000 
-0.370772 -0.572397 0.000000 
-0.381315 -0.526169 0.000000 
-0.046960 -0.829644 0.000000 
-0.095301 -0.923690 0.000000 
-0.098873 -0.871043 0.000000 
-0.149405 -0.855845 0.000000 
-0.140093 -1.015394 0.000000 
-0.148617 -0.966696 0.000000 
-0.205981 -0.956458 0.000000 
-0.203197 -0.898255 0.000000 
-0.248777 -0.879109 0.000000 
-0.184111 -1.106358 0.000000 
-0.194039 -1.059267 0.000000 
-0.254475 -1.051967 0.000000 
-0.257893 -0.997857 0.000000 
-0.309886 -0.982485 0.000000 
-0.303554 -0.921940 0.000000 
-0.347255 -0.901782 0.000000 
-0.228129 -1.197321 0.000000 
-0.238687 -1.151097 0.000000 
-0.301302 -1.146145 0.000000 
-0.307162 -1.094106 0.000000 
-0.363386 -1.081985 0.000000 
-0.362692 -1.024474 0.000000 
-0.412122 -1.007181 0.000000 
-0.403017 -0.945034 0.000000 
-0.445733 -0.924455 0.000000 
-0.000000 -0.852259 0.000000 
0.043388 -0.948690 0.000000 
-0.000000 -0.918657 0.000000 
-0.043388 -0.948690 0.000000 
0.087158 -1.040886 0.000000 
0.043769 -1.017188 0.000000 
-0.000000 -1.055653 0.000000 
-0.043769 -1.017188 0.000000 
-0.087158 -1.040886 0.000000 
0.130831 -1.132016 0.000000 
0.087824 -1.110417 0.000000 
0.044436 -1.153117 0.000000 
-0.000000 -1.122052 0.000000 
-0.044436 -1.153117 0.000000 
-0.087824 -1.110417 0.000000 
-0.130831 -1.132016 0.000000 
0.174505 -1.223146 0.000000 
0.131782 -1.202580 0.000000 
0.088871 -1.248446 0.000000 
0.044532 -1.220582 0.000000 
-0.000000 -1.256982 0.000000 
-0.044532 -1.220582 0.000000 
-0.088871 -1.248446 0.000000 
-0.131782 -1.202580 0.000000 
-0.174505 -1.223146 0.000000 
0.046960 -0.829644 0.000000 
0.149405 -0.855845 0.000000 
0.098873 -0.871043 0.000000 
0.095301 -0.923690 0.000000 
0.248777 -0.879109 0.000000 
0.203197 -0.898255 0.000000 
0.205981 -0.956458 0.000000 
0.148617 -0.966696 0.000000 
0.140093 -1.015394 0.000000 
0.347255 -0.901782 0.000000 
0.303554 -0.921940 0.000000 
0.309886 -0.982485 0.000000 
0.257893 -0.997857 0.000000 
0.254475 -1.051967 0.000000 
0.194039 -1.059267 0.000000 
0.184111 -1.106358 0.000000 
0.445733 -0.924455 0.000000 
0.403017 -0.945034 0.000000 
0.412122 -1.007181 0.000000 
0.362692 -1.024474 0.000000 
0.363386 -1.081985 0.000000 
0.307162 -1.094106 0.000000 
0.301302 -1.146145 0.000000 
0.238687 -1.151097 0.000000 
0.228129 -1.197321 0.000000 
0.058559 -0.778829 0.000000 
0.142917 -0.715070 0.000000 
0.123292 -0.764054 0.000000 
0.162226 -0.799672 0.000000 
0.223062 -0.651883 0.000000 
0.209613 -0.699457 0.000000 
0.256854 -0.733569 0.000000 
0.229092 -0.784801 0.000000 
0.261851 -0.821828 0.000000 
0.302189 -0.589026 0.000000 
0.290702 -0.635761 0.000000 
0.341985 -0.668560 0.000000 
0.321587 -0.718794 0.000000 
0.361761 -0.755203 0.000000 
0.329787 -0.807005 0.000000 
0.360414 -0.844128 0.000000 
0.381315 -0.526169 0.000000 
0.370772 -0.572397 0.000000 
0.425037 -0.604026 0.000000 
0.407738 -0.653454 0.000000 
0.453135 -0.688769 0.000000 
0.427556 -0.740284 0.000000 
0.464588 -0.777312 0.000000 
0.429420 -0.829353 0.000000 
0.458977 -0.866428 0.000000 
0.026061 -0.738078 0.000000 
0.028809 -0.632372 0.000000 
0.054870 -0.678255 0.000000 
0.106992 -0.670023 0.000000 
0.029377 -0.530314 0.000000 
0.058186 -0.570492 0.000000 
0.114311 -0.554826 0.000000 
0.137056 -0.608473 0.000000 
0.186430 -0.605947 0.000000 
0.029568 -0.429260 0.000000 
0.058945 -0.467380 0.000000 
0.116563 -0.447735 0.000000 
0.143120 -0.495003 0.000000 
0.196633 -0.486294 0.000000 
0.217198 -0.543591 0.000000 
0.265318 -0.542791 0.000000 
0.029759 -0.328206 0.000000 
0.059328 -0.365272 0.000000 
0.117890 -0.342566 0.000000 
0.145749 -0.386909 0.000000 
0.201664 -0.373435 0.000000 
0.225992 -0.425552 0.000000 
0.278030 -0.419686 0.000000 
0.296791 -0.479628 0.000000 
0.344206 -0.479636 0.000000 
VECTORS X_EC float 
0.338794 0.464055 0.000000 
-0.609100 -0.454694 0.000000 
0.713312 -0.343553 0.000000 
0.374519 -0.962983 0.000000 
0.423588 0.680287 0.000000 
-0.218274 0.714391 0.000000 
-0.513962 -0.009848 0.000000 
0.756418 0.201638 0.000000 
0.381900 -0.340755 0.000000 
-0.550868 -0.172316 0.000000 
0.823577 -0.161521 0.000000 
0.556234 -0.935025 0.000000 
-0.139443 -0.817456 0.000000 
-0.484677 0.544419 0.000000 
0.766286 0.809635 0.000000 
0.384386 0.295014 0.000000 
0.474677 0.975081 0.000000 
-0.141715 0.974984 0.000000 
-0.385608 0.165756 0.000000 
0.937896 0.244952 0.000000 
0.621631 -0.458628 0.000000 
-0.105264 -0.276729 0.000000 
-0.467428 -0.875356 0.000000 
0.771260 -0.568827 0.000000 
0.386873 0.930783 0.000000 
0.761262 -0.985811 0.000000 
0.108942 -0.704434 0.000000 
-0.397202 0.814726 0.000000 
-0.142083 0.153451 0.000000 
-0.595936 -0.405324 0.000000 
0.978194 -0.905189 0.000000 
-0.660903 0.403185 0.000000 
0.724964 -0.057335 0.000000 
0.899809 -0.699583 0.000000 
0.685384 -0.104271 0.000000 
0.287229 -0.605430 0.000000 
0.702895 0.695242 0.000000 
0.180633 0.203723 0.000000 
0.445811 -0.474437 0.000000 
-0.220880 -0.917223 0.000000 
-0.071546 0.451852 0.000000 
-0.033296 0.196781 0.000000 
-0.417537 -0.303729 0.000000 
0.039645 0.993709 0.000000 
-0.441768 0.493838 0.000000 
-0.109248 -0.201613 0.000000 
-0.699407 -0.678369 0.000000 
-0.474522 0.654352 0.000000 
0.820030 0.227359 0.000000 
0.957100 -0.396713 0.000000 
0.610485 -0.299805 0.000000 
-0.761092 0.969815 0.000000 
-0.714655 0.259077 0.000000 
-0.057734 0.053910 0.000000 
-0.178789 0.207819 0.000000 
-0.067979 -0.449607 0.000000 
0.677748 -0.587811 0.000000 
0.641556 0.626444 0.000000 
-0.765897 0.367966 0.000000 
0.393446 -0.564172 0.000000 
0.522510 0.800098 0.000000 
-0.691820 0.701554 0.000000 
-0.647393 -0.028929 0.000000 
0.028512 -0.236455 0.000000 
-0.053800 0.946184 0.000000 
0.514316 0.674053 0.000000 
0.965681 0.663837 0.000000 
-0.897068 0.039808 0.000000 
-0.083078 -0.027045 0.000000 
-0.006893 -0.729569 0.000000 
0.724017 -0.893202 0.000000 
0.714996 0.330394 0.000000 
-0.642413 0.096937 0.000000 
-0.760780 -0.742044 0.000000 
-0.205471 0.980141 0.000000 
0.000000 0.005497 0.000000 
-0.564049 -0.692690 0.000000 
0.000000 0.901874 0.000000 
0.564049 -0.692690 0.000000 
0.866949 0.551965 0.000000 
-0.569003 0.232034 0.000000 
0.000000 0.751322 0.000000 
0.569003 0.232034 0.000000 
-0.866949 0.551965 0.000000 
0.299194 -0.217785 0.000000 
0.858290 -0.509368 0.000000 
-0.577662 0.067077 0.000000 
0.000000 -0.352301 0.000000 
0.577662 0.067077 0.000000 
-0.858290 -0.509368 0.000000 
-0.299194 -0.217785 0.000000 
-0.268560 -0.987535 0.000000 
0.286830 0.734824 0.000000 
0.844677 -0.645978 0.000000 
-0.578910 0.977859 0.000000 
0.000000 -0.530737 0.000000 
0.578910 0.977859 0.000000 
-0.844677 -0.645978 0.000000 
-0.286830 0.734824 0.000000 
0.268560 -0.987535 0.000000 
-0.610485 -0.299805 0.000000 
0.057734 0.053910 0.000000 
0.714655 0.259077 0.000000 
0.761092 0.969815 0.000000 
0.765897 0.367966 0.000000 
-0.641556 0.626444 0.000000 
-0.677748 -0.587811 0.000000 
0.067979 -0.449607 0.000000 
0.178789 0.207819 0.000000 
-0.514316 0.674053 0.000000 
0.053800 0.946184 0.000000 
-0.028512 -0.236455 0.000000 
0.647393 -0.028929 0.000000 
0.691820 0.701554 0.000000 
-0.522510 0.800098 0.000000 
-0.393446 -0.564172 0.000000 
0.205471 0.980141 0.000000 
0.760780 -0.742044 0.000000 
0.642413 0.096937 0.000000 
-0.714996 0.330394 0.000000 
-0.724017 -0.893202 0.000000 
0.006894 -0.729569 0.000000 
0.083078 -0.027045 0.000000 
0.897068 0.039808 0.000000 
-0.965681 0.663837 0.000000 
-0.761262 -0.985811 0.000000 
0.142083 0.153451 0.000000 
0.397202 0.814726 0.000000 
-0.108942 -0.704434 0.000000 
-0.899809 -0.699583 0.000000 
-0.724964 -0.057335 0.000000 
0.660903 0.403185 0.000000 
-0.978194 -0.905189 0.000000 
0.595936 -0.405324 0.000000 
0.071546 0.451852 0.000000 
0.220880 -0.917223 0.000000 
-0.445811 -0.474437 0.000000 
-0.180633 0.203723 0.000000 
-0.702895 0.695242 0.000000 
-0.287229 -0.605430 0.000000 
-0.685384 -0.104271 0.000000 
-0.957100 -0.396713 0.000000 
-0.820030 0.227359 0.000000 
0.474522 0.654352 0.000000 
0.699407 -0.678369 0.000000 
0.109248 -0.201613 0.000000 
0.441768 0.493838 0.000000 
-0.039645 0.993709 0.000000 
0.417537 -0.303729 0.000000 
0.033296 0.196781 0.000000 
-0.338794 0.464055 0.000000 
-0.374519 -0.962983 0.000000 
-0.713312 -0.343553 0.000000 
0.609100 -0.454694 0.000000 
-0.381900 -0.340755 0.000000 
-0.756418 0.201638 0.000000 
0.513962 -0.009848 0.000000 
0.218274 0.714391 0.000000 
-0.423588 0.680287 0.000000 
-0.384386 0.295014 0.000000 
-0.766286 0.809635 0.000000 
0.484677 0.544419 0.000000 
0.139443 -0.817456 0.000000 
-0.556234 -0.935025 0.000000 
-0.823577 -0.161521 0.000000 
0.550868 -0.172316 0.000000 
-0.386873 0.930783 0.000000 
-0.771260 -0.568827 0.000000 
0.467428 -0.875356 0.000000 
0.105264 -0.276729 0.000000 
-0.621631 -0.458628 0.000000 
-0.937896 0.244952 0.000000 
0.385608 0.165756 0.000000 
0.141715 0.974984 0.000000 
-0.474677 0.975081 0.000000 
CELL_DATA 175 
SCALARS MASS float 
LOOKUP_TABLE default 
0.078183 
0.086427 
0.094672 
0.086427 
0.088131 
0.092111 
0.085854 
0.092111 
0.088131 
0.088705 
0.091000 
0.086983 
0.091556 
0.086983 
0.091000 
0.088705 
0.089278 
0.091574 
0.089278 
0.092722 
0.089278 
0.092722 
0.089278 
0.091574 
0.089278 
0.078183 
0.086427 
0.094672 
0.086427 
0.088131 
0.092111 
0.085854 
0.092111 
0.088131 
0.088705 
0.091000 
0.086983 
0.091556 
0.086983 
0.091000 
0.088705 
0.089278 
0.091574 
0.089278 
0.092722 
0.089278 
0.092722 
0.089278 
0.091574 
0.089278 
0.078183 
0.086427 
0.094672 
0.086427 
0.088131 
0.092111 
0.085854 
0.092111 
0.088131 
0.088705 
0.091000 
0.086983 
0.091556 
0.086983 
0.091000 
0.088705 
0.089278 
0.091574 
0.089278 
0.092722 
0.089278 
0.092722 
0.089278 
0.091574 
0.089278 
0.078183 
0.086427 
0.094672 
0.086427 
0.088131 
0.092111 
0.085854 
0.092111 
0.088131 
0.088705 
0.091000 
0.086983 
0.091556 
0.086983 
0.091000 
0.088705 
0.089278 
0.091574 
0.089278 
0.092722 
0.089278 
0.092722 
0.089278 
0.091574 
0.089278 
0.078183 
0.086427 
0.094672 
0.086427 
0.088131 
0.092111 
0.085854 
0.092111 
0.088131 
0.088705 
0.091000 
0.086983 
0.091556 
0.086983 
0.091000 
0.088705 
0.089278 
0.091574 
0.089278 
0.092722 
0.089278 
0.092722 
0.089278 
0.091574 
0.089278 
0.078183 
0.086427 
0.094672 
0.086427 
0.088131 
0.092111 
0.085854 
0.092111 
0.088131 
0.088705 
0.091000 
0.086983 
0.091556 
0.086983 
0.091000 
0.088705 
0.089278 
0.091574 
0.089278 
0.092722 
0.089278 
0.092722 
0.089278 
0.091574 
0.089278 
0.078183 
0.086427 
0.094672 
0.086427 
0.088131 
0.092111 
0.085854 
0.092111 
0.088131 
0.088705 
0.091000 
0.086983 
0.091556 
0.086983 
0.091000 
0.088705 
0.089278 
0.091574 
0.089278 
0.092722 
0.089278 
0.092722 
0.089278 
0.091574 
0.089278 
SCALARS MASS float 
LOOKUP_TABLE default 
0.078183 
0.086427 
0.094672 
0.086427 
0.088131 
0.092111 
0.085854 
0.092111 
0.088131 
0.088705 
0.091000 
0.086983 
0.091556 
0.086983 
0.091000 
0.088705 
0.089278 
0.091574 
0.089278 
0.092722 
0.089278 
0.092722 
0.089278 
0.091574 
0.089278 
0.078183 
0.086427 
0.094672 
0.086427 
0.088131 
0.092111 
0.085854 
0.092111 
0.088131 
0.088705 
0.091000 
0.086983 
0.091556 
0.086983 
0.091000 
0.088705 
0.089278 
0.091574 
0.089278 
0.092722 
0.089278 
0.092722 
0.089278 
0.091574 
0.089278 
0.078183 
0.086427 
0.094672 
0.086427 
0.088131 
0.092111 
0.085854 
0.092111 
0.088131 
0.088705 
0.091000 
0.086983 
0.091556 
0.086983 
0.091000 
0.088705 
0.089278 
0.091574 
0.089278 
0.092722 
0.089278 
0.092722 
0.089278 
0.091574 
0.089278 
0.078183 
0.086427 
0.094672 
0.086427 
0.088131 
0.092111 
0.085854 
0.092111 
0.088131 
0.088705 
0.091000 
0.086983 
0.091556 
0.086983 
0.091000 
0.088705 
0.089278 
0.091574 
0.089278 
0.092722 
0.089278 
0.092722 
0.089278 
0.091574 
0.089278 
0.078183 
0.086427 
0.094672 
0.086427 
0.088131 
0.092111 
0.085854 
0.092111 
0.088131 
0.088705 
0.091000 
0.086983 
0.091556 
0.086983 
0.091000 
0.088705 
0.089278 
0.091574 
0.089278 
0.092722 
0.089278 
0.092722 
0.089278 
0.091574 
0.089278 
0.078183 
0.086427 
0.094672 
0.086427 
0.088131 
0.092111 
0.085854 
0.092111 
0.088131 
0.088705 
0.091000 
0.086983 
0.091556 
0.086983 
0.091000 
0.088705 
0.089278 
0.091574 
0.089278 
0.092722 
0.089278 
0.092722 
0.089278 
0.091574 
0.089278 
0.078183 
0.086427 
0.094672 
0.086427 
0.088131 
0.092111 
0.085854 
0.092111 
0.088131 
0.088705 
0.091000 
0.086983 
0.091556 
0.086983 
0.091000 
0.088705 
0.089278 
0.091574 
0.089278 
0.092722 
0.089278 
0.092722 
0.089278 
0.091574 
0.089278 
SCALARS DENSITY float 
LOOKUP_TABLE default 
20.000000 
20.000000 
20.000000 
20.000000 
20.000000 
20.000000 
20.000000 
20.000000 
20.000000 
20.000000 
20.000000 
20.000000 
20.000000 
20.000000 
20.000000 
20.000000 
20.000000 
20.000000 
20.000000 
20.000000 
20.000000 
20.000000 
20.000000 
20.000000 
20.000000 
20.000000 
20.000000 
20.000000 
20.000000 
20.000000 
20.000000 
20.000000 
20.000000 
20.000000 
20.000000 
20.000000 
20.000000 
20.000000 
20.000000 
20.000000 
20.000000 
20.000000 
20.000000 
20.000000 
20.000000 
20.000000 
20.000000 
20.000000 
20.000000 
20.000000 
20.000000 
20.000000 
20.000000 
20.000000 
20.000000 
20.000000 
20.000000 
20.000000 
20.000000 
20.000000 
20.000000 
20.000000 
20.000000 
20.000000 
20.000000 
20.000000 
20.000000 
20.000000 
20.000000 
20.000000 
20.000000 
20.000000 
20.000000 
20.000000 
20.000000 
20.000000 
20.000000 
20.000000 
20.000000 
20.000000 
20.000000 
20.000000 
20.000000 
20.000000 
20.000000 
20.000000 
20.000000 
20.000000 
20.000000 
20.000000 
20.000000 
20.000000 
20.000000 
20.000000 
20.000000 
20.000000 
20.000000 
20.000000 
20.000000 
20.000000 
20.000000 
20.000000 
20.000000 
20.000000 
20.000000 
20.000000 
20.000000 
20.000000 
20.000000 
20.000000 
20.000000 
20.000000 
20.000000 
20.000000 
20.000000 
20.000000 
20.000000 
20.000000 
20.000000 
20.000000 
20.000000 
20.000000 
20.000000 
20.000000 
20.000000 
20.000000 
20.000000 
20.000000 
20.000000 
20.000000 
20.000000 
20.000000 
20.000000 
20.000000 
20.000000 
20.000000 
20.000000 
20.000000 
20.000000 
20.000000 
20.000000 
20.000000 
20.000000 
20.000000 
20.000000 
20.000000 
20.000000 
20.000000 
20.000000 
20.000000 
20.000000 
20.000000 
20.000000 
20.000000 
20.000000 
20.000000 
20.000000 
20.000000 
20.000000 
20.000000 
20.000000 
20.000000 
20.000000 
20.000000 
20.000000 
20.000000 
20.000000 
20.000000 
20.000000 
20.000000 
20.000000 
20.000000 
20.000000 
20.000000 
20.000000 
SCALARS ELEM_i float 
LOOKUP_TABLE default 
177 
204 
177 
177 
205 
205 
205 
178 
178 
232 
205 
205 
205 
206 
179 
179 
233 
233 
233 
206 
206 
206 
206 
179 
180 
176 
203 
204 
204 
230 
203 
231 
204 
204 
230 
230 
231 
231 
231 
231 
232 
257 
257 
258 
258 
258 
258 
259 
232 
232 
176 
203 
203 
203 
202 
202 
202 
203 
230 
201 
202 
229 
229 
229 
230 
230 
201 
228 
228 
228 
228 
229 
256 
256 
257 
176 
175 
176 
175 
148 
175 
175 
175 
202 
147 
147 
174 
174 
174 
201 
201 
146 
147 
146 
174 
173 
174 
200 
201 
200 
176 
149 
149 
149 
122 
149 
148 
148 
148 
122 
122 
121 
121 
121 
148 
147 
95 
94 
94 
121 
120 
120 
120 
120 
147 
176 
150 
150 
149 
150 
150 
123 
149 
122 
124 
123 
123 
123 
123 
122 
122 
124 
124 
97 
96 
96 
96 
96 
95 
95 
177 
177 
177 
150 
178 
178 
151 
151 
151 
179 
179 
152 
151 
151 
151 
124 
180 
179 
152 
152 
152 
152 
125 
125 
125 
VECTORS VELOCITY float 
0.000000 -3.942050 0.000000 
0.000000 -3.942050 0.000000 
0.000000 -3.942050 0.000000 
-0.000000 -3.942050 0.000000 
0.000000 -3.942050 0.000000 
0.000000 -3.942050 0.000000 
0.000000 -3.942050 0.000000 
-0.000000 -3.942050 0.000000 
-0.000000 -3.942050 0.000000 
0.000000 -3.942050 0.000000 
0.000000 -3.942050 0.000000 
0.000000 -3.942050 0.000000 
0.000000 -3.942050 0.000000 
-0.000000 -3.942050 0.000000 
-0.000000 -3.942050 0.000000 
0.000000 -3.942050 0.000000 
-0.000000 -3.942050 0.000000 
0.000000 -3.942050 0.000000 
-0.000000 -3.942050 0.000000 
0.000000 -3.942050 0.000000 
-0.000000 -3.942050 0.000000 
0.000000 -3.942050 0.000000 
0.000000 -3.942050 0.000000 
0.000000 -3.942050 0.000000 
-0.000000 -3.942050 0.000000 
0.000000 -3.942050 0.000000 
0.000000 -3.942050 0.000000 
0.000000 -3.942050 0.000000 
0.000000 -3.942050 0.000000 
-0.000000 -3.942050 0.000000 
-0.000000 -3.942050 0.000000 
-0.000000 -3.942050 0.000000 
-0.000000 -3.942050 0.000000 
-0.000000 -3.942050 0.000000 
0.000000 -3.942050 0.000000 
0.000000 -3.942050 0.000000 
0.000000 -3.942050 0.000000 
0.000000 -3.942050 0.000000 
-0.000000 -3.942050 0.000000 
-0.000000 -3.942050 0.000000 
0.000000 -3.942050 0.000000 
0.000000 -3.942050 0.000000 
0.000000 -3.942050 0.000000 
0.000000 -3.942050 0.000000 
0.000000 -3.942050 0.000000 
0.000000 -3.942050 0.000000 
0.000000 -3.942050 0.000000 
0.000000 -3.942050 0.000000 
-0.000000 -3.942050 0.000000 
0.000000 -3.942050 0.000000 
0.000000 -3.942050 0.000000 
-0.000000 -3.942050 0.000000 
0.000000 -3.942050 0.000000 
0.000000 -3.942050 0.000000 
-0.000000 -3.942050 0.000000 
-0.000000 -3.942050 0.000000 
0.000000 -3.942050 0.000000 
-0.000000 -3.942050 0.000000 
-0.000000 -3.942050 0.000000 
-0.000000 -3.942050 0.000000 
-0.000000 -3.942050 0.000000 
-0.000000 -3.942050 0.000000 
0.000000 -3.942050 0.000000 
-0.000000 -3.942050 0.000000 
-0.000000 -3.942050 0.000000 
-0.000000 -3.942050 0.000000 
0.000000 -3.942050 0.000000 
-0.000000 -3.942050 0.000000 
0.000000 -3.942050 0.000000 
-0.000000 -3.942050 0.000000 
-0.000000 -3.942050 0.000000 
-0.000000 -3.942050 0.000000 
-0.000000 -3.942050 0.000000 
-0.000000 -3.942050 0.000000 
0.000000 -3.942050 0.000000 
0.000000 -3.942050 0.000000 
0.000000 -3.942050 0.000000 
-0.000000 -3.942050 0.000000 
-0.000000 -3.942050 0.000000 
-0.000000 -3.942050 0.000000 
-0.000000 -3.942050 0.000000 
-0.000000 -3.942050 0.000000 
-0.000000 -3.942050 0.000000 
-0.000000 -3.942050 0.000000 
-0.000000 -3.942050 0.000000 
-0.000000 -3.942050 0.000000 
-0.000000 -3.942050 0.000000 
-0.000000 -3.942050 0.000000 
0.000000 -3.942050 0.000000 
0.000000 -3.942050 0.000000 
-0.000000 -3.942050 0.000000 
-0.000000 -3.942050 0.000000 
-0.000000 -3.942050 0.000000 
-0.000000 -3.942050 0.000000 
0.000000 -3.942050 0.000000 
-0.000000 -3.942050 0.000000 
-0.000000 -3.942050 0.000000 
0.000000 -3.942050 0.000000 
-0.000000 -3.942050 0.000000 
0.000000 -3.942050 0.000000 
0.000000 -3.942050 0.000000 
0.000000 -3.942050 0.000000 
0.000000 -3.942050 0.000000 
0.000000 -3.942050 0.000000 
-0.000000 -3.942050 0.000000 
0.000000 -3.942050 0.000000 
0.000000 -3.942050 0.000000 
0.000000 -3.942050 0.000000 
0.000000 -3.942050 0.000000 
-0.000000 -3.942050 0.000000 
-0.000000 -3.942050 0.000000 
-0.000000 -3.942050 0.000000 
0.000000 -3.942050 0.000000 
0.000000 -3.942050 0.000000 
-0.000000 -3.942050 0.000000 
-0.000000 -3.942050 0.000000 
-0.000000 -3.942050 0.000000 
-0.000000 -3.942050 0.000000 
0.000000 -3.942050 0.000000 
-0.000000 -3.942050 0.000000 
0.000000 -3.942050 0.000000 
0.000000 -3.942050 0.000000 
-0.000000 -3.942050 0.000000 
-0.000000 -3.942050 0.000000 
-0.000000 -3.942050 0.000000 
0.000000 -3.942050 0.000000 
-0.000000 -3.942050 0.000000 
0.000000 -3.942050 0.000000 
-0.000000 -3.942050 0.000000 
0.000000 -3.942050 0.000000 
0.000000 -3.942050 0.000000 
0.000000 -3.942050 0.000000 
-0.000000 -3.942050 0.000000 
-0.000000 -3.942050 0.000000 
0.000000 -3.942050 0.000000 
0.000000 -3.942050 0.000000 
0.000000 -3.942050 0.000000 
0.000000 -3.942050 0.000000 
0.000000 -3.942050 0.000000 
0.000000 -3.942050 0.000000 
0.000000 -3.942050 0.000000 
-0.000000 -3.942050 0.000000 
-0.000000 -3.942050 0.000000 
0.000000 -3.942050 0.000000 
-0.000000 -3.942050 0.000000 
-0.000000 -3.942050 0.000000 
0.000000 -3.942050 0.000000 
0.000000 -3.942050 0.000000 
0.000000 -3.942050 0.000000 
0.000000 -3.942050 0.000000 
0.000000 -3.942050 0.000000 
-0.000000 -3.942050 0.000000 
-0.000000 -3.942050 0.000000 
-0.000000 -3.942050 0.000000 
-0.000000 -3.942050 0.000000 
-0.000000 -3.942050 0.000000 
-0.000000 -3.942050 0.000000 
-0.000000 -3.942050 0.000000 
0.000000 -3.942050 0.000000 
0.000000 -3.942050 0.000000 
-0.000000 -3.942050 0.000000 
-0.000000 -3.942050 0.000000 
-0.000000 -3.942050 0.000000 
-0.000000 -3.942050 0.000000 
0.000000 -3.942050 0.000000 
0.000000 -3.942050 0.000000 
-0.000000 -3.942050 0.000000 
0.000000 -3.942050 0.000000 
0.000000 -3.942050 0.000000 
-0.000000 -3.942050 0.000000 
-0.000000 -3.942050 0.000000 
-0.000000 -3.942050 0.000000 
0.000000 -3.942050 0.000000 
0.000000 -3.942050 0.000000 
0.000000 -3.942050 0.000000 
TENSORS STRESS float 
0.000000 0.000000 0.000000 
0.000000 0.000000 0.000000 
0.000000 0.000000 0.000000 

-0.000000 0.000000 0.000000 
0.000000 0.000000 0.000000 
0.000000 0.000000 0.000000 

0.000000 0.000000 0.000000 
0.000000 0.000000 0.000000 
0.000000 0.000000 0.000000 

-0.000000 0.000000 0.000000 
0.000000 -0.000000 0.000000 
0.000000 0.000000 0.000000 

0.000000 -0.000000 0.000000 
0.000000 0.000000 0.000000 
0.000000 0.000000 0.000000 

0.000000 0.000000 0.000000 
0.000000 0.000000 0.000000 
0.000000 0.000000 0.000000 

-0.000000 0.000000 0.000000 
0.000000 -0.000000 0.000000 
0.000000 0.000000 0.000000 

-0.000000 -0.000000 0.000000 
0.000000 0.000000 0.000000 
0.000000 0.000000 0.000000 

-0.000000 0.000000 0.000000 
0.000000 -0.000000 0.000000 
0.000000 0.000000 0.000000 

-0.000000 0.000000 0.000000 
0.000000 -0.000000 0.000000 
0.000000 0.000000 0.000000 

0.000000 -0.000000 0.000000 
0.000000 -0.000000 0.000000 
0.000000 0.000000 0.000000 

-0.000000 0.000000 0.000000 
0.000000 -0.000000 0.000000 
0.000000 0.000000 0.000000 

-0.000000 0.000000 0.000000 
0.000000 0.000000 0.000000 
0.000000 0.000000 0.000000 

-0.000000 -0.000000 0.000000 
0.000000 -0.000000 0.000000 
0.000000 0.000000 0.000000 

-0.000000 0.000000 0.000000 
0.000000 -0.000000 0.000000 
0.000000 0.000000 0.000000 

-0.000000 0.000000 0.000000 
0.000000 0.000000 0.000000 
0.000000 0.000000 0.000000 

0.000000 -0.000000 0.000000 
0.000000 0.000000 0.000000 
0.000000 0.000000 0.000000 

0.000000 -0.000000 0.000000 
0.000000 0.000000 0.000000 
0.000000 0.000000 0.000000 

0.000000 -0.000000 0.000000 
0.000000 -0.000000 0.000000 
0.000000 0.000000 0.000000 

-0.000000 0.000000 0.000000 
0.000000 -0.000000 0.000000 
0.000000 0.000000 0.000000 

0.000000 -0.000000 0.000000 
0.000000 0.000000 0.000000 
0.000000 0.000000 0.000000 

0.000000 0.000000 0.000000 
0.000000 0.000000 0.000000 
0.000000 0.000000 0.000000 

0.000000 0.000000 0.000000 
0.000000 -0.000000 0.000000 
0.000000 0.000000 0.000000 

-0.000000 -0.000000 0.000000 
0.000000 -0.000000 0.000000 
0.000000 0.000000 0.000000 

-0.000000 -0.000000 0.000000 
0.000000 0.000000 0.000000 
0.000000 0.000000 0.000000 

0.000000 0.000000 0.000000 
0.000000 0.000000 0.000000 
0.000000 0.000000 0.000000 

0.000000 0.000000 0.000000 
0.000000 0.000000 0.000000 
0.000000 0.000000 0.000000 

0.000000 0.000000 0.000000 
0.000000 0.000000 0.000000 
0.000000 0.000000 0.000000 

-0.000000 0.000000 0.000000 
0.000000 -0.000000 0.000000 
0.000000 0.000000 0.000000 

-0.000000 0.000000 0.000000 
0.000000 -0.000000 0.000000 
0.000000 0.000000 0.000000 

-0.000000 0.000000 0.000000 
0.000000 -0.000000 0.000000 
0.000000 0.000000 0.000000 

-0.000000 -0.000000 0.000000 
0.000000 -0.000000 0.000000 
0.000000 0.000000 0.000000 

-0.000000 -0.000000 0.000000 
0.000000 0.000000 0.000000 
0.000000 0.000000 0.000000 

-0.000000 -0.000000 0.000000 
0.000000 0.000000 0.000000 
0.000000 0.000000 0.000000 

-0.000000 0.000000 0.000000 
0.000000 -0.000000 0.000000 
0.000000 0.000000 0.000000 

0.000000 0.000000 0.000000 
0.000000 0.000000 0.000000 
0.000000 0.000000 0.000000 

0.000000 -0.000000 0.000000 
0.000000 -0.000000 0.000000 
0.000000 0.000000 0.000000 

0.000000 0.000000 0.000000 
0.000000 -0.000000 0.000000 
0.000000 0.000000 0.000000 

0.000000 0.000000 0.000000 
0.000000 0.000000 0.000000 
0.000000 0.000000 0.000000 

-0.000000 -0.000000 0.000000 
0.000000 0.000000 0.000000 
0.000000 0.000000 0.000000 

-0.000000 0.000000 0.000000 
0.000000 0.000000 0.000000 
0.000000 0.000000 0.000000 

-0.000000 0.000000 0.000000 
0.000000 -0.000000 0.000000 
0.000000 0.000000 0.000000 

-0.000000 0.000000 0.000000 
0.000000 0.000000 0.000000 
0.000000 0.000000 0.000000 

-0.000000 -0.000000 0.000000 
0.000000 -0.000000 0.000000 
0.000000 0.000000 0.000000 

-0.000000 0.000000 0.000000 
0.000000 0.000000 0.000000 
0.000000 0.000000 0.000000 

-0.000000 -0.000000 0.000000 
0.000000 -0.000000 0.000000 
0.000000 0.000000 0.000000 

-0.000000 -0.000000 0.000000 
0.000000 -0.000000 0.000000 
0.000000 0.000000 0.000000 

0.000000 -0.000000 0.000000 
0.000000 -0.000000 0.000000 
0.000000 0.000000 0.000000 

-0.000000 -0.000000 0.000000 
0.000000 0.000000 0.000000 
0.000000 0.000000 0.000000 

-0.000000 0.000000 0.000000 
0.000000 0.000000 0.000000 
0.000000 0.000000 0.000000 

0.000000 -0.000000 0.000000 
0.000000 0.000000 0.000000 
0.000000 0.000000 0.000000 

-0.000000 -0.000000 0.000000 
0.000000 -0.000000 0.000000 
0.000000 0.000000 0.000000 

0.000000 -0.000000 0.000000 
0.000000 -0.000000 0.000000 
0.000000 0.000000 0.000000 

0.000000 0.000000 0.000000 
0.000000 -0.000000 0.000000 
0.000000 0.000000 0.000000 

-0.000000 0.000000 0.000000 
0.000000 -0.000000 0.000000 
0.000000 0.000000 0.000000 

-0.000000 0.000000 0.000000 
0.000000 -0.000000 0.000000 
0.000000 0.000000 0.000000 

0.000000 0.000000 0.000000 
0.000000 0.000000 0.000000 
0.000000 0.000000 0.000000 

0.000000 0.000000 0.000000 
0.000000 0.000000 0.000000 
0.000000 0.000000 0.000000 

0.000000 0.000000 0.000000 
0.000000 0.000000 0.000000 
0.000000 0.000000 0.000000 

0.000000 0.000000 0.000000 
0.000000 0.000000 0.000000 
0.000000 0.000000 0.000000 

0.000000 0.000000 0.000000 
0.000000 0.000000 0.000000 
0.000000 0.000000 0.000000 

-0.000000 0.000000 0.000000 
0.000000 0.000000 0.000000 
0.000000 0.000000 0.000000 

-0.000000 -0.000000 0.000000 
0.000000 -0.000000 0.000000 
0.000000 0.000000 0.000000 

-0.000000 -0.000000 0.000000 
0.000000 -0.000000 0.000000 
0.000000 0.000000 0.000000 

0.000000 -0.000000 0.000000 
0.000000 -0.000000 0.000000 
0.000000 0.000000 0.000000 

-0.000000 -0.000000 0.000000 
0.000000 -0.000000 0.000000 
0.000000 0.000000 0.000000 

-0.000000 0.000000 0.000000 
0.000000 0.000000 0.000000 
0.000000 0.000000 0.000000 

0.000000 -0.000000 0.000000 
0.000000 0.000000 0.000000 
0.000000 0.000000 0.000000 

-0.000000 0.000000 0.000000 
0.000000 -0.000000 0.000000 
0.000000 0.000000 0.000000 

0.000000 -0.000000 0.000000 
0.000000 0.000000 0.000000 
0.000000 0.000000 0.000000 

0.000000 -0.000000 0.000000 
0.000000 0.000000 0.000000 
0.000000 0.000000 0.000000 

-0.000000 -0.000000 0.000000 
0.000000 0.000000 0.000000 
0.000000 0.000000 0.000000 

-0.000000 -0.000000 0.000000 
0.000000 0.000000 0.000000 
0.000000 0.000000 0.000000 

-0.000000 -0.000000 0.000000 
0.000000 -0.000000 0.000000 
0.000000 0.000000 0.000000 

-0.000000 -0.000000 0.000000 
0.000000 -0.000000 0.000000 
0.000000 0.000000 0.000000 

-0.000000 -0.000000 0.000000 
0.000000 -0.000000 0.000000 
0.000000 0.000000 0.000000 

-0.000000 -0.000000 0.000000 
0.000000 -0.000000 0.000000 
0.000000 0.000000 0.000000 

0.000000 -0.000000 0.000000 
0.000000 0.000000 0.000000 
0.000000 0.000000 0.000000 

0.000000 -0.000000 0.000000 
0.000000 0.000000 0.000000 
0.000000 0.000000 0.000000 

-0.000000 -0.000000 0.000000 
0.000000 -0.000000 0.000000 
0.000000 0.000000 0.000000 

0.000000 0.000000 0.000000 
0.000000 0.000000 0.000000 
0.000000 0.000000 0.000000 

-0.000000 0.000000 0.000000 
0.000000 -0.000000 0.000000 
0.000000 0.000000 0.000000 

0.000000 0.000000 0.000000 
0.000000 0.000000 0.000000 
0.000000 0.000000 0.000000 

-0.000000 -0.000000 0.000000 
0.000000 -0.000000 0.000000 
0.000000 0.000000 0.000000 

0.000000 0.000000 0.000000 
0.000000 0.000000 0.000000 
0.000000 0.000000 0.000000 

0.000000 -0.000000 0.000000 
0.000000 0.000000 0.000000 
0.000000 0.000000 0.000000 

0.000000 0.000000 0.000000 
0.000000 0.000000 0.000000 
0.000000 0.000000 0.000000 

-0.000000 -0.000000 0.000000 
0.000000 -0.000000 0.000000 
0.000000 0.000000 0.000000 

-0.000000 0.000000 0.000000 
0.000000 -0.000000 0.000000 
0.000000 0.000000 0.000000 

-0.000000 0.000000 0.000000 
0.000000 -0.000000 0.000000 
0.000000 0.000000 0.000000 

0.000000 0.000000 0.000000 
0.000000 0.000000 0.000000 
0.000000 0.000000 0.000000 

-0.000000 0.000000 0.000000 
0.000000 -0.000000 0.000000 
0.000000 0.000000 0.000000 

-0.000000 0.000000 0.000000 
0.000000 0.000000 0.000000 
0.000000 0.000000 0.000000 

0.000000 0.000000 0.000000 
0.000000 0.000000 0.000000 
0.000000 0.000000 0.000000 

0.000000 0.000000 0.000000 
0.000000 0.000000 0.000000 
0.000000 0.000000 0.000000 

0.000000 0.000000 0.000000 
0.000000 0.000000 0.000000 
0.000000 0.000000 0.000000 

-0.000000 0.000000 0.000000 
0.000000 -0.000000 0.000000 
0.000000 0.000000 0.000000 

-0.000000 0.000000 0.000000 
0.000000 0.000000 0.000000 
0.000000 0.000000 0.000000 

-0.000000 -0.000000 0.000000 
0.000000 -0.000000 0.000000 
0.000000 0.000000 0.000000 

-0.000000 0.000000 0.000000 
0.000000 -0.000000 0.000000 
0.000000 0.000000 0.000000 

-0.000000 -0.000000 0.000000 
0.000000 -0.000000 0.000000 
0.000000 0.000000 0.000000 

0.000000 -0.000000 0.000000 
0.000000 0.000000 0.000000 
0.000000 0.000000 0.000000 

-0.000000 -0.000000 0.000000 
0.000000 -0.000000 0.000000 
0.000000 0.000000 0.000000 

0.000000 -0.000000 0.000000 
0.000000 0.000000 0.000000 
0.000000 0.000000 0.000000 

-0.000000 -0.000000 0.000000 
0.000000 -0.000000 0.000000 
0.000000 0.000000 0.000000 

0.000000 -0.000000 0.000000 
0.000000 0.000000 0.000000 
0.000000 0.000000 0.000000 

-0.000000 -0.000000 0.000000 
0.000000 -0.000000 0.000000 
0.000000 0.000000 0.000000 

-0.000000 -0.000000 0.000000 
0.000000 -0.000000 0.000000 
0.000000 0.000000 0.000000 

0.000000 -0.000000 0.000000 
0.000000 0.000000 0.000000 
0.000000 0.000000 0.000000 

0.000000 0.000000 0.000000 
0.000000 -0.000000 0.000000 
0.000000 0.000000 0.000000 

0.000000 0.000000 0.000000 
0.000000 -0.000000 0.000000 
0.000000 0.000000 0.000000 

-0.000000 0.000000 0.000000 
0.000000 0.000000 0.000000 
0.000000 0.000000 0.000000 

-0.000000 0.000000 0.000000 
0.000000 -0.000000 0.000000 
0.000000 0.000000 0.000000 

-0.000000 -0.000000 0.000000 
0.000000 -0.000000 0.000000 
0.000000 0.000000 0.000000 

0.000000 -0.000000 0.000000 
0.000000 0.000000 0.000000 
0.000000 0.000000 0.000000 

0.000000 -0.000000 0.000000 
0.000000 0.000000 0.000000 
0.000000 0.000000 0.000000 

0.000000 0.000000 0.000000 
0.000000 0.000000 0.000000 
0.000000 0.000000 0.000000 

0.000000 0.000000 0.000000 
0.000000 0.000000 0.000000 
0.000000 0.000000 0.000000 

0.000000 0.000000 0.000000 
0.000000 0.000000 0.000000 
0.000000 0.000000 0.000000 

-0.000000 -0.000000 0.000000 
0.000000 -0.000000 0.000000 
0.000000 0.000000 0.000000 

0.000000 0.000000 0.000000 
0.000000 0.000000 0.000000 
0.000000 0.000000 0.000000 

0.000000 0.000000 0.000000 
0.000000 0.000000 0.000000 
0.000000 0.000000 0.000000 

0.000000 -0.000000 0.000000 
0.000000 0.000000 0.000000 
0.000000 0.000000 0.000000 

0.000000 -0.000000 0.000000 
0.000000 0.000000 0.000000 
0.000000 0.000000 0.000000 

-0.000000 0.000000 0.000000 
0.000000 0.000000 0.000000 
0.000000 0.000000 0.000000 

-0.000000 -0.000000 0.000000 
0.000000 -0.000000 0.000000 
0.000000 0.000000 0.000000 

-0.000000 -0.000000 0.000000 
0.000000 -0.000000 0.000000 
0.000000 0.000000 0.000000 

-0.000000 -0.000000 0.000000 
0.000000 0.000000 0.000000 
0.000000 0.000000 0.000000 

0.000000 0.000000 0.000000 
0.000000 0.000000 0.000000 
0.000000 0.000000 0.000000 

-0.000000 0.000000 0.000000 
0.000000 -0.000000 0.000000 
0.000000 0.000000 0.000000 

0.000000 0.000000 0.000000 
0.000000 0.000000 0.000000 
0.000000 0.000000 0.000000 

0.000000 -0.000000 0.000000 
0.000000 0.000000 0.000000 
0.000000 0.000000 0.000000 

0.000000 -0.000000 0.000000 
0.000000 0.000000 0.000000 
0.000000 0.000000 0.000000 

0.000000 0.000000 0.000000 
0.000000 0.000000 0.000000 
0.000000 0.000000 0.000000 

0.000000 -0.000000 0.000000 
0.000000 -0.000000 0.000000 
0.000000 0.000000 0.000000 

0.000000 -0.000000 0.000000 
0.000000 0.000000 0.000000 
0.000000 0.000000 0.000000 

0.000000 -0.000000 0.000000 
0.000000 -0.000000 0.000000 
0.000000 0.000000 0.000000 

0.000000 0.000000 0.000000 
0.000000 0.000000 0.000000 
0.000000 0.000000 0.000000 

-0.000000 -0.000000 0.000000 
0.000000 -0.000000 0.000000 
0.000000 0.000000 0.000000 

0.000000 -0.000000 0.000000 
0.000000 -0.000000 0.000000 
0.000000 0.000000 0.000000 

0.000000 0.000000 0.000000 
0.000000 0.000000 0.000000 
0.000000 0.000000 0.000000 

-0.000000 -0.000000 0.000000 
0.000000 -0.000000 0.000000 
0.000000 0.000000 0.000000 

0.000000 -0.000000 0.000000 
0.000000 0.000000 0.000000 
0.000000 0.000000 0.000000 

-0.000000 -0.000000 0.000000 
0.000000 0.000000 0.000000 
0.000000 0.000000 0.000000 

0.000000 -0.000000 0.000000 
0.000000 0.000000 0.000000 
0.000000 0.000000 0.000000 

-0.000000 0.000000 0.000000 
0.000000 -0.000000 0.000000 
0.000000 0.000000 0.000000 

-0.000000 0.000000 0.000000 
0.000000 -0.000000 0.000000 
0.000000 0.000000 0.000000 

-0.000000 0.000000 0.000000 
0.000000 0.000000 0.000000 
0.000000 0.000000 0.000000 

0.000000 -0.000000 0.000000 
0.000000 0.000000 0.000000 
0.000000 0.000000 0.000000 

-0.000000 -0.000000 0.000000 
0.000000 0.000000 0.000000 
0.000000 0.000000 0.000000 

0.000000 0.000000 0.000000 
0.000000 0.000000 0.000000 
0.000000 0.000000 0.000000 

0.000000 0.000000 0.000000 
0.000000 0.000000 0.000000 
0.000000 0.000000 0.000000 

0.000000 0.000000 0.000000 
0.000000 0.000000 0.000000 
0.000000 0.000000 0.000000 

-0.000000 0.000000 0.000000 
0.000000 -0.000000 0.000000 
0.000000 0.000000 0.000000 

-0.000000 -0.000000 0.000000 
0.000000 0.000000 0.000000 
0.000000 0.000000 0.000000 

-0.000000 0.000000 0.000000 
0.000000 -0.000000 0.000000 
0.000000 0.000000 0.000000 

-0.000000 0.000000 0.000000 
0.000000 -0.000000 0.000000 
0.000000 0.000000 0.000000 

-0.000000 0.000000 0.000000 
0.000000 -0.000000 0.000000 
0.000000 0.000000 0.000000 

-0.000000 0.000000 0.000000 
0.000000 0.000000 0.000000 
0.000000 0.000000 0.000000 

-0.000000 0.000000 0.000000 
0.000000 -0.000000 0.000000 
0.000000 0.000000 0.000000 

-0.000000 0.000000 0.000000 
0.000000 0.000000 0.000000 
0.000000 0.000000 0.000000 

0.000000 -0.000000 0.000000 
0.000000 0.000000 0.000000 
0.000000 0.000000 0.000000 

-0.000000 -0.000000 0.000000 
0.000000 -0.000000 0.000000 
0.000000 0.000000 0.000000 

0.000000 -0.000000 0.000000 
0.000000 -0.000000 0.000000 
0.000000 0.000000 0.000000 

-0.000000 -0.000000 0.000000 
0.000000 -0.000000 0.000000 
0.000000 0.000000 0.000000 

-0.000000 -0.000000 0.000000 
0.000000 -0.000000 0.000000 
0.000000 0.000000 0.000000 

-0.000000 -0.000000 0.000000 
0.000000 0.000000 0.000000 
0.000000 0.000000 0.000000 

-0.000000 -0.000000 0.000000 
0.000000 0.000000 0.000000 
0.000000 0.000000 0.000000 

-0.000000 0.000000 0.000000 
0.000000 -0.000000 0.000000 
0.000000 0.000000 0.000000 

-0.000000 0.000000 0.000000 
0.000000 -0.000000 0.000000 
0.000000 0.000000 0.000000 

-0.000000 -0.000000 0.000000 
0.000000 0.000000 0.000000 
0.000000 0.000000 0.000000 

0.000000 -0.000000 0.000000 
0.000000 0.000000 0.000000 
0.000000 0.000000 0.000000 

-0.000000 0.000000 0.000000 
0.000000 -0.000000 0.000000 
0.000000 0.000000 0.000000 

-0.000000 0.000000 0.000000 
0.000000 -0.000000 0.000000 
0.000000 0.000000 0.000000 

-0.000000 0.000000 0.000000 
0.000000 -0.000000 0.000000 
0.000000 0.000000 0.000000 

TENSORS STRAIN float 
0.000000 0.000000 0.000000 
0.000000 0.000000 0.000000 
0.000000 0.000000 0.000000 

-0.000000 0.000000 0.000000 
0.000000 0.000000 0.000000 
0.000000 0.000000 0.000000 

0.000000 0.000000 0.000000 
0.000000 0.000000 0.000000 
0.000000 0.000000 0.000000 

-0.000000 0.000000 0.000000 
0.000000 -0.000000 0.000000 
0.000000 0.000000 0.000000 

0.000000 -0.000000 0.000000 
0.000000 -0.000000 0.000000 
0.000000 0.000000 0.000000 

0.000000 0.000000 0.000000 
0.000000 0.000000 0.000000 
0.000000 0.000000 0.000000 

0.000000 0.000000 0.000000 
0.000000 -0.000000 0.000000 
0.000000 0.000000 0.000000 

-0.000000 -0.000000 0.000000 
0.000000 0.000000 0.000000 
0.000000 0.000000 0.000000 

-0.000000 0.000000 0.000000 
0.000000 -0.000000 0.000000 
0.000000 0.000000 0.000000 

-0.000000 0.000000 0.000000 
0.000000 0.000000 0.000000 
0.000000 0.000000 0.000000 

0.000000 -0.000000 0.000000 
0.000000 -0.000000 0.000000 
0.000000 0.000000 0.000000 

-0.000000 0.000000 0.000000 
0.000000 -0.000000 0.000000 
0.000000 0.000000 0.000000 

-0.000000 0.000000 0.000000 
0.000000 0.000000 0.000000 
0.000000 0.000000 0.000000 

-0.000000 -0.000000 0.000000 
0.000000 -0.000000 0.000000 
0.000000 0.000000 0.000000 

-0.000000 0.000000 0.000000 
0.000000 -0.000000 0.000000 
0.000000 0.000000 0.000000 

-0.000000 0.000000 0.000000 
0.000000 0.000000 0.000000 
0.000000 0.000000 0.000000 

0.000000 -0.000000 0.000000 
0.000000 0.000000 0.000000 
0.000000 0.000000 0.000000 

0.000000 -0.000000 0.000000 
0.000000 -0.000000 0.000000 
0.000000 0.000000 0.000000 

0.000000 -0.000000 0.000000 
0.000000 -0.000000 0.000000 
0.000000 0.000000 0.000000 

-0.000000 0.000000 0.000000 
0.000000 -0.000000 0.000000 
0.000000 0.000000 0.000000 

0.000000 -0.000000 0.000000 
0.000000 0.000000 0.000000 
0.000000 0.000000 0.000000 

0.000000 0.000000 0.000000 
0.000000 0.000000 0.000000 
0.000000 0.000000 0.000000 

0.000000 0.000000 0.000000 
0.000000 -0.000000 0.000000 
0.000000 0.000000 0.000000 

-0.000000 -0.000000 0.000000 
0.000000 -0.000000 0.000000 
0.000000 0.000000 0.000000 

-0.000000 -0.000000 0.000000 
0.000000 0.000000 0.000000 
0.000000 0.000000 0.000000 

0.000000 0.000000 0.000000 
0.000000 0.000000 0.000000 
0.000000 0.000000 0.000000 

-0.000000 0.000000 0.000000 
0.000000 0.000000 0.000000 
0.000000 0.000000 0.000000 

-0.000000 0.000000 0.000000 
0.000000 0.000000 0.000000 
0.000000 0.000000 0.000000 

-0.000000 0.000000 0.000000 
0.000000 -0.000000 0.000000 
0.000000 0.000000 0.000000 

0.000000 0.000000 0.000000 
0.000000 -0.000000 0.000000 
0.000000 0.000000 0.000000 

-0.000000 0.000000 0.000000 
0.000000 -0.000000 0.000000 
0.000000 0.000000 0.000000 

0.000000 -0.000000 0.000000 
0.000000 -0.000000 0.000000 
0.000000 0.000000 0.000000 

-0.000000 -0.000000 0.000000 
0.000000 0.000000 0.000000 
0.000000 0.000000 0.000000 

-0.000000 -0.000000 0.000000 
0.000000 0.000000 0.000000 
0.000000 0.000000 0.000000 

-0.000000 0.000000 0.000000 
0.000000 -0.000000 0.000000 
0.000000 0.000000 0.000000 

0.000000 0.000000 0.000000 
0.000000 0.000000 0.000000 
0.000000 0.000000 0.000000 

0.000000 -0.000000 0.000000 
0.000000 -0.000000 0.000000 
0.000000 0.000000 0.000000 

0.000000 0.000000 0.000000 
0.000000 -0.000000 0.000000 
0.000000 0.000000 0.000000 

0.000000 0.000000 0.000000 
0.000000 -0.000000 0.000000 
0.000000 0.000000 0.000000 

-0.000000 -0.000000 0.000000 
0.000000 0.000000 0.000000 
0.000000 0.000000 0.000000 

-0.000000 0.000000 0.000000 
0.000000 0.000000 0.000000 
0.000000 0.000000 0.000000 

-0.000000 0.000000 0.000000 
0.000000 -0.000000 0.000000 
0.000000 0.000000 0.000000 

-0.000000 0.000000 0.000000 
0.000000 0.000000 0.000000 
0.000000 0.000000 0.000000 

-0.000000 -0.000000 0.000000 
0.000000 -0.000000 0.000000 
0.000000 0.000000 0.000000 

-0.000000 0.000000 0.000000 
0.000000 0.000000 0.000000 
0.000000 0.000000 0.000000 

-0.000000 -0.000000 0.000000 
0.000000 -0.000000 0.000000 
0.000000 0.000000 0.000000 

-0.000000 -0.000000 0.000000 
0.000000 -0.000000 0.000000 
0.000000 0.000000 0.000000 

0.000000 -0.000000 0.000000 
0.000000 -0.000000 0.000000 
0.000000 0.000000 0.000000 

-0.000000 -0.000000 0.000000 
0.000000 0.000000 0.000000 
0.000000 0.000000 0.000000 

-0.000000 0.000000 0.000000 
0.000000 0.000000 0.000000 
0.000000 0.000000 0.000000 

-0.000000 -0.000000 0.000000 
0.000000 0.000000 0.000000 
0.000000 0.000000 0.000000 

0.000000 -0.000000 0.000000 
0.000000 -0.000000 0.000000 
0.000000 0.000000 0.000000 

0.000000 -0.000000 0.000000 
0.000000 -0.000000 0.000000 
0.000000 0.000000 0.000000 

0.000000 0.000000 0.000000 
0.000000 -0.000000 0.000000 
0.000000 0.000000 0.000000 

0.000000 0.000000 0.000000 
0.000000 -0.000000 0.000000 
0.000000 0.000000 0.000000 

0.000000 0.000000 0.000000 
0.000000 -0.000000 0.000000 
0.000000 0.000000 0.000000 

0.000000 0.000000 0.000000 
0.000000 0.000000 0.000000 
0.000000 0.000000 0.000000 

0.000000 0.000000 0.000000 
0.000000 0.000000 0.000000 
0.000000 0.000000 0.000000 

0.000000 0.000000 0.000000 
0.000000 0.000000 0.000000 
0.000000 0.000000 0.000000 

-0.000000 0.000000 0.000000 
0.000000 0.000000 0.000000 
0.000000 0.000000 0.000000 

-0.000000 0.000000 0.000000 
0.000000 0.000000 0.000000 
0.000000 0.000000 0.000000 

-0.000000 0.000000 0.000000 
0.000000 0.000000 0.000000 
0.000000 0.000000 0.000000 

-0.000000 -0.000000 0.000000 
0.000000 -0.000000 0.000000 
0.000000 0.000000 0.000000 

-0.000000 -0.000000 0.000000 
0.000000 -0.000000 0.000000 
0.000000 0.000000 0.000000 

0.000000 -0.000000 0.000000 
0.000000 -0.000000 0.000000 
0.000000 0.000000 0.000000 

0.000000 -0.000000 0.000000 
0.000000 -0.000000 0.000000 
0.000000 0.000000 0.000000 

-0.000000 0.000000 0.000000 
0.000000 0.000000 0.000000 
0.000000 0.000000 0.000000 

-0.000000 -0.000000 0.000000 
0.000000 0.000000 0.000000 
0.000000 0.000000 0.000000 

-0.000000 0.000000 0.000000 
0.000000 -0.000000 0.000000 
0.000000 0.000000 0.000000 

-0.000000 -0.000000 0.000000 
0.000000 0.000000 0.000000 
0.000000 0.000000 0.000000 

-0.000000 -0.000000 0.000000 
0.000000 0.000000 0.000000 
0.000000 0.000000 0.000000 

-0.000000 -0.000000 0.000000 
0.000000 0.000000 0.000000 
0.000000 0.000000 0.000000 

-0.000000 -0.000000 0.000000 
0.000000 0.000000 0.000000 
0.000000 0.000000 0.000000 

-0.000000 -0.000000 0.000000 
0.000000 -0.000000 0.000000 
0.000000 0.000000 0.000000 

-0.000000 -0.000000 0.000000 
0.000000 0.000000 0.000000 
0.000000 0.000000 0.000000 

0.000000 -0.000000 0.000000 
0.000000 -0.000000 0.000000 
0.000000 0.000000 0.000000 

0.000000 -0.000000 0.000000 
0.000000 -0.000000 0.000000 
0.000000 0.000000 0.000000 

0.000000 -0.000000 0.000000 
0.000000 -0.000000 0.000000 
0.000000 0.000000 0.000000 

0.000000 -0.000000 0.000000 
0.000000 0.000000 0.000000 
0.000000 0.000000 0.000000 

0.000000 -0.000000 0.000000 
0.000000 -0.000000 0.000000 
0.000000 0.000000 0.000000 

0.000000 0.000000 0.000000 
0.000000 0.000000 0.000000 
0.000000 0.000000 0.000000 

0.000000 0.000000 0.000000 
0.000000 -0.000000 0.000000 
0.000000 0.000000 0.000000 

0.000000 0.000000 0.000000 
0.000000 0.000000 0.000000 
0.000000 0.000000 0.000000 

-0.000000 -0.000000 0.000000 
0.000000 -0.000000 0.000000 
0.000000 0.000000 0.000000 

-0.000000 0.000000 0.000000 
0.000000 0.000000 0.000000 
0.000000 0.000000 0.000000 

0.000000 -0.000000 0.000000 
0.000000 0.000000 0.000000 
0.000000 0.000000 0.000000 

-0.000000 0.000000 0.000000 
0.000000 0.000000 0.000000 
0.000000 0.000000 0.000000 

-0.000000 -0.000000 0.000000 
0.000000 -0.000000 0.000000 
0.000000 0.000000 0.000000 

-0.000000 0.000000 0.000000 
0.000000 -0.000000 0.000000 
0.000000 0.000000 0.000000 

-0.000000 0.000000 0.000000 
0.000000 -0.000000 0.000000 
0.000000 0.000000 0.000000 

0.000000 0.000000 0.000000 
0.000000 0.000000 0.000000 
0.000000 0.000000 0.000000 

-0.000000 0.000000 0.000000 
0.000000 -0.000000 0.000000 
0.000000 0.000000 0.000000 

-0.000000 0.000000 0.000000 
0.000000 0.000000 0.000000 
0.000000 0.000000 0.000000 

-0.000000 0.000000 0.000000 
0.000000 0.000000 0.000000 
0.000000 0.000000 0.000000 

-0.000000 0.000000 0.000000 
0.000000 0.000000 0.000000 
0.000000 0.000000 0.000000 

-0.000000 0.000000 0.000000 
0.000000 0.000000 0.000000 
0.000000 0.000000 0.000000 

-0.000000 0.000000 0.000000 
0.000000 -0.000000 0.000000 
0.000000 0.000000 0.000000 

-0.000000 0.000000 0.000000 
0.000000 0.000000 0.000000 
0.000000 0.000000 0.000000 

-0.000000 -0.000000 0.000000 
0.000000 -0.000000 0.000000 
0.000000 0.000000 0.000000 

-0.000000 0.000000 0.000000 
0.000000 -0.000000 0.000000 
0.000000 0.000000 0.000000 

-0.000000 -0.000000 0.000000 
0.000000 -0.000000 0.000000 
0.000000 0.000000 0.000000 

0.000000 -0.000000 0.000000 
0.000000 0.000000 0.000000 
0.000000 0.000000 0.000000 

0.000000 -0.000000 0.000000 
0.000000 -0.000000 0.000000 
0.000000 0.000000 0.000000 

-0.000000 -0.000000 0.000000 
0.000000 0.000000 0.000000 
0.000000 0.000000 0.000000 

0.000000 -0.000000 0.000000 
0.000000 -0.000000 0.000000 
0.000000 0.000000 0.000000 

-0.000000 -0.000000 0.000000 
0.000000 0.000000 0.000000 
0.000000 0.000000 0.000000 

-0.000000 -0.000000 0.000000 
0.000000 -0.000000 0.000000 
0.000000 0.000000 0.000000 

-0.000000 -0.000000 0.000000 
0.000000 -0.000000 0.000000 
0.000000 0.000000 0.000000 

0.000000 -0.000000 0.000000 
0.000000 0.000000 0.000000 
0.000000 0.000000 0.000000 

0.000000 0.000000 0.000000 
0.000000 -0.000000 0.000000 
0.000000 0.000000 0.000000 

0.000000 0.000000 0.000000 
0.000000 -0.000000 0.000000 
0.000000 0.000000 0.000000 

-0.000000 0.000000 0.000000 
0.000000 0.000000 0.000000 
0.000000 0.000000 0.000000 

-0.000000 0.000000 0.000000 
0.000000 -0.000000 0.000000 
0.000000 0.000000 0.000000 

-0.000000 -0.000000 0.000000 
0.000000 -0.000000 0.000000 
0.000000 0.000000 0.000000 

0.000000 -0.000000 0.000000 
0.000000 0.000000 0.000000 
0.000000 0.000000 0.000000 

0.000000 -0.000000 0.000000 
0.000000 0.000000 0.000000 
0.000000 0.000000 0.000000 

0.000000 0.000000 0.000000 
0.000000 0.000000 0.000000 
0.000000 0.000000 0.000000 

0.000000 0.000000 0.000000 
0.000000 0.000000 0.000000 
0.000000 0.000000 0.000000 

0.000000 0.000000 0.000000 
0.000000 0.000000 0.000000 
0.000000 0.000000 0.000000 

-0.000000 -0.000000 0.000000 
0.000000 -0.000000 0.000000 
0.000000 0.000000 0.000000 

-0.000000 0.000000 0.000000 
0.000000 0.000000 0.000000 
0.000000 0.000000 0.000000 

-0.000000 0.000000 0.000000 
0.000000 0.000000 0.000000 
0.000000 0.000000 0.000000 

0.000000 -0.000000 0.000000 
0.000000 0.000000 0.000000 
0.000000 0.000000 0.000000 

-0.000000 -0.000000 0.000000 
0.000000 0.000000 0.000000 
0.000000 0.000000 0.000000 

-0.000000 0.000000 0.000000 
0.000000 0.000000 0.000000 
0.000000 0.000000 0.000000 

0.000000 -0.000000 0.000000 
0.000000 -0.000000 0.000000 
0.000000 0.000000 0.000000 

-0.000000 -0.000000 0.000000 
0.000000 0.000000 0.000000 
0.000000 0.000000 0.000000 

-0.000000 -0.000000 0.000000 
0.000000 0.000000 0.000000 
0.000000 0.000000 0.000000 

-0.000000 0.000000 0.000000 
0.000000 0.000000 0.000000 
0.000000 0.000000 0.000000 

-0.000000 0.000000 0.000000 
0.000000 0.000000 0.000000 
0.000000 0.000000 0.000000 

-0.000000 0.000000 0.000000 
0.000000 0.000000 0.000000 
0.000000 0.000000 0.000000 

0.000000 -0.000000 0.000000 
0.000000 0.000000 0.000000 
0.000000 0.000000 0.000000 

-0.000000 -0.000000 0.000000 
0.000000 0.000000 0.000000 
0.000000 0.000000 0.000000 

0.000000 0.000000 0.000000 
0.000000 0.000000 0.000000 
0.000000 0.000000 0.000000 

0.000000 -0.000000 0.000000 
0.000000 -0.000000 0.000000 
0.000000 0.000000 0.000000 

0.000000 -0.000000 0.000000 
0.000000 0.000000 0.000000 
0.000000 0.000000 0.000000 

0.000000 -0.000000 0.000000 
0.000000 -0.000000 0.000000 
0.000000 0.000000 0.000000 

0.000000 0.000000 0.000000 
0.000000 0.000000 0.000000 
0.000000 0.000000 0.000000 

0.000000 -0.000000 0.000000 
0.000000 -0.000000 0.000000 
0.000000 0.000000 0.000000 

0.000000 -0.000000 0.000000 
0.000000 -0.000000 0.000000 
0.000000 0.000000 0.000000 

0.000000 0.000000 0.000000 
0.000000 0.000000 0.000000 
0.000000 0.000000 0.000000 

-0.000000 -0.000000 0.000000 
0.000000 -0.000000 0.000000 
0.000000 0.000000 0.000000 

0.000000 -0.000000 0.000000 
0.000000 0.000000 0.000000 
0.000000 0.000000 0.000000 

-0.000000 -0.000000 0.000000 
0.000000 0.000000 0.000000 
0.000000 0.000000 0.000000 

-0.000000 -0.000000 0.000000 
0.000000 0.000000 0.000000 
0.000000 0.000000 0.000000 

-0.000000 0.000000 0.000000 
0.000000 -0.000000 0.000000 
0.000000 0.000000 0.000000 

-0.000000 0.000000 0.000000 
0.000000 -0.000000 0.000000 
0.000000 0.000000 0.000000 

-0.000000 0.000000 0.000000 
0.000000 0.000000 0.000000 
0.000000 0.000000 0.000000 

-0.000000 -0.000000 0.000000 
0.000000 0.000000 0.000000 
0.000000 0.000000 0.000000 

-0.000000 -0.000000 0.000000 
0.000000 0.000000 0.000000 
0.000000 0.000000 0.000000 

0.000000 0.000000 0.000000 
0.000000 0.000000 0.000000 
0.000000 0.000000 0.000000 

-0.000000 0.000000 0.000000 
0.000000 0.000000 0.000000 
0.000000 0.000000 0.000000 

0.000000 0.000000 0.000000 
0.000000 0.000000 0.000000 
0.000000 0.000000 0.000000 

-0.000000 0.000000 0.000000 
0.000000 -0.000000 0.000000 
0.000000 0.000000 0.000000 

-0.000000 -0.000000 0.000000 
0.000000 0.000000 0.000000 
0.000000 0.000000 0.000000 

-0.000000 0.000000 0.000000 
0.000000 0.000000 0.000000 
0.000000 0.000000 0.000000 

-0.000000 0.000000 0.000000 
0.000000 -0.000000 0.000000 
0.000000 0.000000 0.000000 

-0.000000 0.000000 0.000000 
0.000000 -0.000000 0.000000 
0.000000 0.000000 0.000000 

-0.000000 0.000000 0.000000 
0.000000 0.000000 0.000000 
0.000000 0.000000 0.000000 

-0.000000 0.000000 0.000000 
0.000000 -0.000000 0.000000 
0.000000 0.000000 0.000000 

-0.000000 0.000000 0.000000 
0.000000 0.000000 0.000000 
0.000000 0.000000 0.000000 

-0.000000 -0.000000 0.000000 
0.000000 0.000000 0.000000 
0.000000 0.000000 0.000000 

0.000000 -0.000000 0.000000 
0.000000 -0.000000 0.000000 
0.000000 0.000000 0.000000 

0.000000 -0.000000 0.000000 
0.000000 -0.000000 0.000000 
0.000000 0.000000 0.000000 

-0.000000 -0.000000 0.000000 
0.000000 0.000000 0.000000 
0.000000 0.000000 0.000000 

-0.000000 -0.000000 0.000000 
0.000000 -0.000000 0.000000 
0.000000 0.000000 0.000000 

-0.000000 -0.000000 0.000000 
0.000000 0.000000 0.000000 
0.000000 0.000000 0.000000 

-0.000000 -0.000000 0.000000 
0.000000 0.000000 0.000000 
0.000000 0.000000 0.000000 

-0.000000 0.000000 0.000000 
0.000000 -0.000000 0.000000 
0.000000 0.000000 0.000000 

-0.000000 0.000000 0.000000 
0.000000 -0.000000 0.000000 
0.000000 0.000000 0.000000 

-0.000000 -0.000000 0.000000 
0.000000 0.000000 0.000000 
0.000000 0.000000 0.000000 

-0.000000 -0.000000 0.000000 
0.000000 0.000000 0.000000 
0.000000 0.000000 0.000000 

-0.000000 0.000000 0.000000 
0.000000 -0.000000 0.000000 
0.000000 0.000000 0.000000 

-0.000000 0.000000 0.000000 
0.000000 -0.000000 0.000000 
0.000000 0.000000 0.000000 

-0.000000 0.000000 0.000000 
0.000000 -0.000000 0.000000 
0.000000 0.000000 0.000000 

