# vtk DataFile Version 3.0 
vtk output 
ASCII 
DATASET UNSTRUCTURED_GRID 
POINTS 175 float 
-0.026061 -0.878133 0.000000 
-0.106992 -0.810078 0.000000 
-0.054870 -0.818311 0.000000 
-0.028809 -0.772427 0.000000 
-0.186430 -0.746003 0.000000 
-0.137056 -0.748529 0.000000 
-0.114311 -0.694881 0.000000 
-0.058186 -0.710547 0.000000 
-0.029377 -0.670370 0.000000 
-0.265318 -0.682847 0.000000 
-0.217198 -0.683646 0.000000 
-0.196633 -0.626350 0.000000 
-0.143120 -0.635059 0.000000 
-0.116563 -0.587790 0.000000 
-0.058945 -0.607436 0.000000 
-0.029568 -0.569316 0.000000 
-0.344206 -0.619691 0.000000 
-0.296791 -0.619684 0.000000 
-0.278030 -0.559741 0.000000 
-0.225992 -0.565607 0.000000 
-0.201664 -0.513490 0.000000 
-0.145749 -0.526964 0.000000 
-0.117890 -0.482622 0.000000 
-0.059328 -0.505327 0.000000 
-0.029759 -0.468262 0.000000 
-0.058559 -0.918884 0.000000 
-0.162226 -0.939727 0.000000 
-0.123292 -0.904109 0.000000 
-0.142917 -0.855126 0.000000 
-0.261851 -0.961883 0.000000 
-0.229092 -0.924856 0.000000 
-0.256854 -0.873625 0.000000 
-0.209613 -0.839512 0.000000 
-0.223062 -0.791938 0.000000 
-0.360414 -0.984183 0.000000 
-0.329787 -0.947061 0.000000 
-0.361761 -0.895258 0.000000 
-0.321587 -0.858850 0.000000 
-0.341985 -0.808616 0.000000 
-0.290702 -0.775817 0.000000 
-0.302189 -0.729081 0.000000 
-0.458977 -1.006484 0.000000 
-0.429420 -0.969409 0.000000 
-0.464588 -0.917367 0.000000 
-0.427556 -0.880340 0.000000 
-0.453135 -0.828825 0.000000 
-0.407738 -0.793510 0.000000 
-0.425037 -0.744081 0.000000 
-0.370772 -0.712452 0.000000 
-0.381315 -0.666225 0.000000 
-0.046960 -0.969699 0.000000 
-0.095301 -1.063745 0.000000 
-0.098873 -1.011098 0.000000 
-0.149405 -0.995901 0.000000 
-0.140093 -1.155449 0.000000 
-0.148617 -1.106751 0.000000 
-0.205981 -1.096514 0.000000 
-0.203197 -1.038310 0.000000 
-0.248777 -1.019164 0.000000 
-0.184111 -1.246413 0.000000 
-0.194039 -1.199322 0.000000 
-0.254475 -1.192022 0.000000 
-0.257893 -1.137912 0.000000 
-0.309886 -1.122540 0.000000 
-0.303554 -1.061995 0.000000 
-0.347255 -1.041837 0.000000 
-0.228129 -1.337377 0.000000 
-0.238687 -1.291152 0.000000 
-0.301302 -1.286200 0.000000 
-0.307162 -1.234161 0.000000 
-0.363386 -1.222040 0.000000 
-0.362692 -1.164529 0.000000 
-0.412122 -1.147236 0.000000 
-0.403017 -1.085089 0.000000 
-0.445733 -1.064510 0.000000 
-0.000000 -0.992314 0.000000 
0.043388 -1.088745 0.000000 
-0.000000 -1.058713 0.000000 
-0.043388 -1.088745 0.000000 
0.087158 -1.180942 0.000000 
0.043769 -1.157243 0.000000 
-0.000000 -1.195709 0.000000 
-0.043769 -1.157243 0.000000 
-0.087158 -1.180942 0.000000 
0.130831 -1.272071 0.000000 
0.087824 -1.250472 0.000000 
0.044436 -1.293172 0.000000 
-0.000000 -1.262107 0.000000 
-0.044436 -1.293172 0.000000 
-0.087824 -1.250472 0.000000 
-0.130831 -1.272071 0.000000 
0.174505 -1.363201 0.000000 
0.131782 -1.342635 0.000000 
0.088871 -1.388501 0.000000 
0.044532 -1.360638 0.000000 
-0.000000 -1.397038 0.000000 
-0.044532 -1.360638 0.000000 
-0.088871 -1.388501 0.000000 
-0.131782 -1.342635 0.000000 
-0.174505 -1.363201 0.000000 
0.046960 -0.969699 0.000000 
0.149405 -0.995901 0.000000 
0.098873 -1.011098 0.000000 
0.095301 -1.063745 0.000000 
0.248777 -1.019164 0.000000 
0.203197 -1.038310 0.000000 
0.205981 -1.096514 0.000000 
0.148617 -1.106751 0.000000 
0.140093 -1.155449 0.000000 
0.347255 -1.041837 0.000000 
0.303554 -1.061995 0.000000 
0.309886 -1.122540 0.000000 
0.257893 -1.137912 0.000000 
0.254475 -1.192022 0.000000 
0.194039 -1.199322 0.000000 
0.184111 -1.246413 0.000000 
0.445733 -1.064510 0.000000 
0.403017 -1.085089 0.000000 
0.412122 -1.147236 0.000000 
0.362692 -1.164529 0.000000 
0.363386 -1.222040 0.000000 
0.307162 -1.234161 0.000000 
0.301302 -1.286200 0.000000 
0.238687 -1.291152 0.000000 
0.228129 -1.337377 0.000000 
0.058559 -0.918884 0.000000 
0.142917 -0.855126 0.000000 
0.123292 -0.904109 0.000000 
0.162226 -0.939727 0.000000 
0.223062 -0.791938 0.000000 
0.209613 -0.839512 0.000000 
0.256854 -0.873625 0.000000 
0.229092 -0.924856 0.000000 
0.261851 -0.961883 0.000000 
0.302189 -0.729081 0.000000 
0.290702 -0.775817 0.000000 
0.341985 -0.808616 0.000000 
0.321587 -0.858850 0.000000 
0.361761 -0.895258 0.000000 
0.329787 -0.947061 0.000000 
0.360414 -0.984183 0.000000 
0.381315 -0.666225 0.000000 
0.370772 -0.712452 0.000000 
0.425037 -0.744081 0.000000 
0.407738 -0.793510 0.000000 
0.453135 -0.828825 0.000000 
0.427556 -0.880340 0.000000 
0.464588 -0.917367 0.000000 
0.429420 -0.969409 0.000000 
0.458977 -1.006484 0.000000 
0.026061 -0.878133 0.000000 
0.028809 -0.772427 0.000000 
0.054870 -0.818311 0.000000 
0.106992 -0.810078 0.000000 
0.029377 -0.670370 0.000000 
0.058186 -0.710547 0.000000 
0.114311 -0.694881 0.000000 
0.137056 -0.748529 0.000000 
0.186430 -0.746003 0.000000 
0.029568 -0.569316 0.000000 
0.058945 -0.607436 0.000000 
0.116563 -0.587790 0.000000 
0.143120 -0.635059 0.000000 
0.196633 -0.626350 0.000000 
0.217198 -0.683646 0.000000 
0.265318 -0.682847 0.000000 
0.029759 -0.468262 0.000000 
0.059328 -0.505327 0.000000 
0.117890 -0.482622 0.000000 
0.145749 -0.526964 0.000000 
0.201664 -0.513490 0.000000 
0.225992 -0.565607 0.000000 
0.278030 -0.559741 0.000000 
0.296791 -0.619684 0.000000 
0.344206 -0.619691 0.000000 
CELLS 175 350 
1 0 
1 1 
1 2 
1 3 
1 4 
1 5 
1 6 
1 7 
1 8 
1 9 
1 10 
1 11 
1 12 
1 13 
1 14 
1 15 
1 16 
1 17 
1 18 
1 19 
1 20 
1 21 
1 22 
1 23 
1 24 
1 25 
1 26 
1 27 
1 28 
1 29 
1 30 
1 31 
1 32 
1 33 
1 34 
1 35 
1 36 
1 37 
1 38 
1 39 
1 40 
1 41 
1 42 
1 43 
1 44 
1 45 
1 46 
1 47 
1 48 
1 49 
1 50 
1 51 
1 52 
1 53 
1 54 
1 55 
1 56 
1 57 
1 58 
1 59 
1 60 
1 61 
1 62 
1 63 
1 64 
1 65 
1 66 
1 67 
1 68 
1 69 
1 70 
1 71 
1 72 
1 73 
1 74 
1 75 
1 76 
1 77 
1 78 
1 79 
1 80 
1 81 
1 82 
1 83 
1 84 
1 85 
1 86 
1 87 
1 88 
1 89 
1 90 
1 91 
1 92 
1 93 
1 94 
1 95 
1 96 
1 97 
1 98 
1 99 
1 100 
1 101 
1 102 
1 103 
1 104 
1 105 
1 106 
1 107 
1 108 
1 109 
1 110 
1 111 
1 112 
1 113 
1 114 
1 115 
1 116 
1 117 
1 118 
1 119 
1 120 
1 121 
1 122 
1 123 
1 124 
1 125 
1 126 
1 127 
1 128 
1 129 
1 130 
1 131 
1 132 
1 133 
1 134 
1 135 
1 136 
1 137 
1 138 
1 139 
1 140 
1 141 
1 142 
1 143 
1 144 
1 145 
1 146 
1 147 
1 148 
1 149 
1 150 
1 151 
1 152 
1 153 
1 154 
1 155 
1 156 
1 157 
1 158 
1 159 
1 160 
1 161 
1 162 
1 163 
1 164 
1 165 
1 166 
1 167 
1 168 
1 169 
1 170 
1 171 
1 172 
1 173 
1 174 
CELL_TYPES 175 
1 
1 
1 
1 
1 
1 
1 
1 
1 
1 
1 
1 
1 
1 
1 
1 
1 
1 
1 
1 
1 
1 
1 
1 
1 
1 
1 
1 
1 
1 
1 
1 
1 
1 
1 
1 
1 
1 
1 
1 
1 
1 
1 
1 
1 
1 
1 
1 
1 
1 
1 
1 
1 
1 
1 
1 
1 
1 
1 
1 
1 
1 
1 
1 
1 
1 
1 
1 
1 
1 
1 
1 
1 
1 
1 
1 
1 
1 
1 
1 
1 
1 
1 
1 
1 
1 
1 
1 
1 
1 
1 
1 
1 
1 
1 
1 
1 
1 
1 
1 
1 
1 
1 
1 
1 
1 
1 
1 
1 
1 
1 
1 
1 
1 
1 
1 
1 
1 
1 
1 
1 
1 
1 
1 
1 
1 
1 
1 
1 
1 
1 
1 
1 
1 
1 
1 
1 
1 
1 
1 
1 
1 
1 
1 
1 
1 
1 
1 
1 
1 
1 
1 
1 
1 
1 
1 
1 
1 
1 
1 
1 
1 
1 
1 
1 
1 
1 
1 
1 
1 
1 
1 
1 
1 
1 
POINT_DATA 175 
VECTORS X_GC float 
-0.026061 -0.878133 0.000000 
-0.106992 -0.810078 0.000000 
-0.054870 -0.818311 0.000000 
-0.028809 -0.772427 0.000000 
-0.186430 -0.746003 0.000000 
-0.137056 -0.748529 0.000000 
-0.114311 -0.694881 0.000000 
-0.058186 -0.710547 0.000000 
-0.029377 -0.670370 0.000000 
-0.265318 -0.682847 0.000000 
-0.217198 -0.683646 0.000000 
-0.196633 -0.626350 0.000000 
-0.143120 -0.635059 0.000000 
-0.116563 -0.587790 0.000000 
-0.058945 -0.607436 0.000000 
-0.029568 -0.569316 0.000000 
-0.344206 -0.619691 0.000000 
-0.296791 -0.619684 0.000000 
-0.278030 -0.559741 0.000000 
-0.225992 -0.565607 0.000000 
-0.201664 -0.513490 0.000000 
-0.145749 -0.526964 0.000000 
-0.117890 -0.482622 0.000000 
-0.059328 -0.505327 0.000000 
-0.029759 -0.468262 0.000000 
-0.058559 -0.918884 0.000000 
-0.162226 -0.939727 0.000000 
-0.123292 -0.904109 0.000000 
-0.142917 -0.855126 0.000000 
-0.261851 -0.961883 0.000000 
-0.229092 -0.924856 0.000000 
-0.256854 -0.873625 0.000000 
-0.209613 -0.839512 0.000000 
-0.223062 -0.791938 0.000000 
-0.360414 -0.984183 0.000000 
-0.329787 -0.947061 0.000000 
-0.361761 -0.895258 0.000000 
-0.321587 -0.858850 0.000000 
-0.341985 -0.808616 0.000000 
-0.290702 -0.775817 0.000000 
-0.302189 -0.729081 0.000000 
-0.458977 -1.006484 0.000000 
-0.429420 -0.969409 0.000000 
-0.464588 -0.917367 0.000000 
-0.427556 -0.880340 0.000000 
-0.453135 -0.828825 0.000000 
-0.407738 -0.793510 0.000000 
-0.425037 -0.744081 0.000000 
-0.370772 -0.712452 0.000000 
-0.381315 -0.666225 0.000000 
-0.046960 -0.969699 0.000000 
-0.095301 -1.063745 0.000000 
-0.098873 -1.011098 0.000000 
-0.149405 -0.995901 0.000000 
-0.140093 -1.155449 0.000000 
-0.148617 -1.106751 0.000000 
-0.205981 -1.096514 0.000000 
-0.203197 -1.038310 0.000000 
-0.248777 -1.019164 0.000000 
-0.184111 -1.246413 0.000000 
-0.194039 -1.199322 0.000000 
-0.254475 -1.192022 0.000000 
-0.257893 -1.137912 0.000000 
-0.309886 -1.122540 0.000000 
-0.303554 -1.061995 0.000000 
-0.347255 -1.041837 0.000000 
-0.228129 -1.337377 0.000000 
-0.238687 -1.291152 0.000000 
-0.301302 -1.286200 0.000000 
-0.307162 -1.234161 0.000000 
-0.363386 -1.222040 0.000000 
-0.362692 -1.164529 0.000000 
-0.412122 -1.147236 0.000000 
-0.403017 -1.085089 0.000000 
-0.445733 -1.064510 0.000000 
-0.000000 -0.992314 0.000000 
0.043388 -1.088745 0.000000 
-0.000000 -1.058713 0.000000 
-0.043388 -1.088745 0.000000 
0.087158 -1.180942 0.000000 
0.043769 -1.157243 0.000000 
-0.000000 -1.195709 0.000000 
-0.043769 -1.157243 0.000000 
-0.087158 -1.180942 0.000000 
0.130831 -1.272071 0.000000 
0.087824 -1.250472 0.000000 
0.044436 -1.293172 0.000000 
-0.000000 -1.262107 0.000000 
-0.044436 -1.293172 0.000000 
-0.087824 -1.250472 0.000000 
-0.130831 -1.272071 0.000000 
0.174505 -1.363201 0.000000 
0.131782 -1.342635 0.000000 
0.088871 -1.388501 0.000000 
0.044532 -1.360638 0.000000 
-0.000000 -1.397038 0.000000 
-0.044532 -1.360638 0.000000 
-0.088871 -1.388501 0.000000 
-0.131782 -1.342635 0.000000 
-0.174505 -1.363201 0.000000 
0.046960 -0.969699 0.000000 
0.149405 -0.995901 0.000000 
0.098873 -1.011098 0.000000 
0.095301 -1.063745 0.000000 
0.248777 -1.019164 0.000000 
0.203197 -1.038310 0.000000 
0.205981 -1.096514 0.000000 
0.148617 -1.106751 0.000000 
0.140093 -1.155449 0.000000 
0.347255 -1.041837 0.000000 
0.303554 -1.061995 0.000000 
0.309886 -1.122540 0.000000 
0.257893 -1.137912 0.000000 
0.254475 -1.192022 0.000000 
0.194039 -1.199322 0.000000 
0.184111 -1.246413 0.000000 
0.445733 -1.064510 0.000000 
0.403017 -1.085089 0.000000 
0.412122 -1.147236 0.000000 
0.362692 -1.164529 0.000000 
0.363386 -1.222040 0.000000 
0.307162 -1.234161 0.000000 
0.301302 -1.286200 0.000000 
0.238687 -1.291152 0.000000 
0.228129 -1.337377 0.000000 
0.058559 -0.918884 0.000000 
0.142917 -0.855126 0.000000 
0.123292 -0.904109 0.000000 
0.162226 -0.939727 0.000000 
0.223062 -0.791938 0.000000 
0.209613 -0.839512 0.000000 
0.256854 -0.873625 0.000000 
0.229092 -0.924856 0.000000 
0.261851 -0.961883 0.000000 
0.302189 -0.729081 0.000000 
0.290702 -0.775817 0.000000 
0.341985 -0.808616 0.000000 
0.321587 -0.858850 0.000000 
0.361761 -0.895258 0.000000 
0.329787 -0.947061 0.000000 
0.360414 -0.984183 0.000000 
0.381315 -0.666225 0.000000 
0.370772 -0.712452 0.000000 
0.425037 -0.744081 0.000000 
0.407738 -0.793510 0.000000 
0.453135 -0.828825 0.000000 
0.427556 -0.880340 0.000000 
0.464588 -0.917367 0.000000 
0.429420 -0.969409 0.000000 
0.458977 -1.006484 0.000000 
0.026061 -0.878133 0.000000 
0.028809 -0.772427 0.000000 
0.054870 -0.818311 0.000000 
0.106992 -0.810078 0.000000 
0.029377 -0.670370 0.000000 
0.058186 -0.710547 0.000000 
0.114311 -0.694881 0.000000 
0.137056 -0.748529 0.000000 
0.186430 -0.746003 0.000000 
0.029568 -0.569316 0.000000 
0.058945 -0.607436 0.000000 
0.116563 -0.587790 0.000000 
0.143120 -0.635059 0.000000 
0.196633 -0.626350 0.000000 
0.217198 -0.683646 0.000000 
0.265318 -0.682847 0.000000 
0.029759 -0.468262 0.000000 
0.059328 -0.505327 0.000000 
0.117890 -0.482622 0.000000 
0.145749 -0.526964 0.000000 
0.201664 -0.513490 0.000000 
0.225992 -0.565607 0.000000 
0.278030 -0.559741 0.000000 
0.296791 -0.619684 0.000000 
0.344206 -0.619691 0.000000 
VECTORS X_EC float 
0.338794 0.354802 0.000000 
-0.609100 -0.563947 0.000000 
0.713312 -0.452806 0.000000 
0.374519 0.927765 0.000000 
0.423588 0.571034 0.000000 
-0.218274 0.605138 0.000000 
-0.513962 -0.119101 0.000000 
0.756418 0.092385 0.000000 
0.381900 -0.450007 0.000000 
-0.550868 -0.281569 0.000000 
0.823577 -0.270774 0.000000 
0.556234 0.955722 0.000000 
-0.139443 -0.926709 0.000000 
-0.484677 0.435167 0.000000 
0.766286 0.700382 0.000000 
0.384386 0.185762 0.000000 
0.474677 0.865828 0.000000 
-0.141715 0.865731 0.000000 
-0.385608 0.056503 0.000000 
0.937896 0.135699 0.000000 
0.621631 -0.567881 0.000000 
-0.105264 -0.385982 0.000000 
-0.467428 -0.984608 0.000000 
0.771260 -0.678080 0.000000 
0.386873 0.821531 0.000000 
0.761262 0.904936 0.000000 
0.108942 -0.813687 0.000000 
-0.397202 0.705474 0.000000 
-0.142083 0.044198 0.000000 
-0.595936 -0.514576 0.000000 
0.978194 0.985558 0.000000 
-0.660903 0.293933 0.000000 
0.724964 -0.166587 0.000000 
0.899809 -0.808836 0.000000 
0.685384 -0.213524 0.000000 
0.287229 -0.714683 0.000000 
0.702895 0.585989 0.000000 
0.180633 0.094470 0.000000 
0.445811 -0.583690 0.000000 
-0.220880 0.973524 0.000000 
-0.071546 0.342599 0.000000 
-0.033296 0.087528 0.000000 
-0.417537 -0.412982 0.000000 
0.039645 0.884456 0.000000 
-0.441768 0.384585 0.000000 
-0.109248 -0.310866 0.000000 
-0.699407 -0.787622 0.000000 
-0.474522 0.545099 0.000000 
0.820030 0.118106 0.000000 
0.957100 -0.505966 0.000000 
0.610485 -0.409057 0.000000 
-0.761092 0.860562 0.000000 
-0.714655 0.149824 0.000000 
-0.057734 -0.055343 0.000000 
-0.178789 0.098566 0.000000 
-0.067979 -0.558860 0.000000 
0.677748 -0.697063 0.000000 
0.641556 0.517191 0.000000 
-0.765897 0.258713 0.000000 
0.393446 -0.673425 0.000000 
0.522510 0.690845 0.000000 
-0.691820 0.592301 0.000000 
-0.647393 -0.138181 0.000000 
0.028512 -0.345708 0.000000 
-0.053800 0.836931 0.000000 
0.514316 0.564801 0.000000 
0.965681 0.554584 0.000000 
-0.897068 -0.069444 0.000000 
-0.083078 -0.136297 0.000000 
-0.006893 -0.838822 0.000000 
0.724017 0.997545 0.000000 
0.714996 0.221142 0.000000 
-0.642413 -0.012316 0.000000 
-0.760780 -0.851296 0.000000 
-0.205471 0.870888 0.000000 
0.000000 -0.103756 0.000000 
-0.564049 -0.801943 0.000000 
0.000000 0.792621 0.000000 
0.564049 -0.801943 0.000000 
0.866949 0.442712 0.000000 
-0.569003 0.122781 0.000000 
0.000000 0.642069 0.000000 
0.569003 0.122781 0.000000 
-0.866949 0.442712 0.000000 
0.299194 -0.327038 0.000000 
0.858290 -0.618621 0.000000 
-0.577662 -0.042176 0.000000 
0.000000 -0.461554 0.000000 
0.577662 -0.042176 0.000000 
-0.858290 -0.618621 0.000000 
-0.299194 -0.327038 0.000000 
-0.268560 0.903213 0.000000 
0.286830 0.625571 0.000000 
0.844677 -0.755231 0.000000 
-0.578910 0.868606 0.000000 
0.000000 -0.639990 0.000000 
0.578910 0.868606 0.000000 
-0.844677 -0.755231 0.000000 
-0.286830 0.625571 0.000000 
0.268560 0.903213 0.000000 
-0.610485 -0.409057 0.000000 
0.057734 -0.055343 0.000000 
0.714655 0.149824 0.000000 
0.761092 0.860562 0.000000 
0.765897 0.258713 0.000000 
-0.641556 0.517191 0.000000 
-0.677748 -0.697063 0.000000 
0.067979 -0.558860 0.000000 
0.178789 0.098566 0.000000 
-0.514316 0.564801 0.000000 
0.053800 0.836932 0.000000 
-0.028512 -0.345708 0.000000 
0.647393 -0.138181 0.000000 
0.691820 0.592301 0.000000 
-0.522510 0.690845 0.000000 
-0.393446 -0.673425 0.000000 
0.205471 0.870888 0.000000 
0.760780 -0.851296 0.000000 
0.642413 -0.012316 0.000000 
-0.714996 0.221142 0.000000 
-0.724017 0.997545 0.000000 
0.006894 -0.838822 0.000000 
0.083078 -0.136297 0.000000 
0.897068 -0.069444 0.000000 
-0.965681 0.554584 0.000000 
-0.761262 0.904936 0.000000 
0.142083 0.044198 0.000000 
0.397202 0.705474 0.000000 
-0.108942 -0.813687 0.000000 
-0.899809 -0.808836 0.000000 
-0.724964 -0.166587 0.000000 
0.660903 0.293933 0.000000 
-0.978194 0.985558 0.000000 
0.595936 -0.514576 0.000000 
0.071546 0.342599 0.000000 
0.220880 0.973524 0.000000 
-0.445811 -0.583690 0.000000 
-0.180633 0.094470 0.000000 
-0.702895 0.585989 0.000000 
-0.287229 -0.714683 0.000000 
-0.685384 -0.213524 0.000000 
-0.957100 -0.505966 0.000000 
-0.820030 0.118106 0.000000 
0.474522 0.545099 0.000000 
0.699407 -0.787622 0.000000 
0.109248 -0.310866 0.000000 
0.441768 0.384585 0.000000 
-0.039645 0.884456 0.000000 
0.417537 -0.412982 0.000000 
0.033296 0.087528 0.000000 
-0.338794 0.354802 0.000000 
-0.374519 0.927765 0.000000 
-0.713312 -0.452806 0.000000 
0.609100 -0.563947 0.000000 
-0.381900 -0.450007 0.000000 
-0.756418 0.092385 0.000000 
0.513962 -0.119101 0.000000 
0.218274 0.605138 0.000000 
-0.423588 0.571034 0.000000 
-0.384386 0.185762 0.000000 
-0.766286 0.700382 0.000000 
0.484677 0.435167 0.000000 
0.139443 -0.926709 0.000000 
-0.556234 0.955722 0.000000 
-0.823577 -0.270774 0.000000 
0.550868 -0.281569 0.000000 
-0.386873 0.821531 0.000000 
-0.771260 -0.678080 0.000000 
0.467428 -0.984608 0.000000 
0.105264 -0.385982 0.000000 
-0.621631 -0.567881 0.000000 
-0.937896 0.135699 0.000000 
0.385608 0.056503 0.000000 
0.141715 0.865731 0.000000 
-0.474677 0.865828 0.000000 
CELL_DATA 175 
SCALARS MASS float 
LOOKUP_TABLE default 
0.078183 
0.086427 
0.094672 
0.086427 
0.088131 
0.092111 
0.085854 
0.092111 
0.088131 
0.088705 
0.091000 
0.086983 
0.091556 
0.086983 
0.091000 
0.088705 
0.089278 
0.091574 
0.089278 
0.092722 
0.089278 
0.092722 
0.089278 
0.091574 
0.089278 
0.078183 
0.086427 
0.094672 
0.086427 
0.088131 
0.092111 
0.085854 
0.092111 
0.088131 
0.088705 
0.091000 
0.086983 
0.091556 
0.086983 
0.091000 
0.088705 
0.089278 
0.091574 
0.089278 
0.092722 
0.089278 
0.092722 
0.089278 
0.091574 
0.089278 
0.078183 
0.086427 
0.094672 
0.086427 
0.088131 
0.092111 
0.085854 
0.092111 
0.088131 
0.088705 
0.091000 
0.086983 
0.091556 
0.086983 
0.091000 
0.088705 
0.089278 
0.091574 
0.089278 
0.092722 
0.089278 
0.092722 
0.089278 
0.091574 
0.089278 
0.078183 
0.086427 
0.094672 
0.086427 
0.088131 
0.092111 
0.085854 
0.092111 
0.088131 
0.088705 
0.091000 
0.086983 
0.091556 
0.086983 
0.091000 
0.088705 
0.089278 
0.091574 
0.089278 
0.092722 
0.089278 
0.092722 
0.089278 
0.091574 
0.089278 
0.078183 
0.086427 
0.094672 
0.086427 
0.088131 
0.092111 
0.085854 
0.092111 
0.088131 
0.088705 
0.091000 
0.086983 
0.091556 
0.086983 
0.091000 
0.088705 
0.089278 
0.091574 
0.089278 
0.092722 
0.089278 
0.092722 
0.089278 
0.091574 
0.089278 
0.078183 
0.086427 
0.094672 
0.086427 
0.088131 
0.092111 
0.085854 
0.092111 
0.088131 
0.088705 
0.091000 
0.086983 
0.091556 
0.086983 
0.091000 
0.088705 
0.089278 
0.091574 
0.089278 
0.092722 
0.089278 
0.092722 
0.089278 
0.091574 
0.089278 
0.078183 
0.086427 
0.094672 
0.086427 
0.088131 
0.092111 
0.085854 
0.092111 
0.088131 
0.088705 
0.091000 
0.086983 
0.091556 
0.086983 
0.091000 
0.088705 
0.089278 
0.091574 
0.089278 
0.092722 
0.089278 
0.092722 
0.089278 
0.091574 
0.089278 
SCALARS MASS float 
LOOKUP_TABLE default 
0.078183 
0.086427 
0.094672 
0.086427 
0.088131 
0.092111 
0.085854 
0.092111 
0.088131 
0.088705 
0.091000 
0.086983 
0.091556 
0.086983 
0.091000 
0.088705 
0.089278 
0.091574 
0.089278 
0.092722 
0.089278 
0.092722 
0.089278 
0.091574 
0.089278 
0.078183 
0.086427 
0.094672 
0.086427 
0.088131 
0.092111 
0.085854 
0.092111 
0.088131 
0.088705 
0.091000 
0.086983 
0.091556 
0.086983 
0.091000 
0.088705 
0.089278 
0.091574 
0.089278 
0.092722 
0.089278 
0.092722 
0.089278 
0.091574 
0.089278 
0.078183 
0.086427 
0.094672 
0.086427 
0.088131 
0.092111 
0.085854 
0.092111 
0.088131 
0.088705 
0.091000 
0.086983 
0.091556 
0.086983 
0.091000 
0.088705 
0.089278 
0.091574 
0.089278 
0.092722 
0.089278 
0.092722 
0.089278 
0.091574 
0.089278 
0.078183 
0.086427 
0.094672 
0.086427 
0.088131 
0.092111 
0.085854 
0.092111 
0.088131 
0.088705 
0.091000 
0.086983 
0.091556 
0.086983 
0.091000 
0.088705 
0.089278 
0.091574 
0.089278 
0.092722 
0.089278 
0.092722 
0.089278 
0.091574 
0.089278 
0.078183 
0.086427 
0.094672 
0.086427 
0.088131 
0.092111 
0.085854 
0.092111 
0.088131 
0.088705 
0.091000 
0.086983 
0.091556 
0.086983 
0.091000 
0.088705 
0.089278 
0.091574 
0.089278 
0.092722 
0.089278 
0.092722 
0.089278 
0.091574 
0.089278 
0.078183 
0.086427 
0.094672 
0.086427 
0.088131 
0.092111 
0.085854 
0.092111 
0.088131 
0.088705 
0.091000 
0.086983 
0.091556 
0.086983 
0.091000 
0.088705 
0.089278 
0.091574 
0.089278 
0.092722 
0.089278 
0.092722 
0.089278 
0.091574 
0.089278 
0.078183 
0.086427 
0.094672 
0.086427 
0.088131 
0.092111 
0.085854 
0.092111 
0.088131 
0.088705 
0.091000 
0.086983 
0.091556 
0.086983 
0.091000 
0.088705 
0.089278 
0.091574 
0.089278 
0.092722 
0.089278 
0.092722 
0.089278 
0.091574 
0.089278 
SCALARS DENSITY float 
LOOKUP_TABLE default 
20.000000 
20.000000 
20.000000 
20.000000 
20.000000 
20.000000 
20.000000 
20.000000 
20.000000 
20.000000 
20.000000 
20.000000 
20.000000 
20.000000 
20.000000 
20.000000 
20.000000 
20.000000 
20.000000 
20.000000 
20.000000 
20.000000 
20.000000 
20.000000 
20.000000 
20.000000 
20.000000 
20.000000 
20.000000 
20.000000 
20.000000 
20.000000 
20.000000 
20.000000 
20.000000 
20.000000 
20.000000 
20.000000 
20.000000 
20.000000 
20.000000 
20.000000 
20.000000 
20.000000 
20.000000 
20.000000 
20.000000 
20.000000 
20.000000 
20.000000 
20.000000 
20.000000 
20.000000 
20.000000 
20.000000 
20.000000 
20.000000 
20.000000 
20.000000 
20.000000 
20.000000 
20.000000 
20.000000 
20.000000 
20.000000 
20.000000 
20.000000 
20.000000 
20.000000 
20.000000 
20.000000 
20.000000 
20.000000 
20.000000 
20.000000 
20.000000 
20.000000 
20.000000 
20.000000 
20.000000 
20.000000 
20.000000 
20.000000 
20.000000 
20.000000 
20.000000 
20.000000 
20.000000 
20.000000 
20.000000 
20.000000 
20.000000 
20.000000 
20.000000 
20.000000 
20.000000 
20.000000 
20.000000 
20.000000 
20.000000 
20.000000 
20.000000 
20.000000 
20.000000 
20.000000 
20.000000 
20.000000 
20.000000 
20.000000 
20.000000 
20.000000 
20.000000 
20.000000 
20.000000 
20.000000 
20.000000 
20.000000 
20.000000 
20.000000 
20.000000 
20.000000 
20.000000 
20.000000 
20.000000 
20.000000 
20.000000 
20.000000 
20.000000 
20.000000 
20.000000 
20.000000 
20.000000 
20.000000 
20.000000 
20.000000 
20.000000 
20.000000 
20.000000 
20.000000 
20.000000 
20.000000 
20.000000 
20.000000 
20.000000 
20.000000 
20.000000 
20.000000 
20.000000 
20.000000 
20.000000 
20.000000 
20.000000 
20.000000 
20.000000 
20.000000 
20.000000 
20.000000 
20.000000 
20.000000 
20.000000 
20.000000 
20.000000 
20.000000 
20.000000 
20.000000 
20.000000 
20.000000 
20.000000 
20.000000 
20.000000 
20.000000 
20.000000 
20.000000 
20.000000 
20.000000 
SCALARS ELEM_i float 
LOOKUP_TABLE default 
176 
203 
176 
177 
204 
204 
204 
177 
177 
231 
204 
205 
204 
205 
178 
178 
232 
232 
232 
205 
205 
205 
205 
178 
179 
176 
202 
203 
203 
229 
203 
230 
203 
203 
229 
229 
230 
230 
230 
231 
231 
256 
256 
257 
257 
257 
257 
258 
231 
231 
175 
202 
202 
202 
201 
201 
201 
202 
229 
200 
201 
228 
228 
228 
229 
229 
200 
227 
227 
227 
228 
228 
255 
255 
256 
175 
174 
175 
174 
147 
174 
174 
174 
201 
146 
146 
173 
173 
173 
200 
200 
146 
146 
145 
173 
172 
173 
199 
200 
200 
175 
148 
148 
148 
121 
148 
147 
147 
147 
121 
121 
120 
120 
120 
147 
146 
94 
93 
93 
120 
120 
119 
119 
119 
146 
176 
149 
149 
148 
149 
149 
122 
149 
121 
123 
123 
122 
122 
122 
121 
121 
123 
123 
96 
95 
95 
95 
95 
94 
94 
176 
177 
176 
149 
177 
177 
150 
150 
150 
178 
178 
151 
150 
151 
150 
123 
179 
178 
151 
151 
151 
151 
124 
124 
124 
VECTORS VELOCITY float 
-0.000000 -4.276375 0.000000 
-0.000000 -4.276375 0.000000 
-0.000000 -4.276375 0.000000 
0.000000 -4.276375 0.000000 
0.000000 -4.276375 0.000000 
0.000000 -4.276375 0.000000 
0.000000 -4.276375 0.000000 
0.000000 -4.276375 0.000000 
0.000000 -4.276375 0.000000 
-0.000000 -4.276375 0.000000 
-0.000000 -4.276375 0.000000 
0.000000 -4.276375 0.000000 
0.000000 -4.276375 0.000000 
-0.000000 -4.276375 0.000000 
0.000000 -4.276375 0.000000 
-0.000000 -4.276375 0.000000 
0.000000 -4.276375 0.000000 
0.000000 -4.276375 0.000000 
0.000000 -4.276375 0.000000 
0.000000 -4.276375 0.000000 
0.000000 -4.276375 0.000000 
0.000000 -4.276375 0.000000 
-0.000000 -4.276375 0.000000 
0.000000 -4.276375 0.000000 
0.000000 -4.276375 0.000000 
-0.000000 -4.276375 0.000000 
-0.000000 -4.276375 0.000000 
-0.000000 -4.276375 0.000000 
-0.000000 -4.276375 0.000000 
-0.000000 -4.276375 0.000000 
-0.000000 -4.276375 0.000000 
-0.000000 -4.276375 0.000000 
-0.000000 -4.276375 0.000000 
0.000000 -4.276375 0.000000 
-0.000000 -4.276375 0.000000 
-0.000000 -4.276375 0.000000 
-0.000000 -4.276375 0.000000 
0.000000 -4.276375 0.000000 
-0.000000 -4.276375 0.000000 
-0.000000 -4.276375 0.000000 
-0.000000 -4.276375 0.000000 
-0.000000 -4.276375 0.000000 
-0.000000 -4.276375 0.000000 
-0.000000 -4.276375 0.000000 
0.000000 -4.276375 0.000000 
-0.000000 -4.276375 0.000000 
-0.000000 -4.276375 0.000000 
0.000000 -4.276375 0.000000 
-0.000000 -4.276375 0.000000 
-0.000000 -4.276375 0.000000 
-0.000000 -4.276375 0.000000 
-0.000000 -4.276375 0.000000 
-0.000000 -4.276375 0.000000 
-0.000000 -4.276375 0.000000 
0.000000 -4.276375 0.000000 
0.000000 -4.276375 0.000000 
0.000000 -4.276375 0.000000 
0.000000 -4.276375 0.000000 
0.000000 -4.276375 0.000000 
0.000000 -4.276375 0.000000 
-0.000000 -4.276375 0.000000 
-0.000000 -4.276375 0.000000 
-0.000000 -4.276375 0.000000 
-0.000000 -4.276375 0.000000 
0.000000 -4.276375 0.000000 
-0.000000 -4.276375 0.000000 
0.000000 -4.276375 0.000000 
0.000000 -4.276375 0.000000 
0.000000 -4.276375 0.000000 
-0.000000 -4.276375 0.000000 
-0.000000 -4.276375 0.000000 
-0.000000 -4.276375 0.000000 
-0.000000 -4.276375 0.000000 
-0.000000 -4.276375 0.000000 
0.000000 -4.276375 0.000000 
0.000000 -4.276375 0.000000 
-0.000000 -4.276375 0.000000 
-0.000000 -4.276375 0.000000 
-0.000000 -4.276375 0.000000 
-0.000000 -4.276375 0.000000 
-0.000000 -4.276375 0.000000 
-0.000000 -4.276375 0.000000 
0.000000 -4.276375 0.000000 
0.000000 -4.276375 0.000000 
-0.000000 -4.276375 0.000000 
-0.000000 -4.276375 0.000000 
-0.000000 -4.276375 0.000000 
-0.000000 -4.276375 0.000000 
0.000000 -4.276375 0.000000 
0.000000 -4.276375 0.000000 
0.000000 -4.276375 0.000000 
-0.000000 -4.276375 0.000000 
-0.000000 -4.276375 0.000000 
-0.000000 -4.276375 0.000000 
0.000000 -4.276375 0.000000 
0.000000 -4.276375 0.000000 
0.000000 -4.276375 0.000000 
0.000000 -4.276375 0.000000 
0.000000 -4.276375 0.000000 
-0.000000 -4.276375 0.000000 
0.000000 -4.276375 0.000000 
0.000000 -4.276375 0.000000 
0.000000 -4.276375 0.000000 
-0.000000 -4.276375 0.000000 
-0.000000 -4.276375 0.000000 
0.000000 -4.276375 0.000000 
0.000000 -4.276375 0.000000 
-0.000000 -4.276375 0.000000 
-0.000000 -4.276375 0.000000 
-0.000000 -4.276375 0.000000 
-0.000000 -4.276375 0.000000 
0.000000 -4.276375 0.000000 
0.000000 -4.276375 0.000000 
0.000000 -4.276375 0.000000 
-0.000000 -4.276375 0.000000 
-0.000000 -4.276375 0.000000 
0.000000 -4.276375 0.000000 
0.000000 -4.276375 0.000000 
-0.000000 -4.276375 0.000000 
0.000000 -4.276375 0.000000 
0.000000 -4.276375 0.000000 
0.000000 -4.276375 0.000000 
0.000000 -4.276375 0.000000 
-0.000000 -4.276375 0.000000 
-0.000000 -4.276375 0.000000 
0.000000 -4.276375 0.000000 
0.000000 -4.276375 0.000000 
0.000000 -4.276375 0.000000 
0.000000 -4.276375 0.000000 
0.000000 -4.276375 0.000000 
0.000000 -4.276375 0.000000 
0.000000 -4.276375 0.000000 
-0.000000 -4.276375 0.000000 
-0.000000 -4.276375 0.000000 
0.000000 -4.276375 0.000000 
0.000000 -4.276375 0.000000 
0.000000 -4.276375 0.000000 
0.000000 -4.276375 0.000000 
-0.000000 -4.276375 0.000000 
-0.000000 -4.276375 0.000000 
-0.000000 -4.276375 0.000000 
0.000000 -4.276375 0.000000 
0.000000 -4.276375 0.000000 
-0.000000 -4.276375 0.000000 
0.000000 -4.276375 0.000000 
-0.000000 -4.276375 0.000000 
0.000000 -4.276375 0.000000 
0.000000 -4.276375 0.000000 
-0.000000 -4.276375 0.000000 
0.000000 -4.276375 0.000000 
0.000000 -4.276375 0.000000 
0.000000 -4.276375 0.000000 
0.000000 -4.276375 0.000000 
-0.000000 -4.276375 0.000000 
0.000000 -4.276375 0.000000 
0.000000 -4.276375 0.000000 
0.000000 -4.276375 0.000000 
0.000000 -4.276375 0.000000 
0.000000 -4.276375 0.000000 
-0.000000 -4.276375 0.000000 
-0.000000 -4.276375 0.000000 
-0.000000 -4.276375 0.000000 
-0.000000 -4.276375 0.000000 
0.000000 -4.276375 0.000000 
-0.000000 -4.276375 0.000000 
-0.000000 -4.276375 0.000000 
0.000000 -4.276375 0.000000 
0.000000 -4.276375 0.000000 
-0.000000 -4.276375 0.000000 
0.000000 -4.276375 0.000000 
-0.000000 -4.276375 0.000000 
0.000000 -4.276375 0.000000 
0.000000 -4.276375 0.000000 
0.000000 -4.276375 0.000000 
-0.000000 -4.276375 0.000000 
TENSORS STRESS float 
0.000000 0.000000 0.000000 
0.000000 -0.000000 0.000000 
0.000000 0.000000 0.000000 

0.000000 0.000000 0.000000 
0.000000 0.000000 0.000000 
0.000000 0.000000 0.000000 

0.000000 -0.000000 0.000000 
0.000000 -0.000000 0.000000 
0.000000 0.000000 0.000000 

-0.000000 0.000000 0.000000 
0.000000 -0.000000 0.000000 
0.000000 0.000000 0.000000 

-0.000000 -0.000000 0.000000 
0.000000 -0.000000 0.000000 
0.000000 0.000000 0.000000 

0.000000 -0.000000 0.000000 
0.000000 0.000000 0.000000 
0.000000 0.000000 0.000000 

-0.000000 -0.000000 0.000000 
0.000000 -0.000000 0.000000 
0.000000 0.000000 0.000000 

-0.000000 -0.000000 0.000000 
0.000000 -0.000000 0.000000 
0.000000 0.000000 0.000000 

-0.000000 0.000000 0.000000 
0.000000 -0.000000 0.000000 
0.000000 0.000000 0.000000 

-0.000000 -0.000000 0.000000 
0.000000 -0.000000 0.000000 
0.000000 0.000000 0.000000 

-0.000000 -0.000000 0.000000 
0.000000 -0.000000 0.000000 
0.000000 0.000000 0.000000 

0.000000 0.000000 0.000000 
0.000000 0.000000 0.000000 
0.000000 0.000000 0.000000 

0.000000 -0.000000 0.000000 
0.000000 0.000000 0.000000 
0.000000 0.000000 0.000000 

-0.000000 -0.000000 0.000000 
0.000000 -0.000000 0.000000 
0.000000 0.000000 0.000000 

-0.000000 -0.000000 0.000000 
0.000000 -0.000000 0.000000 
0.000000 0.000000 0.000000 

0.000000 0.000000 0.000000 
0.000000 0.000000 0.000000 
0.000000 0.000000 0.000000 

-0.000000 -0.000000 0.000000 
0.000000 -0.000000 0.000000 
0.000000 0.000000 0.000000 

-0.000000 -0.000000 0.000000 
0.000000 -0.000000 0.000000 
0.000000 0.000000 0.000000 

-0.000000 0.000000 0.000000 
0.000000 -0.000000 0.000000 
0.000000 0.000000 0.000000 

-0.000000 0.000000 0.000000 
0.000000 -0.000000 0.000000 
0.000000 0.000000 0.000000 

0.000000 0.000000 0.000000 
0.000000 0.000000 0.000000 
0.000000 0.000000 0.000000 

0.000000 0.000000 0.000000 
0.000000 0.000000 0.000000 
0.000000 0.000000 0.000000 

-0.000000 0.000000 0.000000 
0.000000 -0.000000 0.000000 
0.000000 0.000000 0.000000 

0.000000 0.000000 0.000000 
0.000000 -0.000000 0.000000 
0.000000 0.000000 0.000000 

-0.000000 0.000000 0.000000 
0.000000 0.000000 0.000000 
0.000000 0.000000 0.000000 

0.000000 0.000000 0.000000 
0.000000 -0.000000 0.000000 
0.000000 0.000000 0.000000 

-0.000000 -0.000000 0.000000 
0.000000 0.000000 0.000000 
0.000000 0.000000 0.000000 

0.000000 -0.000000 0.000000 
0.000000 0.000000 0.000000 
0.000000 0.000000 0.000000 

-0.000000 -0.000000 0.000000 
0.000000 -0.000000 0.000000 
0.000000 0.000000 0.000000 

0.000000 0.000000 0.000000 
0.000000 0.000000 0.000000 
0.000000 0.000000 0.000000 

0.000000 -0.000000 0.000000 
0.000000 0.000000 0.000000 
0.000000 0.000000 0.000000 

-0.000000 0.000000 0.000000 
0.000000 -0.000000 0.000000 
0.000000 0.000000 0.000000 

0.000000 -0.000000 0.000000 
0.000000 0.000000 0.000000 
0.000000 0.000000 0.000000 

-0.000000 -0.000000 0.000000 
0.000000 -0.000000 0.000000 
0.000000 0.000000 0.000000 

-0.000000 -0.000000 0.000000 
0.000000 -0.000000 0.000000 
0.000000 0.000000 0.000000 

0.000000 0.000000 0.000000 
0.000000 0.000000 0.000000 
0.000000 0.000000 0.000000 

-0.000000 -0.000000 0.000000 
0.000000 -0.000000 0.000000 
0.000000 0.000000 0.000000 

-0.000000 0.000000 0.000000 
0.000000 -0.000000 0.000000 
0.000000 0.000000 0.000000 

0.000000 0.000000 0.000000 
0.000000 0.000000 0.000000 
0.000000 0.000000 0.000000 

-0.000000 0.000000 0.000000 
0.000000 -0.000000 0.000000 
0.000000 0.000000 0.000000 

-0.000000 -0.000000 0.000000 
0.000000 -0.000000 0.000000 
0.000000 0.000000 0.000000 

0.000000 0.000000 0.000000 
0.000000 0.000000 0.000000 
0.000000 0.000000 0.000000 

0.000000 0.000000 0.000000 
0.000000 0.000000 0.000000 
0.000000 0.000000 0.000000 

-0.000000 -0.000000 0.000000 
0.000000 -0.000000 0.000000 
0.000000 0.000000 0.000000 

-0.000000 0.000000 0.000000 
0.000000 0.000000 0.000000 
0.000000 0.000000 0.000000 

-0.000000 -0.000000 0.000000 
0.000000 0.000000 0.000000 
0.000000 0.000000 0.000000 

0.000000 -0.000000 0.000000 
0.000000 0.000000 0.000000 
0.000000 0.000000 0.000000 

-0.000000 -0.000000 0.000000 
0.000000 -0.000000 0.000000 
0.000000 0.000000 0.000000 

0.000000 -0.000000 0.000000 
0.000000 0.000000 0.000000 
0.000000 0.000000 0.000000 

-0.000000 -0.000000 0.000000 
0.000000 0.000000 0.000000 
0.000000 0.000000 0.000000 

0.000000 -0.000000 0.000000 
0.000000 0.000000 0.000000 
0.000000 0.000000 0.000000 

-0.000000 0.000000 0.000000 
0.000000 -0.000000 0.000000 
0.000000 0.000000 0.000000 

-0.000000 -0.000000 0.000000 
0.000000 -0.000000 0.000000 
0.000000 0.000000 0.000000 

-0.000000 0.000000 0.000000 
0.000000 -0.000000 0.000000 
0.000000 0.000000 0.000000 

-0.000000 -0.000000 0.000000 
0.000000 -0.000000 0.000000 
0.000000 0.000000 0.000000 

0.000000 -0.000000 0.000000 
0.000000 -0.000000 0.000000 
0.000000 0.000000 0.000000 

0.000000 0.000000 0.000000 
0.000000 0.000000 0.000000 
0.000000 0.000000 0.000000 

-0.000000 0.000000 0.000000 
0.000000 0.000000 0.000000 
0.000000 0.000000 0.000000 

0.000000 0.000000 0.000000 
0.000000 0.000000 0.000000 
0.000000 0.000000 0.000000 

0.000000 -0.000000 0.000000 
0.000000 0.000000 0.000000 
0.000000 0.000000 0.000000 

0.000000 0.000000 0.000000 
0.000000 0.000000 0.000000 
0.000000 0.000000 0.000000 

0.000000 0.000000 0.000000 
0.000000 0.000000 0.000000 
0.000000 0.000000 0.000000 

-0.000000 0.000000 0.000000 
0.000000 -0.000000 0.000000 
0.000000 0.000000 0.000000 

0.000000 0.000000 0.000000 
0.000000 0.000000 0.000000 
0.000000 0.000000 0.000000 

0.000000 0.000000 0.000000 
0.000000 0.000000 0.000000 
0.000000 0.000000 0.000000 

0.000000 0.000000 0.000000 
0.000000 0.000000 0.000000 
0.000000 0.000000 0.000000 

-0.000000 0.000000 0.000000 
0.000000 -0.000000 0.000000 
0.000000 0.000000 0.000000 

0.000000 0.000000 0.000000 
0.000000 0.000000 0.000000 
0.000000 0.000000 0.000000 

0.000000 0.000000 0.000000 
0.000000 0.000000 0.000000 
0.000000 0.000000 0.000000 

0.000000 -0.000000 0.000000 
0.000000 0.000000 0.000000 
0.000000 0.000000 0.000000 

0.000000 0.000000 0.000000 
0.000000 0.000000 0.000000 
0.000000 0.000000 0.000000 

-0.000000 -0.000000 0.000000 
0.000000 -0.000000 0.000000 
0.000000 0.000000 0.000000 

0.000000 -0.000000 0.000000 
0.000000 0.000000 0.000000 
0.000000 0.000000 0.000000 

-0.000000 0.000000 0.000000 
0.000000 -0.000000 0.000000 
0.000000 0.000000 0.000000 

-0.000000 0.000000 0.000000 
0.000000 0.000000 0.000000 
0.000000 0.000000 0.000000 

0.000000 -0.000000 0.000000 
0.000000 0.000000 0.000000 
0.000000 0.000000 0.000000 

0.000000 -0.000000 0.000000 
0.000000 -0.000000 0.000000 
0.000000 0.000000 0.000000 

0.000000 -0.000000 0.000000 
0.000000 0.000000 0.000000 
0.000000 0.000000 0.000000 

0.000000 -0.000000 0.000000 
0.000000 0.000000 0.000000 
0.000000 0.000000 0.000000 

0.000000 -0.000000 0.000000 
0.000000 0.000000 0.000000 
0.000000 0.000000 0.000000 

-0.000000 0.000000 0.000000 
0.000000 0.000000 0.000000 
0.000000 0.000000 0.000000 

-0.000000 -0.000000 0.000000 
0.000000 -0.000000 0.000000 
0.000000 0.000000 0.000000 

-0.000000 0.000000 0.000000 
0.000000 -0.000000 0.000000 
0.000000 0.000000 0.000000 

-0.000000 -0.000000 0.000000 
0.000000 -0.000000 0.000000 
0.000000 0.000000 0.000000 

-0.000000 0.000000 0.000000 
0.000000 -0.000000 0.000000 
0.000000 0.000000 0.000000 

0.000000 0.000000 0.000000 
0.000000 0.000000 0.000000 
0.000000 0.000000 0.000000 

0.000000 -0.000000 0.000000 
0.000000 0.000000 0.000000 
0.000000 0.000000 0.000000 

-0.000000 -0.000000 0.000000 
0.000000 -0.000000 0.000000 
0.000000 0.000000 0.000000 

-0.000000 -0.000000 0.000000 
0.000000 0.000000 0.000000 
0.000000 0.000000 0.000000 

0.000000 0.000000 0.000000 
0.000000 -0.000000 0.000000 
0.000000 0.000000 0.000000 

0.000000 -0.000000 0.000000 
0.000000 0.000000 0.000000 
0.000000 0.000000 0.000000 

0.000000 -0.000000 0.000000 
0.000000 0.000000 0.000000 
0.000000 0.000000 0.000000 

0.000000 0.000000 0.000000 
0.000000 0.000000 0.000000 
0.000000 0.000000 0.000000 

-0.000000 -0.000000 0.000000 
0.000000 -0.000000 0.000000 
0.000000 0.000000 0.000000 

-0.000000 0.000000 0.000000 
0.000000 -0.000000 0.000000 
0.000000 0.000000 0.000000 

-0.000000 -0.000000 0.000000 
0.000000 -0.000000 0.000000 
0.000000 0.000000 0.000000 

-0.000000 0.000000 0.000000 
0.000000 0.000000 0.000000 
0.000000 0.000000 0.000000 

-0.000000 -0.000000 0.000000 
0.000000 -0.000000 0.000000 
0.000000 0.000000 0.000000 

0.000000 -0.000000 0.000000 
0.000000 0.000000 0.000000 
0.000000 0.000000 0.000000 

0.000000 -0.000000 0.000000 
0.000000 0.000000 0.000000 
0.000000 0.000000 0.000000 

0.000000 -0.000000 0.000000 
0.000000 0.000000 0.000000 
0.000000 0.000000 0.000000 

0.000000 0.000000 0.000000 
0.000000 0.000000 0.000000 
0.000000 0.000000 0.000000 

-0.000000 0.000000 0.000000 
0.000000 -0.000000 0.000000 
0.000000 0.000000 0.000000 

0.000000 -0.000000 0.000000 
0.000000 0.000000 0.000000 
0.000000 0.000000 0.000000 

0.000000 0.000000 0.000000 
0.000000 -0.000000 0.000000 
0.000000 0.000000 0.000000 

0.000000 -0.000000 0.000000 
0.000000 0.000000 0.000000 
0.000000 0.000000 0.000000 

-0.000000 0.000000 0.000000 
0.000000 -0.000000 0.000000 
0.000000 0.000000 0.000000 

-0.000000 -0.000000 0.000000 
0.000000 -0.000000 0.000000 
0.000000 0.000000 0.000000 

0.000000 -0.000000 0.000000 
0.000000 0.000000 0.000000 
0.000000 0.000000 0.000000 

0.000000 0.000000 0.000000 
0.000000 -0.000000 0.000000 
0.000000 0.000000 0.000000 

0.000000 0.000000 0.000000 
0.000000 -0.000000 0.000000 
0.000000 0.000000 0.000000 

0.000000 0.000000 0.000000 
0.000000 -0.000000 0.000000 
0.000000 0.000000 0.000000 

0.000000 0.000000 0.000000 
0.000000 -0.000000 0.000000 
0.000000 0.000000 0.000000 

-0.000000 -0.000000 0.000000 
0.000000 -0.000000 0.000000 
0.000000 0.000000 0.000000 

0.000000 0.000000 0.000000 
0.000000 0.000000 0.000000 
0.000000 0.000000 0.000000 

-0.000000 0.000000 0.000000 
0.000000 -0.000000 0.000000 
0.000000 0.000000 0.000000 

-0.000000 -0.000000 0.000000 
0.000000 -0.000000 0.000000 
0.000000 0.000000 0.000000 

0.000000 0.000000 0.000000 
0.000000 -0.000000 0.000000 
0.000000 0.000000 0.000000 

0.000000 0.000000 0.000000 
0.000000 0.000000 0.000000 
0.000000 0.000000 0.000000 

0.000000 0.000000 0.000000 
0.000000 0.000000 0.000000 
0.000000 0.000000 0.000000 

0.000000 0.000000 0.000000 
0.000000 0.000000 0.000000 
0.000000 0.000000 0.000000 

0.000000 -0.000000 0.000000 
0.000000 0.000000 0.000000 
0.000000 0.000000 0.000000 

-0.000000 -0.000000 0.000000 
0.000000 -0.000000 0.000000 
0.000000 0.000000 0.000000 

0.000000 -0.000000 0.000000 
0.000000 0.000000 0.000000 
0.000000 0.000000 0.000000 

0.000000 0.000000 0.000000 
0.000000 0.000000 0.000000 
0.000000 0.000000 0.000000 

0.000000 -0.000000 0.000000 
0.000000 -0.000000 0.000000 
0.000000 0.000000 0.000000 

0.000000 -0.000000 0.000000 
0.000000 -0.000000 0.000000 
0.000000 0.000000 0.000000 

0.000000 -0.000000 0.000000 
0.000000 0.000000 0.000000 
0.000000 0.000000 0.000000 

-0.000000 0.000000 0.000000 
0.000000 0.000000 0.000000 
0.000000 0.000000 0.000000 

0.000000 0.000000 0.000000 
0.000000 -0.000000 0.000000 
0.000000 0.000000 0.000000 

0.000000 0.000000 0.000000 
0.000000 0.000000 0.000000 
0.000000 0.000000 0.000000 

-0.000000 0.000000 0.000000 
0.000000 0.000000 0.000000 
0.000000 0.000000 0.000000 

0.000000 -0.000000 0.000000 
0.000000 0.000000 0.000000 
0.000000 0.000000 0.000000 

0.000000 0.000000 0.000000 
0.000000 0.000000 0.000000 
0.000000 0.000000 0.000000 

0.000000 -0.000000 0.000000 
0.000000 0.000000 0.000000 
0.000000 0.000000 0.000000 

0.000000 -0.000000 0.000000 
0.000000 -0.000000 0.000000 
0.000000 0.000000 0.000000 

-0.000000 -0.000000 0.000000 
0.000000 -0.000000 0.000000 
0.000000 0.000000 0.000000 

0.000000 0.000000 0.000000 
0.000000 0.000000 0.000000 
0.000000 0.000000 0.000000 

-0.000000 -0.000000 0.000000 
0.000000 -0.000000 0.000000 
0.000000 0.000000 0.000000 

0.000000 -0.000000 0.000000 
0.000000 -0.000000 0.000000 
0.000000 0.000000 0.000000 

0.000000 0.000000 0.000000 
0.000000 0.000000 0.000000 
0.000000 0.000000 0.000000 

0.000000 0.000000 0.000000 
0.000000 0.000000 0.000000 
0.000000 0.000000 0.000000 

0.000000 -0.000000 0.000000 
0.000000 0.000000 0.000000 
0.000000 0.000000 0.000000 

-0.000000 -0.000000 0.000000 
0.000000 0.000000 0.000000 
0.000000 0.000000 0.000000 

0.000000 0.000000 0.000000 
0.000000 0.000000 0.000000 
0.000000 0.000000 0.000000 

0.000000 0.000000 0.000000 
0.000000 -0.000000 0.000000 
0.000000 0.000000 0.000000 

0.000000 -0.000000 0.000000 
0.000000 0.000000 0.000000 
0.000000 0.000000 0.000000 

0.000000 -0.000000 0.000000 
0.000000 0.000000 0.000000 
0.000000 0.000000 0.000000 

0.000000 -0.000000 0.000000 
0.000000 0.000000 0.000000 
0.000000 0.000000 0.000000 

0.000000 0.000000 0.000000 
0.000000 -0.000000 0.000000 
0.000000 0.000000 0.000000 

0.000000 0.000000 0.000000 
0.000000 0.000000 0.000000 
0.000000 0.000000 0.000000 

0.000000 0.000000 0.000000 
0.000000 0.000000 0.000000 
0.000000 0.000000 0.000000 

0.000000 -0.000000 0.000000 
0.000000 0.000000 0.000000 
0.000000 0.000000 0.000000 

0.000000 -0.000000 0.000000 
0.000000 -0.000000 0.000000 
0.000000 0.000000 0.000000 

0.000000 0.000000 0.000000 
0.000000 0.000000 0.000000 
0.000000 0.000000 0.000000 

-0.000000 0.000000 0.000000 
0.000000 -0.000000 0.000000 
0.000000 0.000000 0.000000 

0.000000 0.000000 0.000000 
0.000000 -0.000000 0.000000 
0.000000 0.000000 0.000000 

0.000000 0.000000 0.000000 
0.000000 -0.000000 0.000000 
0.000000 0.000000 0.000000 

0.000000 0.000000 0.000000 
0.000000 0.000000 0.000000 
0.000000 0.000000 0.000000 

0.000000 0.000000 0.000000 
0.000000 0.000000 0.000000 
0.000000 0.000000 0.000000 

0.000000 -0.000000 0.000000 
0.000000 0.000000 0.000000 
0.000000 0.000000 0.000000 

0.000000 -0.000000 0.000000 
0.000000 0.000000 0.000000 
0.000000 0.000000 0.000000 

0.000000 -0.000000 0.000000 
0.000000 -0.000000 0.000000 
0.000000 0.000000 0.000000 

0.000000 0.000000 0.000000 
0.000000 0.000000 0.000000 
0.000000 0.000000 0.000000 

-0.000000 -0.000000 0.000000 
0.000000 -0.000000 0.000000 
0.000000 0.000000 0.000000 

-0.000000 -0.000000 0.000000 
0.000000 -0.000000 0.000000 
0.000000 0.000000 0.000000 

0.000000 -0.000000 0.000000 
0.000000 0.000000 0.000000 
0.000000 0.000000 0.000000 

0.000000 0.000000 0.000000 
0.000000 0.000000 0.000000 
0.000000 0.000000 0.000000 

0.000000 -0.000000 0.000000 
0.000000 0.000000 0.000000 
0.000000 0.000000 0.000000 

0.000000 0.000000 0.000000 
0.000000 -0.000000 0.000000 
0.000000 0.000000 0.000000 

0.000000 0.000000 0.000000 
0.000000 0.000000 0.000000 
0.000000 0.000000 0.000000 

0.000000 0.000000 0.000000 
0.000000 0.000000 0.000000 
0.000000 0.000000 0.000000 

-0.000000 0.000000 0.000000 
0.000000 -0.000000 0.000000 
0.000000 0.000000 0.000000 

-0.000000 -0.000000 0.000000 
0.000000 -0.000000 0.000000 
0.000000 0.000000 0.000000 

-0.000000 -0.000000 0.000000 
0.000000 -0.000000 0.000000 
0.000000 0.000000 0.000000 

TENSORS STRAIN float 
0.000000 0.000000 0.000000 
0.000000 -0.000000 0.000000 
0.000000 0.000000 0.000000 

0.000000 0.000000 0.000000 
0.000000 0.000000 0.000000 
0.000000 0.000000 0.000000 

0.000000 -0.000000 0.000000 
0.000000 -0.000000 0.000000 
0.000000 0.000000 0.000000 

0.000000 0.000000 0.000000 
0.000000 -0.000000 0.000000 
0.000000 0.000000 0.000000 

0.000000 -0.000000 0.000000 
0.000000 -0.000000 0.000000 
0.000000 0.000000 0.000000 

0.000000 -0.000000 0.000000 
0.000000 0.000000 0.000000 
0.000000 0.000000 0.000000 

0.000000 -0.000000 0.000000 
0.000000 -0.000000 0.000000 
0.000000 0.000000 0.000000 

-0.000000 -0.000000 0.000000 
0.000000 -0.000000 0.000000 
0.000000 0.000000 0.000000 

0.000000 0.000000 0.000000 
0.000000 -0.000000 0.000000 
0.000000 0.000000 0.000000 

-0.000000 -0.000000 0.000000 
0.000000 -0.000000 0.000000 
0.000000 0.000000 0.000000 

0.000000 -0.000000 0.000000 
0.000000 -0.000000 0.000000 
0.000000 0.000000 0.000000 

-0.000000 0.000000 0.000000 
0.000000 0.000000 0.000000 
0.000000 0.000000 0.000000 

0.000000 -0.000000 0.000000 
0.000000 0.000000 0.000000 
0.000000 0.000000 0.000000 

0.000000 -0.000000 0.000000 
0.000000 -0.000000 0.000000 
0.000000 0.000000 0.000000 

0.000000 -0.000000 0.000000 
0.000000 -0.000000 0.000000 
0.000000 0.000000 0.000000 

0.000000 0.000000 0.000000 
0.000000 0.000000 0.000000 
0.000000 0.000000 0.000000 

-0.000000 -0.000000 0.000000 
0.000000 -0.000000 0.000000 
0.000000 0.000000 0.000000 

-0.000000 -0.000000 0.000000 
0.000000 -0.000000 0.000000 
0.000000 0.000000 0.000000 

-0.000000 0.000000 0.000000 
0.000000 -0.000000 0.000000 
0.000000 0.000000 0.000000 

-0.000000 0.000000 0.000000 
0.000000 -0.000000 0.000000 
0.000000 0.000000 0.000000 

-0.000000 0.000000 0.000000 
0.000000 0.000000 0.000000 
0.000000 0.000000 0.000000 

-0.000000 0.000000 0.000000 
0.000000 0.000000 0.000000 
0.000000 0.000000 0.000000 

-0.000000 0.000000 0.000000 
0.000000 -0.000000 0.000000 
0.000000 0.000000 0.000000 

0.000000 0.000000 0.000000 
0.000000 -0.000000 0.000000 
0.000000 0.000000 0.000000 

-0.000000 0.000000 0.000000 
0.000000 0.000000 0.000000 
0.000000 0.000000 0.000000 

0.000000 0.000000 0.000000 
0.000000 -0.000000 0.000000 
0.000000 0.000000 0.000000 

-0.000000 -0.000000 0.000000 
0.000000 0.000000 0.000000 
0.000000 0.000000 0.000000 

0.000000 -0.000000 0.000000 
0.000000 0.000000 0.000000 
0.000000 0.000000 0.000000 

0.000000 -0.000000 0.000000 
0.000000 -0.000000 0.000000 
0.000000 0.000000 0.000000 

0.000000 0.000000 0.000000 
0.000000 0.000000 0.000000 
0.000000 0.000000 0.000000 

-0.000000 -0.000000 0.000000 
0.000000 0.000000 0.000000 
0.000000 0.000000 0.000000 

0.000000 0.000000 0.000000 
0.000000 -0.000000 0.000000 
0.000000 0.000000 0.000000 

0.000000 -0.000000 0.000000 
0.000000 0.000000 0.000000 
0.000000 0.000000 0.000000 

0.000000 -0.000000 0.000000 
0.000000 -0.000000 0.000000 
0.000000 0.000000 0.000000 

-0.000000 -0.000000 0.000000 
0.000000 -0.000000 0.000000 
0.000000 0.000000 0.000000 

0.000000 0.000000 0.000000 
0.000000 0.000000 0.000000 
0.000000 0.000000 0.000000 

0.000000 -0.000000 0.000000 
0.000000 -0.000000 0.000000 
0.000000 0.000000 0.000000 

0.000000 0.000000 0.000000 
0.000000 -0.000000 0.000000 
0.000000 0.000000 0.000000 

-0.000000 0.000000 0.000000 
0.000000 0.000000 0.000000 
0.000000 0.000000 0.000000 

0.000000 0.000000 0.000000 
0.000000 -0.000000 0.000000 
0.000000 0.000000 0.000000 

-0.000000 -0.000000 0.000000 
0.000000 -0.000000 0.000000 
0.000000 0.000000 0.000000 

0.000000 0.000000 0.000000 
0.000000 0.000000 0.000000 
0.000000 0.000000 0.000000 

0.000000 0.000000 0.000000 
0.000000 0.000000 0.000000 
0.000000 0.000000 0.000000 

0.000000 -0.000000 0.000000 
0.000000 -0.000000 0.000000 
0.000000 0.000000 0.000000 

-0.000000 0.000000 0.000000 
0.000000 0.000000 0.000000 
0.000000 0.000000 0.000000 

-0.000000 -0.000000 0.000000 
0.000000 0.000000 0.000000 
0.000000 0.000000 0.000000 

-0.000000 -0.000000 0.000000 
0.000000 0.000000 0.000000 
0.000000 0.000000 0.000000 

-0.000000 -0.000000 0.000000 
0.000000 -0.000000 0.000000 
0.000000 0.000000 0.000000 

0.000000 -0.000000 0.000000 
0.000000 0.000000 0.000000 
0.000000 0.000000 0.000000 

-0.000000 -0.000000 0.000000 
0.000000 0.000000 0.000000 
0.000000 0.000000 0.000000 

0.000000 -0.000000 0.000000 
0.000000 0.000000 0.000000 
0.000000 0.000000 0.000000 

-0.000000 0.000000 0.000000 
0.000000 -0.000000 0.000000 
0.000000 0.000000 0.000000 

-0.000000 -0.000000 0.000000 
0.000000 -0.000000 0.000000 
0.000000 0.000000 0.000000 

-0.000000 0.000000 0.000000 
0.000000 -0.000000 0.000000 
0.000000 0.000000 0.000000 

0.000000 -0.000000 0.000000 
0.000000 -0.000000 0.000000 
0.000000 0.000000 0.000000 

0.000000 -0.000000 0.000000 
0.000000 -0.000000 0.000000 
0.000000 0.000000 0.000000 

0.000000 0.000000 0.000000 
0.000000 0.000000 0.000000 
0.000000 0.000000 0.000000 

-0.000000 0.000000 0.000000 
0.000000 0.000000 0.000000 
0.000000 0.000000 0.000000 

0.000000 0.000000 0.000000 
0.000000 0.000000 0.000000 
0.000000 0.000000 0.000000 

0.000000 -0.000000 0.000000 
0.000000 0.000000 0.000000 
0.000000 0.000000 0.000000 

0.000000 0.000000 0.000000 
0.000000 0.000000 0.000000 
0.000000 0.000000 0.000000 

0.000000 0.000000 0.000000 
0.000000 -0.000000 0.000000 
0.000000 0.000000 0.000000 

0.000000 0.000000 0.000000 
0.000000 -0.000000 0.000000 
0.000000 0.000000 0.000000 

-0.000000 0.000000 0.000000 
0.000000 0.000000 0.000000 
0.000000 0.000000 0.000000 

0.000000 0.000000 0.000000 
0.000000 -0.000000 0.000000 
0.000000 0.000000 0.000000 

-0.000000 0.000000 0.000000 
0.000000 0.000000 0.000000 
0.000000 0.000000 0.000000 

0.000000 0.000000 0.000000 
0.000000 -0.000000 0.000000 
0.000000 0.000000 0.000000 

0.000000 0.000000 0.000000 
0.000000 0.000000 0.000000 
0.000000 0.000000 0.000000 

0.000000 0.000000 0.000000 
0.000000 -0.000000 0.000000 
0.000000 0.000000 0.000000 

0.000000 -0.000000 0.000000 
0.000000 0.000000 0.000000 
0.000000 0.000000 0.000000 

0.000000 0.000000 0.000000 
0.000000 0.000000 0.000000 
0.000000 0.000000 0.000000 

-0.000000 -0.000000 0.000000 
0.000000 -0.000000 0.000000 
0.000000 0.000000 0.000000 

0.000000 -0.000000 0.000000 
0.000000 0.000000 0.000000 
0.000000 0.000000 0.000000 

-0.000000 0.000000 0.000000 
0.000000 -0.000000 0.000000 
0.000000 0.000000 0.000000 

-0.000000 0.000000 0.000000 
0.000000 0.000000 0.000000 
0.000000 0.000000 0.000000 

0.000000 -0.000000 0.000000 
0.000000 -0.000000 0.000000 
0.000000 0.000000 0.000000 

0.000000 -0.000000 0.000000 
0.000000 -0.000000 0.000000 
0.000000 0.000000 0.000000 

0.000000 -0.000000 0.000000 
0.000000 0.000000 0.000000 
0.000000 0.000000 0.000000 

0.000000 -0.000000 0.000000 
0.000000 0.000000 0.000000 
0.000000 0.000000 0.000000 

0.000000 -0.000000 0.000000 
0.000000 0.000000 0.000000 
0.000000 0.000000 0.000000 

-0.000000 0.000000 0.000000 
0.000000 0.000000 0.000000 
0.000000 0.000000 0.000000 

-0.000000 -0.000000 0.000000 
0.000000 -0.000000 0.000000 
0.000000 0.000000 0.000000 

-0.000000 0.000000 0.000000 
0.000000 -0.000000 0.000000 
0.000000 0.000000 0.000000 

0.000000 -0.000000 0.000000 
0.000000 -0.000000 0.000000 
0.000000 0.000000 0.000000 

-0.000000 0.000000 0.000000 
0.000000 -0.000000 0.000000 
0.000000 0.000000 0.000000 

-0.000000 0.000000 0.000000 
0.000000 0.000000 0.000000 
0.000000 0.000000 0.000000 

-0.000000 -0.000000 0.000000 
0.000000 0.000000 0.000000 
0.000000 0.000000 0.000000 

-0.000000 -0.000000 0.000000 
0.000000 -0.000000 0.000000 
0.000000 0.000000 0.000000 

-0.000000 -0.000000 0.000000 
0.000000 0.000000 0.000000 
0.000000 0.000000 0.000000 

0.000000 0.000000 0.000000 
0.000000 -0.000000 0.000000 
0.000000 0.000000 0.000000 

0.000000 -0.000000 0.000000 
0.000000 0.000000 0.000000 
0.000000 0.000000 0.000000 

-0.000000 -0.000000 0.000000 
0.000000 0.000000 0.000000 
0.000000 0.000000 0.000000 

-0.000000 0.000000 0.000000 
0.000000 0.000000 0.000000 
0.000000 0.000000 0.000000 

-0.000000 -0.000000 0.000000 
0.000000 -0.000000 0.000000 
0.000000 0.000000 0.000000 

-0.000000 0.000000 0.000000 
0.000000 -0.000000 0.000000 
0.000000 0.000000 0.000000 

0.000000 -0.000000 0.000000 
0.000000 -0.000000 0.000000 
0.000000 0.000000 0.000000 

-0.000000 0.000000 0.000000 
0.000000 0.000000 0.000000 
0.000000 0.000000 0.000000 

0.000000 -0.000000 0.000000 
0.000000 -0.000000 0.000000 
0.000000 0.000000 0.000000 

0.000000 -0.000000 0.000000 
0.000000 0.000000 0.000000 
0.000000 0.000000 0.000000 

0.000000 -0.000000 0.000000 
0.000000 0.000000 0.000000 
0.000000 0.000000 0.000000 

0.000000 -0.000000 0.000000 
0.000000 -0.000000 0.000000 
0.000000 0.000000 0.000000 

0.000000 0.000000 0.000000 
0.000000 0.000000 0.000000 
0.000000 0.000000 0.000000 

0.000000 0.000000 0.000000 
0.000000 -0.000000 0.000000 
0.000000 0.000000 0.000000 

0.000000 -0.000000 0.000000 
0.000000 0.000000 0.000000 
0.000000 0.000000 0.000000 

0.000000 0.000000 0.000000 
0.000000 -0.000000 0.000000 
0.000000 0.000000 0.000000 

0.000000 -0.000000 0.000000 
0.000000 0.000000 0.000000 
0.000000 0.000000 0.000000 

0.000000 0.000000 0.000000 
0.000000 -0.000000 0.000000 
0.000000 0.000000 0.000000 

0.000000 -0.000000 0.000000 
0.000000 -0.000000 0.000000 
0.000000 0.000000 0.000000 

0.000000 -0.000000 0.000000 
0.000000 0.000000 0.000000 
0.000000 0.000000 0.000000 

0.000000 0.000000 0.000000 
0.000000 -0.000000 0.000000 
0.000000 0.000000 0.000000 

0.000000 0.000000 0.000000 
0.000000 -0.000000 0.000000 
0.000000 0.000000 0.000000 

0.000000 0.000000 0.000000 
0.000000 -0.000000 0.000000 
0.000000 0.000000 0.000000 

0.000000 0.000000 0.000000 
0.000000 -0.000000 0.000000 
0.000000 0.000000 0.000000 

0.000000 -0.000000 0.000000 
0.000000 -0.000000 0.000000 
0.000000 0.000000 0.000000 

0.000000 0.000000 0.000000 
0.000000 0.000000 0.000000 
0.000000 0.000000 0.000000 

-0.000000 0.000000 0.000000 
0.000000 -0.000000 0.000000 
0.000000 0.000000 0.000000 

0.000000 -0.000000 0.000000 
0.000000 -0.000000 0.000000 
0.000000 0.000000 0.000000 

0.000000 0.000000 0.000000 
0.000000 -0.000000 0.000000 
0.000000 0.000000 0.000000 

0.000000 0.000000 0.000000 
0.000000 0.000000 0.000000 
0.000000 0.000000 0.000000 

0.000000 0.000000 0.000000 
0.000000 0.000000 0.000000 
0.000000 0.000000 0.000000 

0.000000 0.000000 0.000000 
0.000000 0.000000 0.000000 
0.000000 0.000000 0.000000 

0.000000 -0.000000 0.000000 
0.000000 0.000000 0.000000 
0.000000 0.000000 0.000000 

0.000000 -0.000000 0.000000 
0.000000 -0.000000 0.000000 
0.000000 0.000000 0.000000 

0.000000 -0.000000 0.000000 
0.000000 0.000000 0.000000 
0.000000 0.000000 0.000000 

-0.000000 0.000000 0.000000 
0.000000 0.000000 0.000000 
0.000000 0.000000 0.000000 

0.000000 -0.000000 0.000000 
0.000000 -0.000000 0.000000 
0.000000 0.000000 0.000000 

0.000000 -0.000000 0.000000 
0.000000 -0.000000 0.000000 
0.000000 0.000000 0.000000 

-0.000000 -0.000000 0.000000 
0.000000 0.000000 0.000000 
0.000000 0.000000 0.000000 

-0.000000 0.000000 0.000000 
0.000000 0.000000 0.000000 
0.000000 0.000000 0.000000 

0.000000 0.000000 0.000000 
0.000000 -0.000000 0.000000 
0.000000 0.000000 0.000000 

0.000000 0.000000 0.000000 
0.000000 0.000000 0.000000 
0.000000 0.000000 0.000000 

-0.000000 0.000000 0.000000 
0.000000 0.000000 0.000000 
0.000000 0.000000 0.000000 

-0.000000 -0.000000 0.000000 
0.000000 0.000000 0.000000 
0.000000 0.000000 0.000000 

0.000000 0.000000 0.000000 
0.000000 0.000000 0.000000 
0.000000 0.000000 0.000000 

0.000000 -0.000000 0.000000 
0.000000 -0.000000 0.000000 
0.000000 0.000000 0.000000 

0.000000 -0.000000 0.000000 
0.000000 -0.000000 0.000000 
0.000000 0.000000 0.000000 

0.000000 -0.000000 0.000000 
0.000000 -0.000000 0.000000 
0.000000 0.000000 0.000000 

-0.000000 0.000000 0.000000 
0.000000 0.000000 0.000000 
0.000000 0.000000 0.000000 

-0.000000 -0.000000 0.000000 
0.000000 -0.000000 0.000000 
0.000000 0.000000 0.000000 

0.000000 -0.000000 0.000000 
0.000000 -0.000000 0.000000 
0.000000 0.000000 0.000000 

0.000000 0.000000 0.000000 
0.000000 0.000000 0.000000 
0.000000 0.000000 0.000000 

0.000000 0.000000 0.000000 
0.000000 0.000000 0.000000 
0.000000 0.000000 0.000000 

0.000000 -0.000000 0.000000 
0.000000 0.000000 0.000000 
0.000000 0.000000 0.000000 

-0.000000 -0.000000 0.000000 
0.000000 0.000000 0.000000 
0.000000 0.000000 0.000000 

0.000000 0.000000 0.000000 
0.000000 0.000000 0.000000 
0.000000 0.000000 0.000000 

0.000000 0.000000 0.000000 
0.000000 -0.000000 0.000000 
0.000000 0.000000 0.000000 

0.000000 -0.000000 0.000000 
0.000000 -0.000000 0.000000 
0.000000 0.000000 0.000000 

0.000000 -0.000000 0.000000 
0.000000 0.000000 0.000000 
0.000000 0.000000 0.000000 

0.000000 -0.000000 0.000000 
0.000000 0.000000 0.000000 
0.000000 0.000000 0.000000 

0.000000 0.000000 0.000000 
0.000000 -0.000000 0.000000 
0.000000 0.000000 0.000000 

0.000000 0.000000 0.000000 
0.000000 -0.000000 0.000000 
0.000000 0.000000 0.000000 

0.000000 0.000000 0.000000 
0.000000 0.000000 0.000000 
0.000000 0.000000 0.000000 

0.000000 -0.000000 0.000000 
0.000000 0.000000 0.000000 
0.000000 0.000000 0.000000 

0.000000 -0.000000 0.000000 
0.000000 -0.000000 0.000000 
0.000000 0.000000 0.000000 

0.000000 0.000000 0.000000 
0.000000 0.000000 0.000000 
0.000000 0.000000 0.000000 

-0.000000 0.000000 0.000000 
0.000000 0.000000 0.000000 
0.000000 0.000000 0.000000 

0.000000 0.000000 0.000000 
0.000000 -0.000000 0.000000 
0.000000 0.000000 0.000000 

0.000000 0.000000 0.000000 
0.000000 -0.000000 0.000000 
0.000000 0.000000 0.000000 

0.000000 0.000000 0.000000 
0.000000 0.000000 0.000000 
0.000000 0.000000 0.000000 

0.000000 0.000000 0.000000 
0.000000 0.000000 0.000000 
0.000000 0.000000 0.000000 

0.000000 -0.000000 0.000000 
0.000000 0.000000 0.000000 
0.000000 0.000000 0.000000 

0.000000 -0.000000 0.000000 
0.000000 0.000000 0.000000 
0.000000 0.000000 0.000000 

0.000000 -0.000000 0.000000 
0.000000 -0.000000 0.000000 
0.000000 0.000000 0.000000 

0.000000 0.000000 0.000000 
0.000000 0.000000 0.000000 
0.000000 0.000000 0.000000 

0.000000 -0.000000 0.000000 
0.000000 -0.000000 0.000000 
0.000000 0.000000 0.000000 

0.000000 -0.000000 0.000000 
0.000000 -0.000000 0.000000 
0.000000 0.000000 0.000000 

-0.000000 -0.000000 0.000000 
0.000000 0.000000 0.000000 
0.000000 0.000000 0.000000 

0.000000 0.000000 0.000000 
0.000000 0.000000 0.000000 
0.000000 0.000000 0.000000 

0.000000 -0.000000 0.000000 
0.000000 0.000000 0.000000 
0.000000 0.000000 0.000000 

0.000000 0.000000 0.000000 
0.000000 -0.000000 0.000000 
0.000000 0.000000 0.000000 

0.000000 0.000000 0.000000 
0.000000 0.000000 0.000000 
0.000000 0.000000 0.000000 

0.000000 0.000000 0.000000 
0.000000 0.000000 0.000000 
0.000000 0.000000 0.000000 

-0.000000 0.000000 0.000000 
0.000000 -0.000000 0.000000 
0.000000 0.000000 0.000000 

-0.000000 -0.000000 0.000000 
0.000000 -0.000000 0.000000 
0.000000 0.000000 0.000000 

-0.000000 -0.000000 0.000000 
0.000000 -0.000000 0.000000 
0.000000 0.000000 0.000000 

