# vtk DataFile Version 3.0 
vtk output 
ASCII 
DATASET UNSTRUCTURED_GRID 
POINTS 175 float 
-0.026061 -0.552666 0.000000 
-0.106992 -0.484611 0.000000 
-0.054870 -0.492844 0.000000 
-0.028809 -0.446960 0.000000 
-0.186430 -0.420535 0.000000 
-0.137056 -0.423062 0.000000 
-0.114311 -0.369414 0.000000 
-0.058186 -0.385080 0.000000 
-0.029377 -0.344903 0.000000 
-0.265318 -0.357380 0.000000 
-0.217198 -0.358179 0.000000 
-0.196633 -0.300883 0.000000 
-0.143120 -0.309591 0.000000 
-0.116563 -0.262323 0.000000 
-0.058945 -0.281969 0.000000 
-0.029568 -0.243849 0.000000 
-0.344206 -0.294224 0.000000 
-0.296791 -0.294217 0.000000 
-0.278030 -0.234274 0.000000 
-0.225992 -0.240140 0.000000 
-0.201664 -0.188023 0.000000 
-0.145749 -0.201497 0.000000 
-0.117890 -0.157154 0.000000 
-0.059328 -0.179860 0.000000 
-0.029759 -0.142794 0.000000 
-0.058559 -0.593417 0.000000 
-0.162226 -0.614260 0.000000 
-0.123292 -0.578642 0.000000 
-0.142917 -0.529659 0.000000 
-0.261851 -0.636416 0.000000 
-0.229092 -0.599389 0.000000 
-0.256854 -0.548157 0.000000 
-0.209613 -0.514045 0.000000 
-0.223062 -0.466471 0.000000 
-0.360414 -0.658716 0.000000 
-0.329787 -0.621593 0.000000 
-0.361761 -0.569791 0.000000 
-0.321587 -0.533382 0.000000 
-0.341985 -0.483148 0.000000 
-0.290702 -0.450349 0.000000 
-0.302189 -0.403614 0.000000 
-0.458977 -0.681016 0.000000 
-0.429420 -0.643942 0.000000 
-0.464588 -0.591900 0.000000 
-0.427556 -0.554872 0.000000 
-0.453135 -0.503358 0.000000 
-0.407738 -0.468042 0.000000 
-0.425037 -0.418614 0.000000 
-0.370772 -0.386985 0.000000 
-0.381315 -0.340758 0.000000 
-0.046960 -0.644232 0.000000 
-0.095301 -0.738278 0.000000 
-0.098873 -0.685631 0.000000 
-0.149405 -0.670433 0.000000 
-0.140093 -0.829982 0.000000 
-0.148617 -0.781284 0.000000 
-0.205981 -0.771047 0.000000 
-0.203197 -0.712843 0.000000 
-0.248777 -0.693697 0.000000 
-0.184111 -0.920946 0.000000 
-0.194039 -0.873855 0.000000 
-0.254475 -0.866555 0.000000 
-0.257893 -0.812445 0.000000 
-0.309886 -0.797073 0.000000 
-0.303554 -0.736528 0.000000 
-0.347255 -0.716370 0.000000 
-0.228129 -1.011909 0.000000 
-0.238687 -0.965685 0.000000 
-0.301302 -0.960733 0.000000 
-0.307162 -0.908694 0.000000 
-0.363386 -0.896573 0.000000 
-0.362692 -0.839062 0.000000 
-0.412122 -0.821769 0.000000 
-0.403017 -0.759622 0.000000 
-0.445733 -0.739043 0.000000 
-0.000000 -0.666847 0.000000 
0.043388 -0.763278 0.000000 
-0.000000 -0.733246 0.000000 
-0.043388 -0.763278 0.000000 
0.087158 -0.855474 0.000000 
0.043769 -0.831776 0.000000 
-0.000000 -0.870242 0.000000 
-0.043769 -0.831776 0.000000 
-0.087158 -0.855474 0.000000 
0.130831 -0.946604 0.000000 
0.087824 -0.925005 0.000000 
0.044436 -0.967705 0.000000 
-0.000000 -0.936640 0.000000 
-0.044436 -0.967705 0.000000 
-0.087824 -0.925005 0.000000 
-0.130831 -0.946604 0.000000 
0.174505 -1.037734 0.000000 
0.131782 -1.017168 0.000000 
0.088871 -1.063034 0.000000 
0.044532 -1.035170 0.000000 
-0.000000 -1.071571 0.000000 
-0.044532 -1.035170 0.000000 
-0.088871 -1.063034 0.000000 
-0.131782 -1.017168 0.000000 
-0.174505 -1.037734 0.000000 
0.046960 -0.644232 0.000000 
0.149405 -0.670433 0.000000 
0.098873 -0.685631 0.000000 
0.095301 -0.738278 0.000000 
0.248777 -0.693697 0.000000 
0.203197 -0.712843 0.000000 
0.205981 -0.771047 0.000000 
0.148617 -0.781284 0.000000 
0.140093 -0.829982 0.000000 
0.347255 -0.716370 0.000000 
0.303554 -0.736528 0.000000 
0.309886 -0.797073 0.000000 
0.257893 -0.812445 0.000000 
0.254475 -0.866555 0.000000 
0.194039 -0.873855 0.000000 
0.184111 -0.920946 0.000000 
0.445733 -0.739043 0.000000 
0.403017 -0.759622 0.000000 
0.412122 -0.821769 0.000000 
0.362692 -0.839062 0.000000 
0.363386 -0.896573 0.000000 
0.307162 -0.908694 0.000000 
0.301302 -0.960733 0.000000 
0.238687 -0.965685 0.000000 
0.228129 -1.011909 0.000000 
0.058559 -0.593417 0.000000 
0.142917 -0.529659 0.000000 
0.123292 -0.578642 0.000000 
0.162226 -0.614260 0.000000 
0.223062 -0.466471 0.000000 
0.209613 -0.514045 0.000000 
0.256854 -0.548157 0.000000 
0.229092 -0.599389 0.000000 
0.261851 -0.636416 0.000000 
0.302189 -0.403614 0.000000 
0.290702 -0.450349 0.000000 
0.341985 -0.483148 0.000000 
0.321587 -0.533382 0.000000 
0.361761 -0.569791 0.000000 
0.329787 -0.621593 0.000000 
0.360414 -0.658716 0.000000 
0.381315 -0.340758 0.000000 
0.370772 -0.386985 0.000000 
0.425037 -0.418614 0.000000 
0.407738 -0.468042 0.000000 
0.453135 -0.503358 0.000000 
0.427556 -0.554872 0.000000 
0.464588 -0.591900 0.000000 
0.429420 -0.643942 0.000000 
0.458977 -0.681016 0.000000 
0.026061 -0.552666 0.000000 
0.028809 -0.446960 0.000000 
0.054870 -0.492844 0.000000 
0.106992 -0.484611 0.000000 
0.029377 -0.344903 0.000000 
0.058186 -0.385080 0.000000 
0.114311 -0.369414 0.000000 
0.137056 -0.423062 0.000000 
0.186430 -0.420535 0.000000 
0.029568 -0.243849 0.000000 
0.058945 -0.281969 0.000000 
0.116563 -0.262323 0.000000 
0.143120 -0.309591 0.000000 
0.196633 -0.300883 0.000000 
0.217198 -0.358179 0.000000 
0.265318 -0.357380 0.000000 
0.029759 -0.142794 0.000000 
0.059328 -0.179860 0.000000 
0.117890 -0.157154 0.000000 
0.145749 -0.201497 0.000000 
0.201664 -0.188023 0.000000 
0.225992 -0.240140 0.000000 
0.278030 -0.234274 0.000000 
0.296791 -0.294217 0.000000 
0.344206 -0.294224 0.000000 
CELLS 175 350 
1 0 
1 1 
1 2 
1 3 
1 4 
1 5 
1 6 
1 7 
1 8 
1 9 
1 10 
1 11 
1 12 
1 13 
1 14 
1 15 
1 16 
1 17 
1 18 
1 19 
1 20 
1 21 
1 22 
1 23 
1 24 
1 25 
1 26 
1 27 
1 28 
1 29 
1 30 
1 31 
1 32 
1 33 
1 34 
1 35 
1 36 
1 37 
1 38 
1 39 
1 40 
1 41 
1 42 
1 43 
1 44 
1 45 
1 46 
1 47 
1 48 
1 49 
1 50 
1 51 
1 52 
1 53 
1 54 
1 55 
1 56 
1 57 
1 58 
1 59 
1 60 
1 61 
1 62 
1 63 
1 64 
1 65 
1 66 
1 67 
1 68 
1 69 
1 70 
1 71 
1 72 
1 73 
1 74 
1 75 
1 76 
1 77 
1 78 
1 79 
1 80 
1 81 
1 82 
1 83 
1 84 
1 85 
1 86 
1 87 
1 88 
1 89 
1 90 
1 91 
1 92 
1 93 
1 94 
1 95 
1 96 
1 97 
1 98 
1 99 
1 100 
1 101 
1 102 
1 103 
1 104 
1 105 
1 106 
1 107 
1 108 
1 109 
1 110 
1 111 
1 112 
1 113 
1 114 
1 115 
1 116 
1 117 
1 118 
1 119 
1 120 
1 121 
1 122 
1 123 
1 124 
1 125 
1 126 
1 127 
1 128 
1 129 
1 130 
1 131 
1 132 
1 133 
1 134 
1 135 
1 136 
1 137 
1 138 
1 139 
1 140 
1 141 
1 142 
1 143 
1 144 
1 145 
1 146 
1 147 
1 148 
1 149 
1 150 
1 151 
1 152 
1 153 
1 154 
1 155 
1 156 
1 157 
1 158 
1 159 
1 160 
1 161 
1 162 
1 163 
1 164 
1 165 
1 166 
1 167 
1 168 
1 169 
1 170 
1 171 
1 172 
1 173 
1 174 
CELL_TYPES 175 
1 
1 
1 
1 
1 
1 
1 
1 
1 
1 
1 
1 
1 
1 
1 
1 
1 
1 
1 
1 
1 
1 
1 
1 
1 
1 
1 
1 
1 
1 
1 
1 
1 
1 
1 
1 
1 
1 
1 
1 
1 
1 
1 
1 
1 
1 
1 
1 
1 
1 
1 
1 
1 
1 
1 
1 
1 
1 
1 
1 
1 
1 
1 
1 
1 
1 
1 
1 
1 
1 
1 
1 
1 
1 
1 
1 
1 
1 
1 
1 
1 
1 
1 
1 
1 
1 
1 
1 
1 
1 
1 
1 
1 
1 
1 
1 
1 
1 
1 
1 
1 
1 
1 
1 
1 
1 
1 
1 
1 
1 
1 
1 
1 
1 
1 
1 
1 
1 
1 
1 
1 
1 
1 
1 
1 
1 
1 
1 
1 
1 
1 
1 
1 
1 
1 
1 
1 
1 
1 
1 
1 
1 
1 
1 
1 
1 
1 
1 
1 
1 
1 
1 
1 
1 
1 
1 
1 
1 
1 
1 
1 
1 
1 
1 
1 
1 
1 
1 
1 
1 
1 
1 
1 
1 
1 
POINT_DATA 175 
VECTORS X_GC float 
-0.026061 -0.552666 0.000000 
-0.106992 -0.484611 0.000000 
-0.054870 -0.492844 0.000000 
-0.028809 -0.446960 0.000000 
-0.186430 -0.420535 0.000000 
-0.137056 -0.423062 0.000000 
-0.114311 -0.369414 0.000000 
-0.058186 -0.385080 0.000000 
-0.029377 -0.344903 0.000000 
-0.265318 -0.357380 0.000000 
-0.217198 -0.358179 0.000000 
-0.196633 -0.300883 0.000000 
-0.143120 -0.309591 0.000000 
-0.116563 -0.262323 0.000000 
-0.058945 -0.281969 0.000000 
-0.029568 -0.243849 0.000000 
-0.344206 -0.294224 0.000000 
-0.296791 -0.294217 0.000000 
-0.278030 -0.234274 0.000000 
-0.225992 -0.240140 0.000000 
-0.201664 -0.188023 0.000000 
-0.145749 -0.201497 0.000000 
-0.117890 -0.157154 0.000000 
-0.059328 -0.179860 0.000000 
-0.029759 -0.142794 0.000000 
-0.058559 -0.593417 0.000000 
-0.162226 -0.614260 0.000000 
-0.123292 -0.578642 0.000000 
-0.142917 -0.529659 0.000000 
-0.261851 -0.636416 0.000000 
-0.229092 -0.599389 0.000000 
-0.256854 -0.548157 0.000000 
-0.209613 -0.514045 0.000000 
-0.223062 -0.466471 0.000000 
-0.360414 -0.658716 0.000000 
-0.329787 -0.621593 0.000000 
-0.361761 -0.569791 0.000000 
-0.321587 -0.533382 0.000000 
-0.341985 -0.483148 0.000000 
-0.290702 -0.450349 0.000000 
-0.302189 -0.403614 0.000000 
-0.458977 -0.681016 0.000000 
-0.429420 -0.643942 0.000000 
-0.464588 -0.591900 0.000000 
-0.427556 -0.554872 0.000000 
-0.453135 -0.503358 0.000000 
-0.407738 -0.468042 0.000000 
-0.425037 -0.418614 0.000000 
-0.370772 -0.386985 0.000000 
-0.381315 -0.340758 0.000000 
-0.046960 -0.644232 0.000000 
-0.095301 -0.738278 0.000000 
-0.098873 -0.685631 0.000000 
-0.149405 -0.670433 0.000000 
-0.140093 -0.829982 0.000000 
-0.148617 -0.781284 0.000000 
-0.205981 -0.771047 0.000000 
-0.203197 -0.712843 0.000000 
-0.248777 -0.693697 0.000000 
-0.184111 -0.920946 0.000000 
-0.194039 -0.873855 0.000000 
-0.254475 -0.866555 0.000000 
-0.257893 -0.812445 0.000000 
-0.309886 -0.797073 0.000000 
-0.303554 -0.736528 0.000000 
-0.347255 -0.716370 0.000000 
-0.228129 -1.011909 0.000000 
-0.238687 -0.965685 0.000000 
-0.301302 -0.960733 0.000000 
-0.307162 -0.908694 0.000000 
-0.363386 -0.896573 0.000000 
-0.362692 -0.839062 0.000000 
-0.412122 -0.821769 0.000000 
-0.403017 -0.759622 0.000000 
-0.445733 -0.739043 0.000000 
-0.000000 -0.666847 0.000000 
0.043388 -0.763278 0.000000 
-0.000000 -0.733246 0.000000 
-0.043388 -0.763278 0.000000 
0.087158 -0.855474 0.000000 
0.043769 -0.831776 0.000000 
-0.000000 -0.870242 0.000000 
-0.043769 -0.831776 0.000000 
-0.087158 -0.855474 0.000000 
0.130831 -0.946604 0.000000 
0.087824 -0.925005 0.000000 
0.044436 -0.967705 0.000000 
-0.000000 -0.936640 0.000000 
-0.044436 -0.967705 0.000000 
-0.087824 -0.925005 0.000000 
-0.130831 -0.946604 0.000000 
0.174505 -1.037734 0.000000 
0.131782 -1.017168 0.000000 
0.088871 -1.063034 0.000000 
0.044532 -1.035170 0.000000 
-0.000000 -1.071571 0.000000 
-0.044532 -1.035170 0.000000 
-0.088871 -1.063034 0.000000 
-0.131782 -1.017168 0.000000 
-0.174505 -1.037734 0.000000 
0.046960 -0.644232 0.000000 
0.149405 -0.670433 0.000000 
0.098873 -0.685631 0.000000 
0.095301 -0.738278 0.000000 
0.248777 -0.693697 0.000000 
0.203197 -0.712843 0.000000 
0.205981 -0.771047 0.000000 
0.148617 -0.781284 0.000000 
0.140093 -0.829982 0.000000 
0.347255 -0.716370 0.000000 
0.303554 -0.736528 0.000000 
0.309886 -0.797073 0.000000 
0.257893 -0.812445 0.000000 
0.254475 -0.866555 0.000000 
0.194039 -0.873855 0.000000 
0.184111 -0.920946 0.000000 
0.445733 -0.739043 0.000000 
0.403017 -0.759622 0.000000 
0.412122 -0.821769 0.000000 
0.362692 -0.839062 0.000000 
0.363386 -0.896573 0.000000 
0.307162 -0.908694 0.000000 
0.301302 -0.960733 0.000000 
0.238687 -0.965685 0.000000 
0.228129 -1.011909 0.000000 
0.058559 -0.593417 0.000000 
0.142917 -0.529659 0.000000 
0.123292 -0.578642 0.000000 
0.162226 -0.614260 0.000000 
0.223062 -0.466471 0.000000 
0.209613 -0.514045 0.000000 
0.256854 -0.548157 0.000000 
0.229092 -0.599389 0.000000 
0.261851 -0.636416 0.000000 
0.302189 -0.403614 0.000000 
0.290702 -0.450349 0.000000 
0.341985 -0.483148 0.000000 
0.321587 -0.533382 0.000000 
0.361761 -0.569791 0.000000 
0.329787 -0.621593 0.000000 
0.360414 -0.658716 0.000000 
0.381315 -0.340758 0.000000 
0.370772 -0.386985 0.000000 
0.425037 -0.418614 0.000000 
0.407738 -0.468042 0.000000 
0.453135 -0.503358 0.000000 
0.427556 -0.554872 0.000000 
0.464588 -0.591900 0.000000 
0.429420 -0.643942 0.000000 
0.458977 -0.681016 0.000000 
0.026061 -0.552666 0.000000 
0.028809 -0.446960 0.000000 
0.054870 -0.492844 0.000000 
0.106992 -0.484611 0.000000 
0.029377 -0.344903 0.000000 
0.058186 -0.385080 0.000000 
0.114311 -0.369414 0.000000 
0.137056 -0.423062 0.000000 
0.186430 -0.420535 0.000000 
0.029568 -0.243849 0.000000 
0.058945 -0.281969 0.000000 
0.116563 -0.262323 0.000000 
0.143120 -0.309591 0.000000 
0.196633 -0.300883 0.000000 
0.217198 -0.358179 0.000000 
0.265318 -0.357380 0.000000 
0.029759 -0.142794 0.000000 
0.059328 -0.179860 0.000000 
0.117890 -0.157154 0.000000 
0.145749 -0.201497 0.000000 
0.201664 -0.188023 0.000000 
0.225992 -0.240140 0.000000 
0.278030 -0.234274 0.000000 
0.296791 -0.294217 0.000000 
0.344206 -0.294224 0.000000 
VECTORS X_EC float 
0.338794 -0.039005 0.000000 
-0.609100 -0.957753 0.000000 
0.713312 -0.846613 0.000000 
0.374519 0.533958 0.000000 
0.423588 0.177227 0.000000 
-0.218274 0.211331 0.000000 
-0.513962 -0.512908 0.000000 
0.756418 -0.301422 0.000000 
0.381900 -0.843814 0.000000 
-0.550868 -0.675376 0.000000 
0.823577 -0.664580 0.000000 
0.556234 0.561916 0.000000 
-0.139443 0.679484 0.000000 
-0.484677 0.041360 0.000000 
0.766286 0.306575 0.000000 
0.384386 -0.208045 0.000000 
0.474677 0.472021 0.000000 
-0.141715 0.471925 0.000000 
-0.385608 -0.337304 0.000000 
0.937896 -0.258108 0.000000 
0.621631 -0.961688 0.000000 
-0.105264 -0.779789 0.000000 
-0.467428 0.621585 0.000000 
0.771260 0.928113 0.000000 
0.386873 0.427724 0.000000 
0.761262 0.511129 0.000000 
0.108942 0.792506 0.000000 
-0.397202 0.311667 0.000000 
-0.142083 -0.349608 0.000000 
-0.595936 -0.908383 0.000000 
0.978194 0.591751 0.000000 
-0.660903 -0.099874 0.000000 
0.724964 -0.560394 0.000000 
0.899809 0.797357 0.000000 
0.685384 -0.607331 0.000000 
0.287229 0.891510 0.000000 
0.702895 0.192182 0.000000 
0.180633 -0.299337 0.000000 
0.445811 -0.977496 0.000000 
-0.220880 0.579718 0.000000 
-0.071546 -0.051208 0.000000 
-0.033296 -0.306279 0.000000 
-0.417537 -0.806789 0.000000 
0.039645 0.490649 0.000000 
-0.441768 -0.009222 0.000000 
-0.109248 -0.704673 0.000000 
-0.699407 0.818572 0.000000 
-0.474522 0.151292 0.000000 
0.820030 -0.275701 0.000000 
0.957100 -0.899773 0.000000 
0.610485 -0.802864 0.000000 
-0.761092 0.466755 0.000000 
-0.714655 -0.243982 0.000000 
-0.057734 -0.449150 0.000000 
-0.178789 -0.295241 0.000000 
-0.067979 -0.952667 0.000000 
0.677748 0.909130 0.000000 
0.641556 0.123385 0.000000 
-0.765897 -0.135094 0.000000 
0.393446 0.932768 0.000000 
0.522510 0.297039 0.000000 
-0.691820 0.198494 0.000000 
-0.647393 -0.531988 0.000000 
0.028512 -0.739515 0.000000 
-0.053800 0.443125 0.000000 
0.514316 0.170994 0.000000 
0.965681 0.160778 0.000000 
-0.897068 -0.463251 0.000000 
-0.083078 -0.530104 0.000000 
-0.006893 0.767371 0.000000 
0.724017 0.603738 0.000000 
0.714996 -0.172665 0.000000 
-0.642413 -0.406123 0.000000 
-0.760780 0.754897 0.000000 
-0.205471 0.477082 0.000000 
0.000000 -0.497563 0.000000 
-0.564049 0.804250 0.000000 
0.000000 0.398814 0.000000 
0.564049 0.804250 0.000000 
0.866949 0.048906 0.000000 
-0.569003 -0.271026 0.000000 
0.000000 0.248263 0.000000 
0.569003 -0.271026 0.000000 
-0.866949 0.048906 0.000000 
0.299194 -0.720844 0.000000 
0.858290 0.987572 0.000000 
-0.577662 -0.435982 0.000000 
0.000000 -0.855361 0.000000 
0.577662 -0.435982 0.000000 
-0.858290 0.987572 0.000000 
-0.299194 -0.720844 0.000000 
-0.268560 0.509406 0.000000 
0.286830 0.231764 0.000000 
0.844677 0.850962 0.000000 
-0.578910 0.474800 0.000000 
0.000000 0.966204 0.000000 
0.578910 0.474800 0.000000 
-0.844677 0.850962 0.000000 
-0.286830 0.231764 0.000000 
0.268560 0.509406 0.000000 
-0.610485 -0.802864 0.000000 
0.057734 -0.449149 0.000000 
0.714655 -0.243982 0.000000 
0.761092 0.466755 0.000000 
0.765897 -0.135094 0.000000 
-0.641556 0.123385 0.000000 
-0.677748 0.909130 0.000000 
0.067979 -0.952667 0.000000 
0.178789 -0.295241 0.000000 
-0.514316 0.170994 0.000000 
0.053800 0.443125 0.000000 
-0.028512 -0.739515 0.000000 
0.647393 -0.531988 0.000000 
0.691820 0.198494 0.000000 
-0.522510 0.297039 0.000000 
-0.393446 0.932768 0.000000 
0.205471 0.477082 0.000000 
0.760780 0.754897 0.000000 
0.642413 -0.406123 0.000000 
-0.714996 -0.172665 0.000000 
-0.724017 0.603738 0.000000 
0.006894 0.767371 0.000000 
0.083078 -0.530104 0.000000 
0.897068 -0.463251 0.000000 
-0.965681 0.160778 0.000000 
-0.761262 0.511129 0.000000 
0.142083 -0.349608 0.000000 
0.397202 0.311667 0.000000 
-0.108942 0.792506 0.000000 
-0.899809 0.797357 0.000000 
-0.724964 -0.560394 0.000000 
0.660903 -0.099874 0.000000 
-0.978194 0.591751 0.000000 
0.595936 -0.908383 0.000000 
0.071546 -0.051208 0.000000 
0.220880 0.579718 0.000000 
-0.445811 -0.977496 0.000000 
-0.180633 -0.299337 0.000000 
-0.702895 0.192182 0.000000 
-0.287229 0.891510 0.000000 
-0.685384 -0.607331 0.000000 
-0.957100 -0.899773 0.000000 
-0.820030 -0.275701 0.000000 
0.474522 0.151292 0.000000 
0.699407 0.818572 0.000000 
0.109248 -0.704673 0.000000 
0.441768 -0.009222 0.000000 
-0.039645 0.490649 0.000000 
0.417537 -0.806788 0.000000 
0.033296 -0.306279 0.000000 
-0.338794 -0.039005 0.000000 
-0.374519 0.533958 0.000000 
-0.713312 -0.846613 0.000000 
0.609100 -0.957753 0.000000 
-0.381900 -0.843814 0.000000 
-0.756418 -0.301422 0.000000 
0.513962 -0.512908 0.000000 
0.218274 0.211331 0.000000 
-0.423588 0.177227 0.000000 
-0.384386 -0.208045 0.000000 
-0.766286 0.306575 0.000000 
0.484677 0.041360 0.000000 
0.139443 0.679484 0.000000 
-0.556234 0.561916 0.000000 
-0.823577 -0.664580 0.000000 
0.550868 -0.675376 0.000000 
-0.386873 0.427724 0.000000 
-0.771260 0.928113 0.000000 
0.467428 0.621585 0.000000 
0.105264 -0.779789 0.000000 
-0.621631 -0.961688 0.000000 
-0.937896 -0.258108 0.000000 
0.385608 -0.337304 0.000000 
0.141715 0.471925 0.000000 
-0.474677 0.472021 0.000000 
CELL_DATA 175 
SCALARS MASS float 
LOOKUP_TABLE default 
0.078183 
0.086427 
0.094672 
0.086427 
0.088131 
0.092111 
0.085854 
0.092111 
0.088131 
0.088705 
0.091000 
0.086983 
0.091556 
0.086983 
0.091000 
0.088705 
0.089278 
0.091574 
0.089278 
0.092722 
0.089278 
0.092722 
0.089278 
0.091574 
0.089278 
0.078183 
0.086427 
0.094672 
0.086427 
0.088131 
0.092111 
0.085854 
0.092111 
0.088131 
0.088705 
0.091000 
0.086983 
0.091556 
0.086983 
0.091000 
0.088705 
0.089278 
0.091574 
0.089278 
0.092722 
0.089278 
0.092722 
0.089278 
0.091574 
0.089278 
0.078183 
0.086427 
0.094672 
0.086427 
0.088131 
0.092111 
0.085854 
0.092111 
0.088131 
0.088705 
0.091000 
0.086983 
0.091556 
0.086983 
0.091000 
0.088705 
0.089278 
0.091574 
0.089278 
0.092722 
0.089278 
0.092722 
0.089278 
0.091574 
0.089278 
0.078183 
0.086427 
0.094672 
0.086427 
0.088131 
0.092111 
0.085854 
0.092111 
0.088131 
0.088705 
0.091000 
0.086983 
0.091556 
0.086983 
0.091000 
0.088705 
0.089278 
0.091574 
0.089278 
0.092722 
0.089278 
0.092722 
0.089278 
0.091574 
0.089278 
0.078183 
0.086427 
0.094672 
0.086427 
0.088131 
0.092111 
0.085854 
0.092111 
0.088131 
0.088705 
0.091000 
0.086983 
0.091556 
0.086983 
0.091000 
0.088705 
0.089278 
0.091574 
0.089278 
0.092722 
0.089278 
0.092722 
0.089278 
0.091574 
0.089278 
0.078183 
0.086427 
0.094672 
0.086427 
0.088131 
0.092111 
0.085854 
0.092111 
0.088131 
0.088705 
0.091000 
0.086983 
0.091556 
0.086983 
0.091000 
0.088705 
0.089278 
0.091574 
0.089278 
0.092722 
0.089278 
0.092722 
0.089278 
0.091574 
0.089278 
0.078183 
0.086427 
0.094672 
0.086427 
0.088131 
0.092111 
0.085854 
0.092111 
0.088131 
0.088705 
0.091000 
0.086983 
0.091556 
0.086983 
0.091000 
0.088705 
0.089278 
0.091574 
0.089278 
0.092722 
0.089278 
0.092722 
0.089278 
0.091574 
0.089278 
SCALARS MASS float 
LOOKUP_TABLE default 
0.078183 
0.086427 
0.094672 
0.086427 
0.088131 
0.092111 
0.085854 
0.092111 
0.088131 
0.088705 
0.091000 
0.086983 
0.091556 
0.086983 
0.091000 
0.088705 
0.089278 
0.091574 
0.089278 
0.092722 
0.089278 
0.092722 
0.089278 
0.091574 
0.089278 
0.078183 
0.086427 
0.094672 
0.086427 
0.088131 
0.092111 
0.085854 
0.092111 
0.088131 
0.088705 
0.091000 
0.086983 
0.091556 
0.086983 
0.091000 
0.088705 
0.089278 
0.091574 
0.089278 
0.092722 
0.089278 
0.092722 
0.089278 
0.091574 
0.089278 
0.078183 
0.086427 
0.094672 
0.086427 
0.088131 
0.092111 
0.085854 
0.092111 
0.088131 
0.088705 
0.091000 
0.086983 
0.091556 
0.086983 
0.091000 
0.088705 
0.089278 
0.091574 
0.089278 
0.092722 
0.089278 
0.092722 
0.089278 
0.091574 
0.089278 
0.078183 
0.086427 
0.094672 
0.086427 
0.088131 
0.092111 
0.085854 
0.092111 
0.088131 
0.088705 
0.091000 
0.086983 
0.091556 
0.086983 
0.091000 
0.088705 
0.089278 
0.091574 
0.089278 
0.092722 
0.089278 
0.092722 
0.089278 
0.091574 
0.089278 
0.078183 
0.086427 
0.094672 
0.086427 
0.088131 
0.092111 
0.085854 
0.092111 
0.088131 
0.088705 
0.091000 
0.086983 
0.091556 
0.086983 
0.091000 
0.088705 
0.089278 
0.091574 
0.089278 
0.092722 
0.089278 
0.092722 
0.089278 
0.091574 
0.089278 
0.078183 
0.086427 
0.094672 
0.086427 
0.088131 
0.092111 
0.085854 
0.092111 
0.088131 
0.088705 
0.091000 
0.086983 
0.091556 
0.086983 
0.091000 
0.088705 
0.089278 
0.091574 
0.089278 
0.092722 
0.089278 
0.092722 
0.089278 
0.091574 
0.089278 
0.078183 
0.086427 
0.094672 
0.086427 
0.088131 
0.092111 
0.085854 
0.092111 
0.088131 
0.088705 
0.091000 
0.086983 
0.091556 
0.086983 
0.091000 
0.088705 
0.089278 
0.091574 
0.089278 
0.092722 
0.089278 
0.092722 
0.089278 
0.091574 
0.089278 
SCALARS DENSITY float 
LOOKUP_TABLE default 
20.000000 
20.000000 
20.000000 
20.000000 
20.000000 
20.000000 
20.000000 
20.000000 
20.000000 
20.000000 
20.000000 
20.000000 
20.000000 
20.000000 
20.000000 
20.000000 
20.000000 
20.000000 
20.000000 
20.000000 
20.000000 
20.000000 
20.000000 
20.000000 
20.000000 
20.000000 
20.000000 
20.000000 
20.000000 
20.000000 
20.000000 
20.000000 
20.000000 
20.000000 
20.000000 
20.000000 
20.000000 
20.000000 
20.000000 
20.000000 
20.000000 
20.000000 
20.000000 
20.000000 
20.000000 
20.000000 
20.000000 
20.000000 
20.000000 
20.000000 
20.000000 
20.000000 
20.000000 
20.000000 
20.000000 
20.000000 
20.000000 
20.000000 
20.000000 
20.000000 
20.000000 
20.000000 
20.000000 
20.000000 
20.000000 
20.000000 
20.000000 
20.000000 
20.000000 
20.000000 
20.000000 
20.000000 
20.000000 
20.000000 
20.000000 
20.000000 
20.000000 
20.000000 
20.000000 
20.000000 
20.000000 
20.000000 
20.000000 
20.000000 
20.000000 
20.000000 
20.000000 
20.000000 
20.000000 
20.000000 
20.000000 
20.000000 
20.000000 
20.000000 
20.000000 
20.000000 
20.000000 
20.000000 
20.000000 
20.000000 
20.000000 
20.000000 
20.000000 
20.000000 
20.000000 
20.000000 
20.000000 
20.000000 
20.000000 
20.000000 
20.000000 
20.000000 
20.000000 
20.000000 
20.000000 
20.000000 
20.000000 
20.000000 
20.000000 
20.000000 
20.000000 
20.000000 
20.000000 
20.000000 
20.000000 
20.000000 
20.000000 
20.000000 
20.000000 
20.000000 
20.000000 
20.000000 
20.000000 
20.000000 
20.000000 
20.000000 
20.000000 
20.000000 
20.000000 
20.000000 
20.000000 
20.000000 
20.000000 
20.000000 
20.000000 
20.000000 
20.000000 
20.000000 
20.000000 
20.000000 
20.000000 
20.000000 
20.000000 
20.000000 
20.000000 
20.000000 
20.000000 
20.000000 
20.000000 
20.000000 
20.000000 
20.000000 
20.000000 
20.000000 
20.000000 
20.000000 
20.000000 
20.000000 
20.000000 
20.000000 
20.000000 
20.000000 
20.000000 
20.000000 
20.000000 
SCALARS ELEM_i float 
LOOKUP_TABLE default 
178 
205 
178 
179 
206 
206 
206 
179 
179 
233 
206 
207 
207 
207 
180 
180 
234 
234 
234 
207 
207 
207 
208 
181 
181 
178 
205 
205 
205 
231 
205 
232 
205 
206 
231 
232 
232 
232 
232 
233 
233 
258 
258 
259 
259 
259 
260 
260 
233 
233 
177 
204 
204 
204 
203 
203 
204 
204 
231 
203 
203 
230 
230 
230 
231 
231 
202 
229 
229 
230 
230 
230 
257 
258 
258 
177 
177 
177 
177 
149 
176 
176 
176 
203 
148 
149 
175 
175 
175 
203 
202 
148 
148 
148 
175 
175 
175 
202 
202 
202 
177 
150 
150 
150 
123 
150 
150 
149 
149 
123 
123 
122 
122 
122 
149 
149 
96 
96 
95 
122 
122 
122 
121 
121 
148 
178 
151 
151 
151 
152 
151 
124 
151 
123 
125 
125 
124 
124 
124 
124 
123 
125 
125 
98 
98 
97 
97 
97 
96 
96 
178 
179 
178 
151 
179 
179 
152 
152 
152 
180 
180 
153 
153 
153 
152 
125 
181 
181 
154 
153 
153 
153 
126 
126 
126 
VECTORS VELOCITY float 
-0.000000 -3.449981 0.000000 
-0.000000 -3.449981 0.000000 
-0.000000 -3.449981 0.000000 
-0.000000 -3.449981 0.000000 
0.000000 -3.449981 0.000000 
0.000000 -3.449981 0.000000 
0.000000 -3.449981 0.000000 
0.000000 -3.449981 0.000000 
0.000000 -3.449981 0.000000 
0.000000 -3.449981 0.000000 
0.000000 -3.449981 0.000000 
0.000000 -3.449981 0.000000 
0.000000 -3.449981 0.000000 
0.000000 -3.449981 0.000000 
0.000000 -3.449981 0.000000 
0.000000 -3.449981 0.000000 
-0.000000 -3.449981 0.000000 
-0.000000 -3.449981 0.000000 
-0.000000 -3.449981 0.000000 
0.000000 -3.449981 0.000000 
0.000000 -3.449981 0.000000 
0.000000 -3.449981 0.000000 
-0.000000 -3.449981 0.000000 
0.000000 -3.449981 0.000000 
0.000000 -3.449981 0.000000 
-0.000000 -3.449981 0.000000 
0.000000 -3.449981 0.000000 
0.000000 -3.449981 0.000000 
-0.000000 -3.449981 0.000000 
0.000000 -3.449981 0.000000 
0.000000 -3.449981 0.000000 
0.000000 -3.449981 0.000000 
-0.000000 -3.449981 0.000000 
-0.000000 -3.449981 0.000000 
0.000000 -3.449981 0.000000 
0.000000 -3.449981 0.000000 
0.000000 -3.449981 0.000000 
0.000000 -3.449981 0.000000 
-0.000000 -3.449981 0.000000 
0.000000 -3.449981 0.000000 
0.000000 -3.449981 0.000000 
0.000000 -3.449981 0.000000 
0.000000 -3.449981 0.000000 
0.000000 -3.449981 0.000000 
0.000000 -3.449981 0.000000 
-0.000000 -3.449981 0.000000 
0.000000 -3.449981 0.000000 
0.000000 -3.449981 0.000000 
0.000000 -3.449981 0.000000 
-0.000000 -3.449981 0.000000 
-0.000000 -3.449981 0.000000 
-0.000000 -3.449981 0.000000 
-0.000000 -3.449981 0.000000 
0.000000 -3.449981 0.000000 
-0.000000 -3.449981 0.000000 
-0.000000 -3.449981 0.000000 
-0.000000 -3.449981 0.000000 
-0.000000 -3.449981 0.000000 
0.000000 -3.449981 0.000000 
-0.000000 -3.449981 0.000000 
-0.000000 -3.449981 0.000000 
-0.000000 -3.449981 0.000000 
-0.000000 -3.449981 0.000000 
0.000000 -3.449981 0.000000 
0.000000 -3.449981 0.000000 
0.000000 -3.449981 0.000000 
-0.000000 -3.449981 0.000000 
-0.000000 -3.449981 0.000000 
0.000000 -3.449981 0.000000 
0.000000 -3.449981 0.000000 
0.000000 -3.449981 0.000000 
0.000000 -3.449981 0.000000 
-0.000000 -3.449981 0.000000 
0.000000 -3.449981 0.000000 
-0.000000 -3.449981 0.000000 
-0.000000 -3.449981 0.000000 
-0.000000 -3.449981 0.000000 
-0.000000 -3.449981 0.000000 
-0.000000 -3.449981 0.000000 
-0.000000 -3.449981 0.000000 
-0.000000 -3.449981 0.000000 
-0.000000 -3.449981 0.000000 
-0.000000 -3.449981 0.000000 
0.000000 -3.449981 0.000000 
-0.000000 -3.449981 0.000000 
0.000000 -3.449981 0.000000 
-0.000000 -3.449981 0.000000 
0.000000 -3.449981 0.000000 
0.000000 -3.449981 0.000000 
0.000000 -3.449981 0.000000 
0.000000 -3.449981 0.000000 
-0.000000 -3.449981 0.000000 
0.000000 -3.449981 0.000000 
0.000000 -3.449981 0.000000 
-0.000000 -3.449981 0.000000 
0.000000 -3.449981 0.000000 
-0.000000 -3.449981 0.000000 
-0.000000 -3.449981 0.000000 
-0.000000 -3.449981 0.000000 
-0.000000 -3.449981 0.000000 
-0.000000 -3.449981 0.000000 
-0.000000 -3.449981 0.000000 
-0.000000 -3.449981 0.000000 
-0.000000 -3.449981 0.000000 
-0.000000 -3.449981 0.000000 
-0.000000 -3.449981 0.000000 
0.000000 -3.449981 0.000000 
0.000000 -3.449981 0.000000 
0.000000 -3.449981 0.000000 
-0.000000 -3.449981 0.000000 
-0.000000 -3.449981 0.000000 
-0.000000 -3.449981 0.000000 
0.000000 -3.449981 0.000000 
0.000000 -3.449981 0.000000 
0.000000 -3.449981 0.000000 
-0.000000 -3.449981 0.000000 
0.000000 -3.449981 0.000000 
-0.000000 -3.449981 0.000000 
-0.000000 -3.449981 0.000000 
-0.000000 -3.449981 0.000000 
0.000000 -3.449981 0.000000 
-0.000000 -3.449981 0.000000 
0.000000 -3.449981 0.000000 
-0.000000 -3.449981 0.000000 
-0.000000 -3.449981 0.000000 
-0.000000 -3.449981 0.000000 
-0.000000 -3.449981 0.000000 
-0.000000 -3.449981 0.000000 
-0.000000 -3.449981 0.000000 
0.000000 -3.449981 0.000000 
-0.000000 -3.449981 0.000000 
-0.000000 -3.449981 0.000000 
-0.000000 -3.449981 0.000000 
-0.000000 -3.449981 0.000000 
0.000000 -3.449981 0.000000 
-0.000000 -3.449981 0.000000 
-0.000000 -3.449981 0.000000 
-0.000000 -3.449981 0.000000 
-0.000000 -3.449981 0.000000 
-0.000000 -3.449981 0.000000 
-0.000000 -3.449981 0.000000 
0.000000 -3.449981 0.000000 
-0.000000 -3.449981 0.000000 
-0.000000 -3.449981 0.000000 
0.000000 -3.449981 0.000000 
0.000000 -3.449981 0.000000 
0.000000 -3.449981 0.000000 
0.000000 -3.449981 0.000000 
0.000000 -3.449981 0.000000 
0.000000 -3.449981 0.000000 
-0.000000 -3.449981 0.000000 
0.000000 -3.449981 0.000000 
0.000000 -3.449981 0.000000 
-0.000000 -3.449981 0.000000 
-0.000000 -3.449981 0.000000 
-0.000000 -3.449981 0.000000 
0.000000 -3.449981 0.000000 
0.000000 -3.449981 0.000000 
0.000000 -3.449981 0.000000 
0.000000 -3.449981 0.000000 
-0.000000 -3.449981 0.000000 
-0.000000 -3.449981 0.000000 
0.000000 -3.449981 0.000000 
0.000000 -3.449981 0.000000 
0.000000 -3.449981 0.000000 
0.000000 -3.449981 0.000000 
0.000000 -3.449981 0.000000 
-0.000000 -3.449981 0.000000 
-0.000000 -3.449981 0.000000 
-0.000000 -3.449981 0.000000 
-0.000000 -3.449981 0.000000 
-0.000000 -3.449981 0.000000 
0.000000 -3.449981 0.000000 
0.000000 -3.449981 0.000000 
-0.000000 -3.449981 0.000000 
TENSORS STRESS float 
-0.000000 -0.000000 0.000000 
0.000000 -0.000000 0.000000 
0.000000 0.000000 0.000000 

0.000000 0.000000 0.000000 
0.000000 0.000000 0.000000 
0.000000 0.000000 0.000000 

-0.000000 -0.000000 0.000000 
0.000000 -0.000000 0.000000 
0.000000 0.000000 0.000000 

-0.000000 0.000000 0.000000 
0.000000 -0.000000 0.000000 
0.000000 0.000000 0.000000 

-0.000000 -0.000000 0.000000 
0.000000 -0.000000 0.000000 
0.000000 0.000000 0.000000 

-0.000000 -0.000000 0.000000 
0.000000 0.000000 0.000000 
0.000000 0.000000 0.000000 

-0.000000 0.000000 0.000000 
0.000000 -0.000000 0.000000 
0.000000 0.000000 0.000000 

-0.000000 -0.000000 0.000000 
0.000000 -0.000000 0.000000 
0.000000 0.000000 0.000000 

-0.000000 -0.000000 0.000000 
0.000000 -0.000000 0.000000 
0.000000 0.000000 0.000000 

0.000000 0.000000 0.000000 
0.000000 -0.000000 0.000000 
0.000000 0.000000 0.000000 

-0.000000 -0.000000 0.000000 
0.000000 -0.000000 0.000000 
0.000000 0.000000 0.000000 

-0.000000 -0.000000 0.000000 
0.000000 -0.000000 0.000000 
0.000000 0.000000 0.000000 

0.000000 -0.000000 0.000000 
0.000000 0.000000 0.000000 
0.000000 0.000000 0.000000 

0.000000 0.000000 0.000000 
0.000000 0.000000 0.000000 
0.000000 0.000000 0.000000 

0.000000 0.000000 0.000000 
0.000000 -0.000000 0.000000 
0.000000 0.000000 0.000000 

0.000000 0.000000 0.000000 
0.000000 -0.000000 0.000000 
0.000000 0.000000 0.000000 

0.000000 0.000000 0.000000 
0.000000 0.000000 0.000000 
0.000000 0.000000 0.000000 

0.000000 0.000000 0.000000 
0.000000 0.000000 0.000000 
0.000000 0.000000 0.000000 

0.000000 -0.000000 0.000000 
0.000000 0.000000 0.000000 
0.000000 0.000000 0.000000 

0.000000 -0.000000 0.000000 
0.000000 0.000000 0.000000 
0.000000 0.000000 0.000000 

0.000000 0.000000 0.000000 
0.000000 -0.000000 0.000000 
0.000000 0.000000 0.000000 

0.000000 0.000000 0.000000 
0.000000 0.000000 0.000000 
0.000000 0.000000 0.000000 

0.000000 -0.000000 0.000000 
0.000000 0.000000 0.000000 
0.000000 0.000000 0.000000 

-0.000000 0.000000 0.000000 
0.000000 -0.000000 0.000000 
0.000000 0.000000 0.000000 

0.000000 0.000000 0.000000 
0.000000 0.000000 0.000000 
0.000000 0.000000 0.000000 

-0.000000 0.000000 0.000000 
0.000000 0.000000 0.000000 
0.000000 0.000000 0.000000 

0.000000 0.000000 0.000000 
0.000000 0.000000 0.000000 
0.000000 0.000000 0.000000 

-0.000000 0.000000 0.000000 
0.000000 -0.000000 0.000000 
0.000000 0.000000 0.000000 

-0.000000 -0.000000 0.000000 
0.000000 -0.000000 0.000000 
0.000000 0.000000 0.000000 

-0.000000 -0.000000 0.000000 
0.000000 0.000000 0.000000 
0.000000 0.000000 0.000000 

-0.000000 -0.000000 0.000000 
0.000000 -0.000000 0.000000 
0.000000 0.000000 0.000000 

-0.000000 -0.000000 0.000000 
0.000000 -0.000000 0.000000 
0.000000 0.000000 0.000000 

0.000000 -0.000000 0.000000 
0.000000 0.000000 0.000000 
0.000000 0.000000 0.000000 

-0.000000 0.000000 0.000000 
0.000000 -0.000000 0.000000 
0.000000 0.000000 0.000000 

-0.000000 -0.000000 0.000000 
0.000000 -0.000000 0.000000 
0.000000 0.000000 0.000000 

-0.000000 -0.000000 0.000000 
0.000000 -0.000000 0.000000 
0.000000 0.000000 0.000000 

-0.000000 -0.000000 0.000000 
0.000000 -0.000000 0.000000 
0.000000 0.000000 0.000000 

0.000000 0.000000 0.000000 
0.000000 0.000000 0.000000 
0.000000 0.000000 0.000000 

-0.000000 -0.000000 0.000000 
0.000000 -0.000000 0.000000 
0.000000 0.000000 0.000000 

0.000000 0.000000 0.000000 
0.000000 0.000000 0.000000 
0.000000 0.000000 0.000000 

0.000000 0.000000 0.000000 
0.000000 -0.000000 0.000000 
0.000000 0.000000 0.000000 

-0.000000 -0.000000 0.000000 
0.000000 -0.000000 0.000000 
0.000000 0.000000 0.000000 

0.000000 -0.000000 0.000000 
0.000000 0.000000 0.000000 
0.000000 0.000000 0.000000 

0.000000 -0.000000 0.000000 
0.000000 -0.000000 0.000000 
0.000000 0.000000 0.000000 

0.000000 0.000000 0.000000 
0.000000 0.000000 0.000000 
0.000000 0.000000 0.000000 

0.000000 0.000000 0.000000 
0.000000 0.000000 0.000000 
0.000000 0.000000 0.000000 

-0.000000 0.000000 0.000000 
0.000000 -0.000000 0.000000 
0.000000 0.000000 0.000000 

-0.000000 -0.000000 0.000000 
0.000000 -0.000000 0.000000 
0.000000 0.000000 0.000000 

0.000000 0.000000 0.000000 
0.000000 0.000000 0.000000 
0.000000 0.000000 0.000000 

-0.000000 -0.000000 0.000000 
0.000000 -0.000000 0.000000 
0.000000 0.000000 0.000000 

0.000000 -0.000000 0.000000 
0.000000 0.000000 0.000000 
0.000000 0.000000 0.000000 

0.000000 -0.000000 0.000000 
0.000000 0.000000 0.000000 
0.000000 0.000000 0.000000 

-0.000000 0.000000 0.000000 
0.000000 -0.000000 0.000000 
0.000000 0.000000 0.000000 

-0.000000 0.000000 0.000000 
0.000000 0.000000 0.000000 
0.000000 0.000000 0.000000 

-0.000000 -0.000000 0.000000 
0.000000 -0.000000 0.000000 
0.000000 0.000000 0.000000 

-0.000000 -0.000000 0.000000 
0.000000 -0.000000 0.000000 
0.000000 0.000000 0.000000 

0.000000 0.000000 0.000000 
0.000000 0.000000 0.000000 
0.000000 0.000000 0.000000 

0.000000 -0.000000 0.000000 
0.000000 0.000000 0.000000 
0.000000 0.000000 0.000000 

-0.000000 0.000000 0.000000 
0.000000 -0.000000 0.000000 
0.000000 0.000000 0.000000 

0.000000 0.000000 0.000000 
0.000000 0.000000 0.000000 
0.000000 0.000000 0.000000 

0.000000 0.000000 0.000000 
0.000000 0.000000 0.000000 
0.000000 0.000000 0.000000 

0.000000 -0.000000 0.000000 
0.000000 -0.000000 0.000000 
0.000000 0.000000 0.000000 

0.000000 0.000000 0.000000 
0.000000 -0.000000 0.000000 
0.000000 0.000000 0.000000 

0.000000 0.000000 0.000000 
0.000000 0.000000 0.000000 
0.000000 0.000000 0.000000 

0.000000 0.000000 0.000000 
0.000000 0.000000 0.000000 
0.000000 0.000000 0.000000 

-0.000000 -0.000000 0.000000 
0.000000 0.000000 0.000000 
0.000000 0.000000 0.000000 

0.000000 0.000000 0.000000 
0.000000 0.000000 0.000000 
0.000000 0.000000 0.000000 

0.000000 -0.000000 0.000000 
0.000000 0.000000 0.000000 
0.000000 0.000000 0.000000 

0.000000 -0.000000 0.000000 
0.000000 0.000000 0.000000 
0.000000 0.000000 0.000000 

0.000000 -0.000000 0.000000 
0.000000 0.000000 0.000000 
0.000000 0.000000 0.000000 

0.000000 -0.000000 0.000000 
0.000000 0.000000 0.000000 
0.000000 0.000000 0.000000 

0.000000 -0.000000 0.000000 
0.000000 0.000000 0.000000 
0.000000 0.000000 0.000000 

0.000000 0.000000 0.000000 
0.000000 0.000000 0.000000 
0.000000 0.000000 0.000000 

-0.000000 0.000000 0.000000 
0.000000 -0.000000 0.000000 
0.000000 0.000000 0.000000 

0.000000 -0.000000 0.000000 
0.000000 0.000000 0.000000 
0.000000 0.000000 0.000000 

-0.000000 0.000000 0.000000 
0.000000 -0.000000 0.000000 
0.000000 0.000000 0.000000 

-0.000000 -0.000000 0.000000 
0.000000 -0.000000 0.000000 
0.000000 0.000000 0.000000 

0.000000 -0.000000 0.000000 
0.000000 0.000000 0.000000 
0.000000 0.000000 0.000000 

0.000000 -0.000000 0.000000 
0.000000 0.000000 0.000000 
0.000000 0.000000 0.000000 

-0.000000 -0.000000 0.000000 
0.000000 -0.000000 0.000000 
0.000000 0.000000 0.000000 

-0.000000 0.000000 0.000000 
0.000000 -0.000000 0.000000 
0.000000 0.000000 0.000000 

-0.000000 0.000000 0.000000 
0.000000 -0.000000 0.000000 
0.000000 0.000000 0.000000 

-0.000000 0.000000 0.000000 
0.000000 -0.000000 0.000000 
0.000000 0.000000 0.000000 

0.000000 -0.000000 0.000000 
0.000000 -0.000000 0.000000 
0.000000 0.000000 0.000000 

0.000000 -0.000000 0.000000 
0.000000 0.000000 0.000000 
0.000000 0.000000 0.000000 

0.000000 0.000000 0.000000 
0.000000 0.000000 0.000000 
0.000000 0.000000 0.000000 

-0.000000 0.000000 0.000000 
0.000000 0.000000 0.000000 
0.000000 0.000000 0.000000 

-0.000000 -0.000000 0.000000 
0.000000 0.000000 0.000000 
0.000000 0.000000 0.000000 

-0.000000 0.000000 0.000000 
0.000000 0.000000 0.000000 
0.000000 0.000000 0.000000 

0.000000 0.000000 0.000000 
0.000000 0.000000 0.000000 
0.000000 0.000000 0.000000 

0.000000 0.000000 0.000000 
0.000000 -0.000000 0.000000 
0.000000 0.000000 0.000000 

-0.000000 -0.000000 0.000000 
0.000000 -0.000000 0.000000 
0.000000 0.000000 0.000000 

0.000000 -0.000000 0.000000 
0.000000 0.000000 0.000000 
0.000000 0.000000 0.000000 

-0.000000 -0.000000 0.000000 
0.000000 0.000000 0.000000 
0.000000 0.000000 0.000000 

-0.000000 -0.000000 0.000000 
0.000000 0.000000 0.000000 
0.000000 0.000000 0.000000 

0.000000 0.000000 0.000000 
0.000000 0.000000 0.000000 
0.000000 0.000000 0.000000 

-0.000000 0.000000 0.000000 
0.000000 0.000000 0.000000 
0.000000 0.000000 0.000000 

0.000000 0.000000 0.000000 
0.000000 0.000000 0.000000 
0.000000 0.000000 0.000000 

0.000000 -0.000000 0.000000 
0.000000 0.000000 0.000000 
0.000000 0.000000 0.000000 

-0.000000 0.000000 0.000000 
0.000000 -0.000000 0.000000 
0.000000 0.000000 0.000000 

-0.000000 -0.000000 0.000000 
0.000000 -0.000000 0.000000 
0.000000 0.000000 0.000000 

-0.000000 -0.000000 0.000000 
0.000000 -0.000000 0.000000 
0.000000 0.000000 0.000000 

0.000000 -0.000000 0.000000 
0.000000 0.000000 0.000000 
0.000000 0.000000 0.000000 

0.000000 -0.000000 0.000000 
0.000000 0.000000 0.000000 
0.000000 0.000000 0.000000 

-0.000000 -0.000000 0.000000 
0.000000 -0.000000 0.000000 
0.000000 0.000000 0.000000 

0.000000 0.000000 0.000000 
0.000000 0.000000 0.000000 
0.000000 0.000000 0.000000 

0.000000 -0.000000 0.000000 
0.000000 0.000000 0.000000 
0.000000 0.000000 0.000000 

-0.000000 -0.000000 0.000000 
0.000000 -0.000000 0.000000 
0.000000 0.000000 0.000000 

-0.000000 -0.000000 0.000000 
0.000000 -0.000000 0.000000 
0.000000 0.000000 0.000000 

0.000000 0.000000 0.000000 
0.000000 -0.000000 0.000000 
0.000000 0.000000 0.000000 

0.000000 -0.000000 0.000000 
0.000000 -0.000000 0.000000 
0.000000 0.000000 0.000000 

0.000000 0.000000 0.000000 
0.000000 -0.000000 0.000000 
0.000000 0.000000 0.000000 

0.000000 -0.000000 0.000000 
0.000000 -0.000000 0.000000 
0.000000 0.000000 0.000000 

-0.000000 -0.000000 0.000000 
0.000000 -0.000000 0.000000 
0.000000 0.000000 0.000000 

-0.000000 -0.000000 0.000000 
0.000000 -0.000000 0.000000 
0.000000 0.000000 0.000000 

-0.000000 -0.000000 0.000000 
0.000000 -0.000000 0.000000 
0.000000 0.000000 0.000000 

0.000000 0.000000 0.000000 
0.000000 -0.000000 0.000000 
0.000000 0.000000 0.000000 

0.000000 0.000000 0.000000 
0.000000 0.000000 0.000000 
0.000000 0.000000 0.000000 

0.000000 0.000000 0.000000 
0.000000 -0.000000 0.000000 
0.000000 0.000000 0.000000 

0.000000 -0.000000 0.000000 
0.000000 -0.000000 0.000000 
0.000000 0.000000 0.000000 

0.000000 0.000000 0.000000 
0.000000 0.000000 0.000000 
0.000000 0.000000 0.000000 

0.000000 -0.000000 0.000000 
0.000000 0.000000 0.000000 
0.000000 0.000000 0.000000 

-0.000000 -0.000000 0.000000 
0.000000 -0.000000 0.000000 
0.000000 0.000000 0.000000 

0.000000 -0.000000 0.000000 
0.000000 -0.000000 0.000000 
0.000000 0.000000 0.000000 

0.000000 -0.000000 0.000000 
0.000000 0.000000 0.000000 
0.000000 0.000000 0.000000 

-0.000000 -0.000000 0.000000 
0.000000 -0.000000 0.000000 
0.000000 0.000000 0.000000 

-0.000000 -0.000000 0.000000 
0.000000 -0.000000 0.000000 
0.000000 0.000000 0.000000 

-0.000000 -0.000000 0.000000 
0.000000 -0.000000 0.000000 
0.000000 0.000000 0.000000 

-0.000000 -0.000000 0.000000 
0.000000 -0.000000 0.000000 
0.000000 0.000000 0.000000 

0.000000 -0.000000 0.000000 
0.000000 -0.000000 0.000000 
0.000000 0.000000 0.000000 

-0.000000 -0.000000 0.000000 
0.000000 -0.000000 0.000000 
0.000000 0.000000 0.000000 

0.000000 0.000000 0.000000 
0.000000 -0.000000 0.000000 
0.000000 0.000000 0.000000 

-0.000000 -0.000000 0.000000 
0.000000 -0.000000 0.000000 
0.000000 0.000000 0.000000 

0.000000 0.000000 0.000000 
0.000000 0.000000 0.000000 
0.000000 0.000000 0.000000 

0.000000 0.000000 0.000000 
0.000000 -0.000000 0.000000 
0.000000 0.000000 0.000000 

0.000000 -0.000000 0.000000 
0.000000 -0.000000 0.000000 
0.000000 0.000000 0.000000 

0.000000 -0.000000 0.000000 
0.000000 -0.000000 0.000000 
0.000000 0.000000 0.000000 

0.000000 0.000000 0.000000 
0.000000 0.000000 0.000000 
0.000000 0.000000 0.000000 

-0.000000 0.000000 0.000000 
0.000000 -0.000000 0.000000 
0.000000 0.000000 0.000000 

0.000000 0.000000 0.000000 
0.000000 -0.000000 0.000000 
0.000000 0.000000 0.000000 

0.000000 0.000000 0.000000 
0.000000 0.000000 0.000000 
0.000000 0.000000 0.000000 

-0.000000 0.000000 0.000000 
0.000000 -0.000000 0.000000 
0.000000 0.000000 0.000000 

0.000000 -0.000000 0.000000 
0.000000 -0.000000 0.000000 
0.000000 0.000000 0.000000 

0.000000 0.000000 0.000000 
0.000000 -0.000000 0.000000 
0.000000 0.000000 0.000000 

-0.000000 -0.000000 0.000000 
0.000000 0.000000 0.000000 
0.000000 0.000000 0.000000 

-0.000000 0.000000 0.000000 
0.000000 -0.000000 0.000000 
0.000000 0.000000 0.000000 

-0.000000 0.000000 0.000000 
0.000000 -0.000000 0.000000 
0.000000 0.000000 0.000000 

-0.000000 -0.000000 0.000000 
0.000000 -0.000000 0.000000 
0.000000 0.000000 0.000000 

-0.000000 0.000000 0.000000 
0.000000 0.000000 0.000000 
0.000000 0.000000 0.000000 

0.000000 -0.000000 0.000000 
0.000000 0.000000 0.000000 
0.000000 0.000000 0.000000 

0.000000 -0.000000 0.000000 
0.000000 0.000000 0.000000 
0.000000 0.000000 0.000000 

0.000000 0.000000 0.000000 
0.000000 0.000000 0.000000 
0.000000 0.000000 0.000000 

0.000000 0.000000 0.000000 
0.000000 0.000000 0.000000 
0.000000 0.000000 0.000000 

-0.000000 -0.000000 0.000000 
0.000000 -0.000000 0.000000 
0.000000 0.000000 0.000000 

-0.000000 -0.000000 0.000000 
0.000000 -0.000000 0.000000 
0.000000 0.000000 0.000000 

0.000000 -0.000000 0.000000 
0.000000 0.000000 0.000000 
0.000000 0.000000 0.000000 

-0.000000 0.000000 0.000000 
0.000000 -0.000000 0.000000 
0.000000 0.000000 0.000000 

-0.000000 -0.000000 0.000000 
0.000000 -0.000000 0.000000 
0.000000 0.000000 0.000000 

0.000000 -0.000000 0.000000 
0.000000 0.000000 0.000000 
0.000000 0.000000 0.000000 

0.000000 0.000000 0.000000 
0.000000 -0.000000 0.000000 
0.000000 0.000000 0.000000 

0.000000 0.000000 0.000000 
0.000000 0.000000 0.000000 
0.000000 0.000000 0.000000 

0.000000 -0.000000 0.000000 
0.000000 0.000000 0.000000 
0.000000 0.000000 0.000000 

0.000000 -0.000000 0.000000 
0.000000 0.000000 0.000000 
0.000000 0.000000 0.000000 

0.000000 0.000000 0.000000 
0.000000 0.000000 0.000000 
0.000000 0.000000 0.000000 

0.000000 -0.000000 0.000000 
0.000000 0.000000 0.000000 
0.000000 0.000000 0.000000 

0.000000 -0.000000 0.000000 
0.000000 0.000000 0.000000 
0.000000 0.000000 0.000000 

-0.000000 0.000000 0.000000 
0.000000 -0.000000 0.000000 
0.000000 0.000000 0.000000 

0.000000 -0.000000 0.000000 
0.000000 0.000000 0.000000 
0.000000 0.000000 0.000000 

-0.000000 -0.000000 0.000000 
0.000000 0.000000 0.000000 
0.000000 0.000000 0.000000 

-0.000000 -0.000000 0.000000 
0.000000 -0.000000 0.000000 
0.000000 0.000000 0.000000 

-0.000000 -0.000000 0.000000 
0.000000 0.000000 0.000000 
0.000000 0.000000 0.000000 

-0.000000 0.000000 0.000000 
0.000000 -0.000000 0.000000 
0.000000 0.000000 0.000000 

-0.000000 0.000000 0.000000 
0.000000 0.000000 0.000000 
0.000000 0.000000 0.000000 

-0.000000 -0.000000 0.000000 
0.000000 -0.000000 0.000000 
0.000000 0.000000 0.000000 

-0.000000 -0.000000 0.000000 
0.000000 0.000000 0.000000 
0.000000 0.000000 0.000000 

TENSORS STRAIN float 
-0.000000 -0.000000 0.000000 
0.000000 -0.000000 0.000000 
0.000000 0.000000 0.000000 

-0.000000 0.000000 0.000000 
0.000000 0.000000 0.000000 
0.000000 0.000000 0.000000 

0.000000 -0.000000 0.000000 
0.000000 -0.000000 0.000000 
0.000000 0.000000 0.000000 

0.000000 0.000000 0.000000 
0.000000 -0.000000 0.000000 
0.000000 0.000000 0.000000 

-0.000000 -0.000000 0.000000 
0.000000 -0.000000 0.000000 
0.000000 0.000000 0.000000 

-0.000000 -0.000000 0.000000 
0.000000 0.000000 0.000000 
0.000000 0.000000 0.000000 

-0.000000 0.000000 0.000000 
0.000000 -0.000000 0.000000 
0.000000 0.000000 0.000000 

-0.000000 -0.000000 0.000000 
0.000000 -0.000000 0.000000 
0.000000 0.000000 0.000000 

0.000000 -0.000000 0.000000 
0.000000 -0.000000 0.000000 
0.000000 0.000000 0.000000 

0.000000 0.000000 0.000000 
0.000000 -0.000000 0.000000 
0.000000 0.000000 0.000000 

-0.000000 -0.000000 0.000000 
0.000000 -0.000000 0.000000 
0.000000 0.000000 0.000000 

-0.000000 -0.000000 0.000000 
0.000000 -0.000000 0.000000 
0.000000 0.000000 0.000000 

-0.000000 -0.000000 0.000000 
0.000000 0.000000 0.000000 
0.000000 0.000000 0.000000 

0.000000 0.000000 0.000000 
0.000000 0.000000 0.000000 
0.000000 0.000000 0.000000 

0.000000 0.000000 0.000000 
0.000000 -0.000000 0.000000 
0.000000 0.000000 0.000000 

0.000000 0.000000 0.000000 
0.000000 -0.000000 0.000000 
0.000000 0.000000 0.000000 

0.000000 0.000000 0.000000 
0.000000 0.000000 0.000000 
0.000000 0.000000 0.000000 

0.000000 0.000000 0.000000 
0.000000 -0.000000 0.000000 
0.000000 0.000000 0.000000 

0.000000 -0.000000 0.000000 
0.000000 0.000000 0.000000 
0.000000 0.000000 0.000000 

0.000000 -0.000000 0.000000 
0.000000 0.000000 0.000000 
0.000000 0.000000 0.000000 

0.000000 0.000000 0.000000 
0.000000 -0.000000 0.000000 
0.000000 0.000000 0.000000 

0.000000 0.000000 0.000000 
0.000000 0.000000 0.000000 
0.000000 0.000000 0.000000 

0.000000 -0.000000 0.000000 
0.000000 -0.000000 0.000000 
0.000000 0.000000 0.000000 

-0.000000 0.000000 0.000000 
0.000000 -0.000000 0.000000 
0.000000 0.000000 0.000000 

-0.000000 0.000000 0.000000 
0.000000 0.000000 0.000000 
0.000000 0.000000 0.000000 

-0.000000 0.000000 0.000000 
0.000000 0.000000 0.000000 
0.000000 0.000000 0.000000 

-0.000000 0.000000 0.000000 
0.000000 0.000000 0.000000 
0.000000 0.000000 0.000000 

0.000000 0.000000 0.000000 
0.000000 -0.000000 0.000000 
0.000000 0.000000 0.000000 

-0.000000 -0.000000 0.000000 
0.000000 -0.000000 0.000000 
0.000000 0.000000 0.000000 

-0.000000 -0.000000 0.000000 
0.000000 0.000000 0.000000 
0.000000 0.000000 0.000000 

0.000000 -0.000000 0.000000 
0.000000 -0.000000 0.000000 
0.000000 0.000000 0.000000 

0.000000 -0.000000 0.000000 
0.000000 -0.000000 0.000000 
0.000000 0.000000 0.000000 

-0.000000 -0.000000 0.000000 
0.000000 0.000000 0.000000 
0.000000 0.000000 0.000000 

-0.000000 0.000000 0.000000 
0.000000 -0.000000 0.000000 
0.000000 0.000000 0.000000 

-0.000000 -0.000000 0.000000 
0.000000 -0.000000 0.000000 
0.000000 0.000000 0.000000 

-0.000000 -0.000000 0.000000 
0.000000 -0.000000 0.000000 
0.000000 0.000000 0.000000 

0.000000 -0.000000 0.000000 
0.000000 -0.000000 0.000000 
0.000000 0.000000 0.000000 

0.000000 0.000000 0.000000 
0.000000 0.000000 0.000000 
0.000000 0.000000 0.000000 

-0.000000 -0.000000 0.000000 
0.000000 -0.000000 0.000000 
0.000000 0.000000 0.000000 

-0.000000 0.000000 0.000000 
0.000000 0.000000 0.000000 
0.000000 0.000000 0.000000 

0.000000 0.000000 0.000000 
0.000000 -0.000000 0.000000 
0.000000 0.000000 0.000000 

0.000000 -0.000000 0.000000 
0.000000 -0.000000 0.000000 
0.000000 0.000000 0.000000 

0.000000 -0.000000 0.000000 
0.000000 -0.000000 0.000000 
0.000000 0.000000 0.000000 

0.000000 -0.000000 0.000000 
0.000000 -0.000000 0.000000 
0.000000 0.000000 0.000000 

0.000000 0.000000 0.000000 
0.000000 -0.000000 0.000000 
0.000000 0.000000 0.000000 

0.000000 0.000000 0.000000 
0.000000 0.000000 0.000000 
0.000000 0.000000 0.000000 

-0.000000 0.000000 0.000000 
0.000000 -0.000000 0.000000 
0.000000 0.000000 0.000000 

-0.000000 -0.000000 0.000000 
0.000000 -0.000000 0.000000 
0.000000 0.000000 0.000000 

0.000000 0.000000 0.000000 
0.000000 0.000000 0.000000 
0.000000 0.000000 0.000000 

0.000000 -0.000000 0.000000 
0.000000 -0.000000 0.000000 
0.000000 0.000000 0.000000 

-0.000000 -0.000000 0.000000 
0.000000 0.000000 0.000000 
0.000000 0.000000 0.000000 

0.000000 -0.000000 0.000000 
0.000000 0.000000 0.000000 
0.000000 0.000000 0.000000 

-0.000000 0.000000 0.000000 
0.000000 -0.000000 0.000000 
0.000000 0.000000 0.000000 

-0.000000 0.000000 0.000000 
0.000000 0.000000 0.000000 
0.000000 0.000000 0.000000 

0.000000 -0.000000 0.000000 
0.000000 -0.000000 0.000000 
0.000000 0.000000 0.000000 

0.000000 -0.000000 0.000000 
0.000000 -0.000000 0.000000 
0.000000 0.000000 0.000000 

0.000000 0.000000 0.000000 
0.000000 0.000000 0.000000 
0.000000 0.000000 0.000000 

-0.000000 -0.000000 0.000000 
0.000000 0.000000 0.000000 
0.000000 0.000000 0.000000 

-0.000000 0.000000 0.000000 
0.000000 -0.000000 0.000000 
0.000000 0.000000 0.000000 

0.000000 0.000000 0.000000 
0.000000 0.000000 0.000000 
0.000000 0.000000 0.000000 

0.000000 0.000000 0.000000 
0.000000 0.000000 0.000000 
0.000000 0.000000 0.000000 

0.000000 -0.000000 0.000000 
0.000000 -0.000000 0.000000 
0.000000 0.000000 0.000000 

0.000000 0.000000 0.000000 
0.000000 -0.000000 0.000000 
0.000000 0.000000 0.000000 

0.000000 0.000000 0.000000 
0.000000 0.000000 0.000000 
0.000000 0.000000 0.000000 

-0.000000 0.000000 0.000000 
0.000000 0.000000 0.000000 
0.000000 0.000000 0.000000 

-0.000000 -0.000000 0.000000 
0.000000 0.000000 0.000000 
0.000000 0.000000 0.000000 

0.000000 0.000000 0.000000 
0.000000 -0.000000 0.000000 
0.000000 0.000000 0.000000 

0.000000 -0.000000 0.000000 
0.000000 -0.000000 0.000000 
0.000000 0.000000 0.000000 

0.000000 -0.000000 0.000000 
0.000000 -0.000000 0.000000 
0.000000 0.000000 0.000000 

0.000000 -0.000000 0.000000 
0.000000 0.000000 0.000000 
0.000000 0.000000 0.000000 

0.000000 -0.000000 0.000000 
0.000000 0.000000 0.000000 
0.000000 0.000000 0.000000 

0.000000 -0.000000 0.000000 
0.000000 -0.000000 0.000000 
0.000000 0.000000 0.000000 

0.000000 0.000000 0.000000 
0.000000 0.000000 0.000000 
0.000000 0.000000 0.000000 

-0.000000 0.000000 0.000000 
0.000000 0.000000 0.000000 
0.000000 0.000000 0.000000 

-0.000000 -0.000000 0.000000 
0.000000 0.000000 0.000000 
0.000000 0.000000 0.000000 

-0.000000 0.000000 0.000000 
0.000000 -0.000000 0.000000 
0.000000 0.000000 0.000000 

-0.000000 -0.000000 0.000000 
0.000000 -0.000000 0.000000 
0.000000 0.000000 0.000000 

-0.000000 -0.000000 0.000000 
0.000000 0.000000 0.000000 
0.000000 0.000000 0.000000 

-0.000000 -0.000000 0.000000 
0.000000 0.000000 0.000000 
0.000000 0.000000 0.000000 

-0.000000 -0.000000 0.000000 
0.000000 -0.000000 0.000000 
0.000000 0.000000 0.000000 

-0.000000 0.000000 0.000000 
0.000000 -0.000000 0.000000 
0.000000 0.000000 0.000000 

-0.000000 0.000000 0.000000 
0.000000 -0.000000 0.000000 
0.000000 0.000000 0.000000 

-0.000000 0.000000 0.000000 
0.000000 -0.000000 0.000000 
0.000000 0.000000 0.000000 

0.000000 -0.000000 0.000000 
0.000000 -0.000000 0.000000 
0.000000 0.000000 0.000000 

-0.000000 -0.000000 0.000000 
0.000000 0.000000 0.000000 
0.000000 0.000000 0.000000 

-0.000000 0.000000 0.000000 
0.000000 0.000000 0.000000 
0.000000 0.000000 0.000000 

-0.000000 0.000000 0.000000 
0.000000 0.000000 0.000000 
0.000000 0.000000 0.000000 

-0.000000 -0.000000 0.000000 
0.000000 0.000000 0.000000 
0.000000 0.000000 0.000000 

-0.000000 0.000000 0.000000 
0.000000 0.000000 0.000000 
0.000000 0.000000 0.000000 

0.000000 0.000000 0.000000 
0.000000 0.000000 0.000000 
0.000000 0.000000 0.000000 

0.000000 0.000000 0.000000 
0.000000 -0.000000 0.000000 
0.000000 0.000000 0.000000 

-0.000000 -0.000000 0.000000 
0.000000 -0.000000 0.000000 
0.000000 0.000000 0.000000 

0.000000 -0.000000 0.000000 
0.000000 0.000000 0.000000 
0.000000 0.000000 0.000000 

-0.000000 -0.000000 0.000000 
0.000000 0.000000 0.000000 
0.000000 0.000000 0.000000 

-0.000000 -0.000000 0.000000 
0.000000 0.000000 0.000000 
0.000000 0.000000 0.000000 

0.000000 0.000000 0.000000 
0.000000 0.000000 0.000000 
0.000000 0.000000 0.000000 

-0.000000 0.000000 0.000000 
0.000000 0.000000 0.000000 
0.000000 0.000000 0.000000 

0.000000 0.000000 0.000000 
0.000000 0.000000 0.000000 
0.000000 0.000000 0.000000 

0.000000 -0.000000 0.000000 
0.000000 -0.000000 0.000000 
0.000000 0.000000 0.000000 

0.000000 0.000000 0.000000 
0.000000 -0.000000 0.000000 
0.000000 0.000000 0.000000 

-0.000000 -0.000000 0.000000 
0.000000 -0.000000 0.000000 
0.000000 0.000000 0.000000 

0.000000 -0.000000 0.000000 
0.000000 -0.000000 0.000000 
0.000000 0.000000 0.000000 

0.000000 -0.000000 0.000000 
0.000000 0.000000 0.000000 
0.000000 0.000000 0.000000 

0.000000 -0.000000 0.000000 
0.000000 0.000000 0.000000 
0.000000 0.000000 0.000000 

0.000000 -0.000000 0.000000 
0.000000 -0.000000 0.000000 
0.000000 0.000000 0.000000 

0.000000 0.000000 0.000000 
0.000000 0.000000 0.000000 
0.000000 0.000000 0.000000 

-0.000000 -0.000000 0.000000 
0.000000 0.000000 0.000000 
0.000000 0.000000 0.000000 

-0.000000 -0.000000 0.000000 
0.000000 -0.000000 0.000000 
0.000000 0.000000 0.000000 

-0.000000 -0.000000 0.000000 
0.000000 0.000000 0.000000 
0.000000 0.000000 0.000000 

0.000000 0.000000 0.000000 
0.000000 -0.000000 0.000000 
0.000000 0.000000 0.000000 

0.000000 -0.000000 0.000000 
0.000000 -0.000000 0.000000 
0.000000 0.000000 0.000000 

0.000000 0.000000 0.000000 
0.000000 -0.000000 0.000000 
0.000000 0.000000 0.000000 

0.000000 -0.000000 0.000000 
0.000000 -0.000000 0.000000 
0.000000 0.000000 0.000000 

0.000000 -0.000000 0.000000 
0.000000 -0.000000 0.000000 
0.000000 0.000000 0.000000 

-0.000000 -0.000000 0.000000 
0.000000 -0.000000 0.000000 
0.000000 0.000000 0.000000 

-0.000000 -0.000000 0.000000 
0.000000 -0.000000 0.000000 
0.000000 0.000000 0.000000 

0.000000 0.000000 0.000000 
0.000000 -0.000000 0.000000 
0.000000 0.000000 0.000000 

0.000000 0.000000 0.000000 
0.000000 -0.000000 0.000000 
0.000000 0.000000 0.000000 

0.000000 0.000000 0.000000 
0.000000 -0.000000 0.000000 
0.000000 0.000000 0.000000 

0.000000 -0.000000 0.000000 
0.000000 -0.000000 0.000000 
0.000000 0.000000 0.000000 

0.000000 0.000000 0.000000 
0.000000 0.000000 0.000000 
0.000000 0.000000 0.000000 

0.000000 -0.000000 0.000000 
0.000000 0.000000 0.000000 
0.000000 0.000000 0.000000 

0.000000 -0.000000 0.000000 
0.000000 -0.000000 0.000000 
0.000000 0.000000 0.000000 

0.000000 -0.000000 0.000000 
0.000000 -0.000000 0.000000 
0.000000 0.000000 0.000000 

0.000000 -0.000000 0.000000 
0.000000 0.000000 0.000000 
0.000000 0.000000 0.000000 

-0.000000 -0.000000 0.000000 
0.000000 -0.000000 0.000000 
0.000000 0.000000 0.000000 

-0.000000 -0.000000 0.000000 
0.000000 -0.000000 0.000000 
0.000000 0.000000 0.000000 

-0.000000 -0.000000 0.000000 
0.000000 -0.000000 0.000000 
0.000000 0.000000 0.000000 

-0.000000 -0.000000 0.000000 
0.000000 -0.000000 0.000000 
0.000000 0.000000 0.000000 

0.000000 -0.000000 0.000000 
0.000000 -0.000000 0.000000 
0.000000 0.000000 0.000000 

0.000000 -0.000000 0.000000 
0.000000 -0.000000 0.000000 
0.000000 0.000000 0.000000 

0.000000 0.000000 0.000000 
0.000000 -0.000000 0.000000 
0.000000 0.000000 0.000000 

-0.000000 -0.000000 0.000000 
0.000000 0.000000 0.000000 
0.000000 0.000000 0.000000 

0.000000 0.000000 0.000000 
0.000000 -0.000000 0.000000 
0.000000 0.000000 0.000000 

0.000000 0.000000 0.000000 
0.000000 -0.000000 0.000000 
0.000000 0.000000 0.000000 

0.000000 -0.000000 0.000000 
0.000000 -0.000000 0.000000 
0.000000 0.000000 0.000000 

0.000000 -0.000000 0.000000 
0.000000 -0.000000 0.000000 
0.000000 0.000000 0.000000 

0.000000 0.000000 0.000000 
0.000000 0.000000 0.000000 
0.000000 0.000000 0.000000 

0.000000 0.000000 0.000000 
0.000000 -0.000000 0.000000 
0.000000 0.000000 0.000000 

0.000000 0.000000 0.000000 
0.000000 -0.000000 0.000000 
0.000000 0.000000 0.000000 

0.000000 0.000000 0.000000 
0.000000 0.000000 0.000000 
0.000000 0.000000 0.000000 

-0.000000 0.000000 0.000000 
0.000000 -0.000000 0.000000 
0.000000 0.000000 0.000000 

0.000000 -0.000000 0.000000 
0.000000 -0.000000 0.000000 
0.000000 0.000000 0.000000 

0.000000 0.000000 0.000000 
0.000000 -0.000000 0.000000 
0.000000 0.000000 0.000000 

-0.000000 -0.000000 0.000000 
0.000000 0.000000 0.000000 
0.000000 0.000000 0.000000 

-0.000000 0.000000 0.000000 
0.000000 -0.000000 0.000000 
0.000000 0.000000 0.000000 

-0.000000 0.000000 0.000000 
0.000000 0.000000 0.000000 
0.000000 0.000000 0.000000 

-0.000000 -0.000000 0.000000 
0.000000 0.000000 0.000000 
0.000000 0.000000 0.000000 

-0.000000 0.000000 0.000000 
0.000000 0.000000 0.000000 
0.000000 0.000000 0.000000 

0.000000 -0.000000 0.000000 
0.000000 0.000000 0.000000 
0.000000 0.000000 0.000000 

-0.000000 -0.000000 0.000000 
0.000000 0.000000 0.000000 
0.000000 0.000000 0.000000 

0.000000 0.000000 0.000000 
0.000000 0.000000 0.000000 
0.000000 0.000000 0.000000 

0.000000 0.000000 0.000000 
0.000000 0.000000 0.000000 
0.000000 0.000000 0.000000 

0.000000 -0.000000 0.000000 
0.000000 -0.000000 0.000000 
0.000000 0.000000 0.000000 

0.000000 -0.000000 0.000000 
0.000000 -0.000000 0.000000 
0.000000 0.000000 0.000000 

-0.000000 -0.000000 0.000000 
0.000000 0.000000 0.000000 
0.000000 0.000000 0.000000 

-0.000000 0.000000 0.000000 
0.000000 -0.000000 0.000000 
0.000000 0.000000 0.000000 

0.000000 -0.000000 0.000000 
0.000000 -0.000000 0.000000 
0.000000 0.000000 0.000000 

0.000000 -0.000000 0.000000 
0.000000 0.000000 0.000000 
0.000000 0.000000 0.000000 

0.000000 0.000000 0.000000 
0.000000 -0.000000 0.000000 
0.000000 0.000000 0.000000 

0.000000 0.000000 0.000000 
0.000000 0.000000 0.000000 
0.000000 0.000000 0.000000 

-0.000000 -0.000000 0.000000 
0.000000 0.000000 0.000000 
0.000000 0.000000 0.000000 

-0.000000 -0.000000 0.000000 
0.000000 0.000000 0.000000 
0.000000 0.000000 0.000000 

-0.000000 0.000000 0.000000 
0.000000 0.000000 0.000000 
0.000000 0.000000 0.000000 

-0.000000 -0.000000 0.000000 
0.000000 0.000000 0.000000 
0.000000 0.000000 0.000000 

0.000000 -0.000000 0.000000 
0.000000 0.000000 0.000000 
0.000000 0.000000 0.000000 

-0.000000 0.000000 0.000000 
0.000000 -0.000000 0.000000 
0.000000 0.000000 0.000000 

-0.000000 -0.000000 0.000000 
0.000000 0.000000 0.000000 
0.000000 0.000000 0.000000 

-0.000000 -0.000000 0.000000 
0.000000 0.000000 0.000000 
0.000000 0.000000 0.000000 

-0.000000 -0.000000 0.000000 
0.000000 -0.000000 0.000000 
0.000000 0.000000 0.000000 

-0.000000 -0.000000 0.000000 
0.000000 0.000000 0.000000 
0.000000 0.000000 0.000000 

-0.000000 0.000000 0.000000 
0.000000 0.000000 0.000000 
0.000000 0.000000 0.000000 

-0.000000 0.000000 0.000000 
0.000000 0.000000 0.000000 
0.000000 0.000000 0.000000 

-0.000000 -0.000000 0.000000 
0.000000 -0.000000 0.000000 
0.000000 0.000000 0.000000 

-0.000000 -0.000000 0.000000 
0.000000 0.000000 0.000000 
0.000000 0.000000 0.000000 

