# vtk DataFile Version 3.0 
vtk output 
ASCII 
DATASET UNSTRUCTURED_GRID 
POINTS 175 float 
-0.026061 -1.487390 0.000000 
-0.106992 -1.419334 0.000000 
-0.054870 -1.427567 0.000000 
-0.028809 -1.381683 0.000000 
-0.186430 -1.355259 0.000000 
-0.137056 -1.357785 0.000000 
-0.114311 -1.304138 0.000000 
-0.058186 -1.319803 0.000000 
-0.029377 -1.279626 0.000000 
-0.265318 -1.292103 0.000000 
-0.217198 -1.292903 0.000000 
-0.196633 -1.235606 0.000000 
-0.143120 -1.244315 0.000000 
-0.116563 -1.197046 0.000000 
-0.058945 -1.216692 0.000000 
-0.029568 -1.178572 0.000000 
-0.344206 -1.228947 0.000000 
-0.296791 -1.228940 0.000000 
-0.278030 -1.168997 0.000000 
-0.225992 -1.174863 0.000000 
-0.201664 -1.122746 0.000000 
-0.145749 -1.136220 0.000000 
-0.117890 -1.091878 0.000000 
-0.059328 -1.114584 0.000000 
-0.029759 -1.077518 0.000000 
-0.058559 -1.528140 0.000000 
-0.162226 -1.548983 0.000000 
-0.123292 -1.513365 0.000000 
-0.142917 -1.464382 0.000000 
-0.261851 -1.571139 0.000000 
-0.229092 -1.534112 0.000000 
-0.256854 -1.482881 0.000000 
-0.209613 -1.448768 0.000000 
-0.223062 -1.401194 0.000000 
-0.360414 -1.593440 0.000000 
-0.329787 -1.556317 0.000000 
-0.361761 -1.504515 0.000000 
-0.321587 -1.468106 0.000000 
-0.341985 -1.417872 0.000000 
-0.290702 -1.385073 0.000000 
-0.302189 -1.338338 0.000000 
-0.458977 -1.615740 0.000000 
-0.429420 -1.578665 0.000000 
-0.464588 -1.526623 0.000000 
-0.427556 -1.489596 0.000000 
-0.453135 -1.438081 0.000000 
-0.407738 -1.402766 0.000000 
-0.425037 -1.353338 0.000000 
-0.370772 -1.321708 0.000000 
-0.381315 -1.275481 0.000000 
-0.046960 -1.578956 0.000000 
-0.095301 -1.673001 0.000000 
-0.098873 -1.620354 0.000000 
-0.149405 -1.605157 0.000000 
-0.140093 -1.764705 0.000000 
-0.148617 -1.716007 0.000000 
-0.205981 -1.705770 0.000000 
-0.203197 -1.647567 0.000000 
-0.248777 -1.628420 0.000000 
-0.184111 -1.855669 0.000000 
-0.194039 -1.808578 0.000000 
-0.254475 -1.801278 0.000000 
-0.257893 -1.747169 0.000000 
-0.309886 -1.731796 0.000000 
-0.303554 -1.671251 0.000000 
-0.347255 -1.651093 0.000000 
-0.228129 -1.946633 0.000000 
-0.238687 -1.900408 0.000000 
-0.301302 -1.895456 0.000000 
-0.307162 -1.843417 0.000000 
-0.363386 -1.831296 0.000000 
-0.362692 -1.773785 0.000000 
-0.412122 -1.756492 0.000000 
-0.403017 -1.694345 0.000000 
-0.445733 -1.673766 0.000000 
-0.000000 -1.601571 0.000000 
0.043388 -1.698001 0.000000 
-0.000000 -1.667969 0.000000 
-0.043388 -1.698001 0.000000 
0.087158 -1.790198 0.000000 
0.043769 -1.766499 0.000000 
-0.000000 -1.804965 0.000000 
-0.043769 -1.766499 0.000000 
-0.087158 -1.790198 0.000000 
0.130831 -1.881327 0.000000 
0.087824 -1.859729 0.000000 
0.044436 -1.902428 0.000000 
-0.000000 -1.871363 0.000000 
-0.044436 -1.902428 0.000000 
-0.087824 -1.859729 0.000000 
-0.130831 -1.881327 0.000000 
0.174505 -1.972457 0.000000 
0.131782 -1.951891 0.000000 
0.088871 -1.997758 0.000000 
0.044532 -1.969894 0.000000 
-0.000000 -2.006294 0.000000 
-0.044532 -1.969894 0.000000 
-0.088871 -1.997758 0.000000 
-0.131782 -1.951891 0.000000 
-0.174505 -1.972457 0.000000 
0.046960 -1.578956 0.000000 
0.149405 -1.605157 0.000000 
0.098873 -1.620354 0.000000 
0.095301 -1.673001 0.000000 
0.248777 -1.628420 0.000000 
0.203197 -1.647567 0.000000 
0.205981 -1.705770 0.000000 
0.148617 -1.716007 0.000000 
0.140093 -1.764705 0.000000 
0.347255 -1.651093 0.000000 
0.303554 -1.671251 0.000000 
0.309886 -1.731796 0.000000 
0.257893 -1.747169 0.000000 
0.254475 -1.801278 0.000000 
0.194039 -1.808578 0.000000 
0.184111 -1.855669 0.000000 
0.445733 -1.673766 0.000000 
0.403017 -1.694345 0.000000 
0.412122 -1.756492 0.000000 
0.362692 -1.773785 0.000000 
0.363386 -1.831296 0.000000 
0.307162 -1.843417 0.000000 
0.301302 -1.895456 0.000000 
0.238687 -1.900408 0.000000 
0.228129 -1.946633 0.000000 
0.058559 -1.528140 0.000000 
0.142917 -1.464382 0.000000 
0.123292 -1.513365 0.000000 
0.162226 -1.548983 0.000000 
0.223062 -1.401194 0.000000 
0.209613 -1.448768 0.000000 
0.256854 -1.482881 0.000000 
0.229092 -1.534112 0.000000 
0.261851 -1.571139 0.000000 
0.302189 -1.338338 0.000000 
0.290702 -1.385073 0.000000 
0.341985 -1.417872 0.000000 
0.321587 -1.468106 0.000000 
0.361761 -1.504515 0.000000 
0.329787 -1.556317 0.000000 
0.360414 -1.593440 0.000000 
0.381315 -1.275481 0.000000 
0.370772 -1.321708 0.000000 
0.425037 -1.353338 0.000000 
0.407738 -1.402766 0.000000 
0.453135 -1.438081 0.000000 
0.427556 -1.489596 0.000000 
0.464588 -1.526623 0.000000 
0.429420 -1.578665 0.000000 
0.458977 -1.615740 0.000000 
0.026061 -1.487390 0.000000 
0.028809 -1.381683 0.000000 
0.054870 -1.427567 0.000000 
0.106992 -1.419334 0.000000 
0.029377 -1.279626 0.000000 
0.058186 -1.319803 0.000000 
0.114311 -1.304138 0.000000 
0.137056 -1.357785 0.000000 
0.186430 -1.355259 0.000000 
0.029568 -1.178572 0.000000 
0.058945 -1.216692 0.000000 
0.116563 -1.197046 0.000000 
0.143120 -1.244315 0.000000 
0.196633 -1.235606 0.000000 
0.217198 -1.292903 0.000000 
0.265318 -1.292103 0.000000 
0.029759 -1.077518 0.000000 
0.059328 -1.114584 0.000000 
0.117890 -1.091878 0.000000 
0.145749 -1.136220 0.000000 
0.201664 -1.122746 0.000000 
0.225992 -1.174863 0.000000 
0.278030 -1.168997 0.000000 
0.296791 -1.228940 0.000000 
0.344206 -1.228947 0.000000 
CELLS 175 350 
1 0 
1 1 
1 2 
1 3 
1 4 
1 5 
1 6 
1 7 
1 8 
1 9 
1 10 
1 11 
1 12 
1 13 
1 14 
1 15 
1 16 
1 17 
1 18 
1 19 
1 20 
1 21 
1 22 
1 23 
1 24 
1 25 
1 26 
1 27 
1 28 
1 29 
1 30 
1 31 
1 32 
1 33 
1 34 
1 35 
1 36 
1 37 
1 38 
1 39 
1 40 
1 41 
1 42 
1 43 
1 44 
1 45 
1 46 
1 47 
1 48 
1 49 
1 50 
1 51 
1 52 
1 53 
1 54 
1 55 
1 56 
1 57 
1 58 
1 59 
1 60 
1 61 
1 62 
1 63 
1 64 
1 65 
1 66 
1 67 
1 68 
1 69 
1 70 
1 71 
1 72 
1 73 
1 74 
1 75 
1 76 
1 77 
1 78 
1 79 
1 80 
1 81 
1 82 
1 83 
1 84 
1 85 
1 86 
1 87 
1 88 
1 89 
1 90 
1 91 
1 92 
1 93 
1 94 
1 95 
1 96 
1 97 
1 98 
1 99 
1 100 
1 101 
1 102 
1 103 
1 104 
1 105 
1 106 
1 107 
1 108 
1 109 
1 110 
1 111 
1 112 
1 113 
1 114 
1 115 
1 116 
1 117 
1 118 
1 119 
1 120 
1 121 
1 122 
1 123 
1 124 
1 125 
1 126 
1 127 
1 128 
1 129 
1 130 
1 131 
1 132 
1 133 
1 134 
1 135 
1 136 
1 137 
1 138 
1 139 
1 140 
1 141 
1 142 
1 143 
1 144 
1 145 
1 146 
1 147 
1 148 
1 149 
1 150 
1 151 
1 152 
1 153 
1 154 
1 155 
1 156 
1 157 
1 158 
1 159 
1 160 
1 161 
1 162 
1 163 
1 164 
1 165 
1 166 
1 167 
1 168 
1 169 
1 170 
1 171 
1 172 
1 173 
1 174 
CELL_TYPES 175 
1 
1 
1 
1 
1 
1 
1 
1 
1 
1 
1 
1 
1 
1 
1 
1 
1 
1 
1 
1 
1 
1 
1 
1 
1 
1 
1 
1 
1 
1 
1 
1 
1 
1 
1 
1 
1 
1 
1 
1 
1 
1 
1 
1 
1 
1 
1 
1 
1 
1 
1 
1 
1 
1 
1 
1 
1 
1 
1 
1 
1 
1 
1 
1 
1 
1 
1 
1 
1 
1 
1 
1 
1 
1 
1 
1 
1 
1 
1 
1 
1 
1 
1 
1 
1 
1 
1 
1 
1 
1 
1 
1 
1 
1 
1 
1 
1 
1 
1 
1 
1 
1 
1 
1 
1 
1 
1 
1 
1 
1 
1 
1 
1 
1 
1 
1 
1 
1 
1 
1 
1 
1 
1 
1 
1 
1 
1 
1 
1 
1 
1 
1 
1 
1 
1 
1 
1 
1 
1 
1 
1 
1 
1 
1 
1 
1 
1 
1 
1 
1 
1 
1 
1 
1 
1 
1 
1 
1 
1 
1 
1 
1 
1 
1 
1 
1 
1 
1 
1 
1 
1 
1 
1 
1 
1 
POINT_DATA 175 
VECTORS X_GC float 
-0.026061 -1.487390 0.000000 
-0.106992 -1.419334 0.000000 
-0.054870 -1.427567 0.000000 
-0.028809 -1.381683 0.000000 
-0.186430 -1.355259 0.000000 
-0.137056 -1.357785 0.000000 
-0.114311 -1.304138 0.000000 
-0.058186 -1.319803 0.000000 
-0.029377 -1.279626 0.000000 
-0.265318 -1.292103 0.000000 
-0.217198 -1.292903 0.000000 
-0.196633 -1.235606 0.000000 
-0.143120 -1.244315 0.000000 
-0.116563 -1.197046 0.000000 
-0.058945 -1.216692 0.000000 
-0.029568 -1.178572 0.000000 
-0.344206 -1.228947 0.000000 
-0.296791 -1.228940 0.000000 
-0.278030 -1.168997 0.000000 
-0.225992 -1.174863 0.000000 
-0.201664 -1.122746 0.000000 
-0.145749 -1.136220 0.000000 
-0.117890 -1.091878 0.000000 
-0.059328 -1.114584 0.000000 
-0.029759 -1.077518 0.000000 
-0.058559 -1.528140 0.000000 
-0.162226 -1.548983 0.000000 
-0.123292 -1.513365 0.000000 
-0.142917 -1.464382 0.000000 
-0.261851 -1.571139 0.000000 
-0.229092 -1.534112 0.000000 
-0.256854 -1.482881 0.000000 
-0.209613 -1.448768 0.000000 
-0.223062 -1.401194 0.000000 
-0.360414 -1.593440 0.000000 
-0.329787 -1.556317 0.000000 
-0.361761 -1.504515 0.000000 
-0.321587 -1.468106 0.000000 
-0.341985 -1.417872 0.000000 
-0.290702 -1.385073 0.000000 
-0.302189 -1.338338 0.000000 
-0.458977 -1.615740 0.000000 
-0.429420 -1.578665 0.000000 
-0.464588 -1.526623 0.000000 
-0.427556 -1.489596 0.000000 
-0.453135 -1.438081 0.000000 
-0.407738 -1.402766 0.000000 
-0.425037 -1.353338 0.000000 
-0.370772 -1.321708 0.000000 
-0.381315 -1.275481 0.000000 
-0.046960 -1.578956 0.000000 
-0.095301 -1.673001 0.000000 
-0.098873 -1.620354 0.000000 
-0.149405 -1.605157 0.000000 
-0.140093 -1.764705 0.000000 
-0.148617 -1.716007 0.000000 
-0.205981 -1.705770 0.000000 
-0.203197 -1.647567 0.000000 
-0.248777 -1.628420 0.000000 
-0.184111 -1.855669 0.000000 
-0.194039 -1.808578 0.000000 
-0.254475 -1.801278 0.000000 
-0.257893 -1.747169 0.000000 
-0.309886 -1.731796 0.000000 
-0.303554 -1.671251 0.000000 
-0.347255 -1.651093 0.000000 
-0.228129 -1.946633 0.000000 
-0.238687 -1.900408 0.000000 
-0.301302 -1.895456 0.000000 
-0.307162 -1.843417 0.000000 
-0.363386 -1.831296 0.000000 
-0.362692 -1.773785 0.000000 
-0.412122 -1.756492 0.000000 
-0.403017 -1.694345 0.000000 
-0.445733 -1.673766 0.000000 
-0.000000 -1.601571 0.000000 
0.043388 -1.698001 0.000000 
-0.000000 -1.667969 0.000000 
-0.043388 -1.698001 0.000000 
0.087158 -1.790198 0.000000 
0.043769 -1.766499 0.000000 
-0.000000 -1.804965 0.000000 
-0.043769 -1.766499 0.000000 
-0.087158 -1.790198 0.000000 
0.130831 -1.881327 0.000000 
0.087824 -1.859729 0.000000 
0.044436 -1.902428 0.000000 
-0.000000 -1.871363 0.000000 
-0.044436 -1.902428 0.000000 
-0.087824 -1.859729 0.000000 
-0.130831 -1.881327 0.000000 
0.174505 -1.972457 0.000000 
0.131782 -1.951891 0.000000 
0.088871 -1.997758 0.000000 
0.044532 -1.969894 0.000000 
-0.000000 -2.006294 0.000000 
-0.044532 -1.969894 0.000000 
-0.088871 -1.997758 0.000000 
-0.131782 -1.951891 0.000000 
-0.174505 -1.972457 0.000000 
0.046960 -1.578956 0.000000 
0.149405 -1.605157 0.000000 
0.098873 -1.620354 0.000000 
0.095301 -1.673001 0.000000 
0.248777 -1.628420 0.000000 
0.203197 -1.647567 0.000000 
0.205981 -1.705770 0.000000 
0.148617 -1.716007 0.000000 
0.140093 -1.764705 0.000000 
0.347255 -1.651093 0.000000 
0.303554 -1.671251 0.000000 
0.309886 -1.731796 0.000000 
0.257893 -1.747169 0.000000 
0.254475 -1.801278 0.000000 
0.194039 -1.808578 0.000000 
0.184111 -1.855669 0.000000 
0.445733 -1.673766 0.000000 
0.403017 -1.694345 0.000000 
0.412122 -1.756492 0.000000 
0.362692 -1.773785 0.000000 
0.363386 -1.831296 0.000000 
0.307162 -1.843417 0.000000 
0.301302 -1.895456 0.000000 
0.238687 -1.900408 0.000000 
0.228129 -1.946633 0.000000 
0.058559 -1.528140 0.000000 
0.142917 -1.464382 0.000000 
0.123292 -1.513365 0.000000 
0.162226 -1.548983 0.000000 
0.223062 -1.401194 0.000000 
0.209613 -1.448768 0.000000 
0.256854 -1.482881 0.000000 
0.229092 -1.534112 0.000000 
0.261851 -1.571139 0.000000 
0.302189 -1.338338 0.000000 
0.290702 -1.385073 0.000000 
0.341985 -1.417872 0.000000 
0.321587 -1.468106 0.000000 
0.361761 -1.504515 0.000000 
0.329787 -1.556317 0.000000 
0.360414 -1.593440 0.000000 
0.381315 -1.275481 0.000000 
0.370772 -1.321708 0.000000 
0.425037 -1.353338 0.000000 
0.407738 -1.402766 0.000000 
0.453135 -1.438081 0.000000 
0.427556 -1.489596 0.000000 
0.464588 -1.526623 0.000000 
0.429420 -1.578665 0.000000 
0.458977 -1.615740 0.000000 
0.026061 -1.487390 0.000000 
0.028809 -1.381683 0.000000 
0.054870 -1.427567 0.000000 
0.106992 -1.419334 0.000000 
0.029377 -1.279626 0.000000 
0.058186 -1.319803 0.000000 
0.114311 -1.304138 0.000000 
0.137056 -1.357785 0.000000 
0.186430 -1.355259 0.000000 
0.029568 -1.178572 0.000000 
0.058945 -1.216692 0.000000 
0.116563 -1.197046 0.000000 
0.143120 -1.244315 0.000000 
0.196633 -1.235606 0.000000 
0.217198 -1.292903 0.000000 
0.265318 -1.292103 0.000000 
0.029759 -1.077518 0.000000 
0.059328 -1.114584 0.000000 
0.117890 -1.091878 0.000000 
0.145749 -1.136220 0.000000 
0.201664 -1.122746 0.000000 
0.225992 -1.174863 0.000000 
0.278030 -1.168997 0.000000 
0.296791 -1.228940 0.000000 
0.344206 -1.228947 0.000000 
VECTORS X_EC float 
0.338794 0.579759 0.000000 
-0.609100 -0.338989 0.000000 
0.713312 -0.227848 0.000000 
0.374519 -0.847278 0.000000 
0.423588 0.795992 0.000000 
-0.218274 0.830095 0.000000 
-0.513962 0.105856 0.000000 
0.756418 0.317343 0.000000 
0.381900 -0.225050 0.000000 
-0.550868 -0.056611 0.000000 
0.823577 -0.045816 0.000000 
0.556234 -0.819320 0.000000 
-0.139443 -0.701751 0.000000 
-0.484677 0.660124 0.000000 
0.766286 0.925340 0.000000 
0.384386 0.410719 0.000000 
0.474677 -0.909215 0.000000 
-0.141715 -0.909311 0.000000 
-0.385608 0.281461 0.000000 
0.937896 0.360656 0.000000 
0.621631 -0.342924 0.000000 
-0.105264 -0.161024 0.000000 
-0.467428 -0.759651 0.000000 
0.771260 -0.453122 0.000000 
0.386873 -0.953512 0.000000 
0.761262 -0.870106 0.000000 
0.108942 -0.588729 0.000000 
-0.397202 0.930431 0.000000 
-0.142083 0.269156 0.000000 
-0.595936 -0.289619 0.000000 
0.978194 -0.789485 0.000000 
-0.660903 0.518890 0.000000 
0.724964 0.058370 0.000000 
0.899809 -0.583878 0.000000 
0.685384 0.011433 0.000000 
0.287229 -0.489725 0.000000 
0.702895 0.810946 0.000000 
0.180633 0.319428 0.000000 
0.445811 -0.358732 0.000000 
-0.220880 -0.801518 0.000000 
-0.071546 0.567557 0.000000 
-0.033296 0.312485 0.000000 
-0.417537 -0.188024 0.000000 
0.039645 -0.890587 0.000000 
-0.441768 0.609542 0.000000 
-0.109248 -0.085908 0.000000 
-0.699407 -0.562664 0.000000 
-0.474522 0.770057 0.000000 
0.820030 0.343063 0.000000 
0.957100 -0.281008 0.000000 
0.610485 -0.184100 0.000000 
-0.761092 -0.914480 0.000000 
-0.714655 0.374782 0.000000 
-0.057734 0.169615 0.000000 
-0.178789 0.323524 0.000000 
-0.067979 -0.333902 0.000000 
0.677748 -0.472106 0.000000 
0.641556 0.742149 0.000000 
-0.765897 0.483670 0.000000 
0.393446 -0.448467 0.000000 
0.522510 0.915803 0.000000 
-0.691820 0.817259 0.000000 
-0.647393 0.086776 0.000000 
0.028512 -0.120750 0.000000 
-0.053800 -0.938111 0.000000 
0.514316 0.789758 0.000000 
0.965681 0.779542 0.000000 
-0.897068 0.155513 0.000000 
-0.083078 0.088660 0.000000 
-0.006893 -0.613864 0.000000 
0.724017 -0.777497 0.000000 
0.714996 0.446099 0.000000 
-0.642413 0.212642 0.000000 
-0.760780 -0.626339 0.000000 
-0.205471 -0.904154 0.000000 
0.000000 0.121202 0.000000 
-0.564049 -0.576985 0.000000 
0.000000 -0.982421 0.000000 
0.564049 -0.576985 0.000000 
0.866949 0.667670 0.000000 
-0.569003 0.347739 0.000000 
0.000000 0.867027 0.000000 
0.569003 0.347739 0.000000 
-0.866949 0.667670 0.000000 
0.299194 -0.102080 0.000000 
0.858290 -0.393664 0.000000 
-0.577662 0.182782 0.000000 
0.000000 -0.236596 0.000000 
0.577662 0.182782 0.000000 
-0.858290 -0.393664 0.000000 
-0.299194 -0.102080 0.000000 
-0.268560 -0.871830 0.000000 
0.286830 0.850529 0.000000 
0.844677 -0.530273 0.000000 
-0.578910 -0.906436 0.000000 
0.000000 -0.415032 0.000000 
0.578910 -0.906436 0.000000 
-0.844677 -0.530273 0.000000 
-0.286830 0.850529 0.000000 
0.268560 -0.871830 0.000000 
-0.610485 -0.184100 0.000000 
0.057734 0.169615 0.000000 
0.714655 0.374782 0.000000 
0.761092 -0.914480 0.000000 
0.765897 0.483671 0.000000 
-0.641556 0.742149 0.000000 
-0.677748 -0.472106 0.000000 
0.067979 -0.333902 0.000000 
0.178789 0.323524 0.000000 
-0.514316 0.789758 0.000000 
0.053800 -0.938111 0.000000 
-0.028512 -0.120750 0.000000 
0.647393 0.086776 0.000000 
0.691820 0.817259 0.000000 
-0.522510 0.915803 0.000000 
-0.393446 -0.448467 0.000000 
0.205471 -0.904154 0.000000 
0.760780 -0.626339 0.000000 
0.642413 0.212642 0.000000 
-0.714996 0.446099 0.000000 
-0.724017 -0.777497 0.000000 
0.006894 -0.613864 0.000000 
0.083078 0.088660 0.000000 
0.897068 0.155513 0.000000 
-0.965681 0.779542 0.000000 
-0.761262 -0.870106 0.000000 
0.142083 0.269156 0.000000 
0.397202 0.930431 0.000000 
-0.108942 -0.588729 0.000000 
-0.899809 -0.583878 0.000000 
-0.724964 0.058370 0.000000 
0.660903 0.518890 0.000000 
-0.978194 -0.789485 0.000000 
0.595936 -0.289619 0.000000 
0.071546 0.567557 0.000000 
0.220880 -0.801518 0.000000 
-0.445811 -0.358732 0.000000 
-0.180633 0.319428 0.000000 
-0.702895 0.810946 0.000000 
-0.287229 -0.489725 0.000000 
-0.685384 0.011433 0.000000 
-0.957100 -0.281008 0.000000 
-0.820030 0.343063 0.000000 
0.474522 0.770057 0.000000 
0.699407 -0.562664 0.000000 
0.109248 -0.085908 0.000000 
0.441768 0.609542 0.000000 
-0.039645 -0.890587 0.000000 
0.417537 -0.188024 0.000000 
0.033296 0.312486 0.000000 
-0.338794 0.579759 0.000000 
-0.374519 -0.847278 0.000000 
-0.713312 -0.227848 0.000000 
0.609100 -0.338989 0.000000 
-0.381900 -0.225050 0.000000 
-0.756418 0.317343 0.000000 
0.513962 0.105856 0.000000 
0.218274 0.830095 0.000000 
-0.423588 0.795992 0.000000 
-0.384386 0.410719 0.000000 
-0.766286 0.925340 0.000000 
0.484677 0.660124 0.000000 
0.139443 -0.701751 0.000000 
-0.556234 -0.819320 0.000000 
-0.823577 -0.045816 0.000000 
0.550868 -0.056611 0.000000 
-0.386873 -0.953512 0.000000 
-0.771260 -0.453122 0.000000 
0.467428 -0.759651 0.000000 
0.105264 -0.161024 0.000000 
-0.621631 -0.342924 0.000000 
-0.937896 0.360656 0.000000 
0.385608 0.281461 0.000000 
0.141715 -0.909311 0.000000 
-0.474677 -0.909215 0.000000 
CELL_DATA 175 
SCALARS MASS float 
LOOKUP_TABLE default 
0.078183 
0.086427 
0.094672 
0.086427 
0.088131 
0.092111 
0.085854 
0.092111 
0.088131 
0.088705 
0.091000 
0.086983 
0.091556 
0.086983 
0.091000 
0.088705 
0.089278 
0.091574 
0.089278 
0.092722 
0.089278 
0.092722 
0.089278 
0.091574 
0.089278 
0.078183 
0.086427 
0.094672 
0.086427 
0.088131 
0.092111 
0.085854 
0.092111 
0.088131 
0.088705 
0.091000 
0.086983 
0.091556 
0.086983 
0.091000 
0.088705 
0.089278 
0.091574 
0.089278 
0.092722 
0.089278 
0.092722 
0.089278 
0.091574 
0.089278 
0.078183 
0.086427 
0.094672 
0.086427 
0.088131 
0.092111 
0.085854 
0.092111 
0.088131 
0.088705 
0.091000 
0.086983 
0.091556 
0.086983 
0.091000 
0.088705 
0.089278 
0.091574 
0.089278 
0.092722 
0.089278 
0.092722 
0.089278 
0.091574 
0.089278 
0.078183 
0.086427 
0.094672 
0.086427 
0.088131 
0.092111 
0.085854 
0.092111 
0.088131 
0.088705 
0.091000 
0.086983 
0.091556 
0.086983 
0.091000 
0.088705 
0.089278 
0.091574 
0.089278 
0.092722 
0.089278 
0.092722 
0.089278 
0.091574 
0.089278 
0.078183 
0.086427 
0.094672 
0.086427 
0.088131 
0.092111 
0.085854 
0.092111 
0.088131 
0.088705 
0.091000 
0.086983 
0.091556 
0.086983 
0.091000 
0.088705 
0.089278 
0.091574 
0.089278 
0.092722 
0.089278 
0.092722 
0.089278 
0.091574 
0.089278 
0.078183 
0.086427 
0.094672 
0.086427 
0.088131 
0.092111 
0.085854 
0.092111 
0.088131 
0.088705 
0.091000 
0.086983 
0.091556 
0.086983 
0.091000 
0.088705 
0.089278 
0.091574 
0.089278 
0.092722 
0.089278 
0.092722 
0.089278 
0.091574 
0.089278 
0.078183 
0.086427 
0.094672 
0.086427 
0.088131 
0.092111 
0.085854 
0.092111 
0.088131 
0.088705 
0.091000 
0.086983 
0.091556 
0.086983 
0.091000 
0.088705 
0.089278 
0.091574 
0.089278 
0.092722 
0.089278 
0.092722 
0.089278 
0.091574 
0.089278 
SCALARS MASS float 
LOOKUP_TABLE default 
0.078183 
0.086427 
0.094672 
0.086427 
0.088131 
0.092111 
0.085854 
0.092111 
0.088131 
0.088705 
0.091000 
0.086983 
0.091556 
0.086983 
0.091000 
0.088705 
0.089278 
0.091574 
0.089278 
0.092722 
0.089278 
0.092722 
0.089278 
0.091574 
0.089278 
0.078183 
0.086427 
0.094672 
0.086427 
0.088131 
0.092111 
0.085854 
0.092111 
0.088131 
0.088705 
0.091000 
0.086983 
0.091556 
0.086983 
0.091000 
0.088705 
0.089278 
0.091574 
0.089278 
0.092722 
0.089278 
0.092722 
0.089278 
0.091574 
0.089278 
0.078183 
0.086427 
0.094672 
0.086427 
0.088131 
0.092111 
0.085854 
0.092111 
0.088131 
0.088705 
0.091000 
0.086983 
0.091556 
0.086983 
0.091000 
0.088705 
0.089278 
0.091574 
0.089278 
0.092722 
0.089278 
0.092722 
0.089278 
0.091574 
0.089278 
0.078183 
0.086427 
0.094672 
0.086427 
0.088131 
0.092111 
0.085854 
0.092111 
0.088131 
0.088705 
0.091000 
0.086983 
0.091556 
0.086983 
0.091000 
0.088705 
0.089278 
0.091574 
0.089278 
0.092722 
0.089278 
0.092722 
0.089278 
0.091574 
0.089278 
0.078183 
0.086427 
0.094672 
0.086427 
0.088131 
0.092111 
0.085854 
0.092111 
0.088131 
0.088705 
0.091000 
0.086983 
0.091556 
0.086983 
0.091000 
0.088705 
0.089278 
0.091574 
0.089278 
0.092722 
0.089278 
0.092722 
0.089278 
0.091574 
0.089278 
0.078183 
0.086427 
0.094672 
0.086427 
0.088131 
0.092111 
0.085854 
0.092111 
0.088131 
0.088705 
0.091000 
0.086983 
0.091556 
0.086983 
0.091000 
0.088705 
0.089278 
0.091574 
0.089278 
0.092722 
0.089278 
0.092722 
0.089278 
0.091574 
0.089278 
0.078183 
0.086427 
0.094672 
0.086427 
0.088131 
0.092111 
0.085854 
0.092111 
0.088131 
0.088705 
0.091000 
0.086983 
0.091556 
0.086983 
0.091000 
0.088705 
0.089278 
0.091574 
0.089278 
0.092722 
0.089278 
0.092722 
0.089278 
0.091574 
0.089278 
SCALARS DENSITY float 
LOOKUP_TABLE default 
20.000000 
20.000000 
20.000000 
20.000000 
20.000000 
20.000000 
20.000000 
20.000000 
20.000000 
20.000000 
20.000000 
20.000000 
20.000000 
20.000000 
20.000000 
20.000000 
20.000000 
20.000000 
20.000000 
20.000000 
20.000000 
20.000000 
20.000000 
20.000000 
20.000000 
20.000000 
20.000000 
20.000000 
20.000000 
20.000000 
20.000000 
20.000000 
20.000000 
20.000000 
20.000000 
20.000000 
20.000000 
20.000000 
20.000000 
20.000000 
20.000000 
20.000000 
20.000000 
20.000000 
20.000000 
20.000000 
20.000000 
20.000000 
20.000000 
20.000000 
20.000000 
20.000000 
20.000000 
20.000000 
20.000000 
20.000000 
20.000000 
20.000000 
20.000000 
20.000000 
20.000000 
20.000000 
20.000000 
20.000000 
20.000000 
20.000000 
20.000000 
20.000000 
20.000000 
20.000000 
20.000000 
20.000000 
20.000000 
20.000000 
20.000000 
20.000000 
20.000000 
20.000000 
20.000000 
20.000000 
20.000000 
20.000000 
20.000000 
20.000000 
20.000000 
20.000000 
20.000000 
20.000000 
20.000000 
20.000000 
20.000000 
20.000000 
20.000000 
20.000000 
20.000000 
20.000000 
20.000000 
20.000000 
20.000000 
20.000000 
20.000000 
20.000000 
20.000000 
20.000000 
20.000000 
20.000000 
20.000000 
20.000000 
20.000000 
20.000000 
20.000000 
20.000000 
20.000000 
20.000000 
20.000000 
20.000000 
20.000000 
20.000000 
20.000000 
20.000000 
20.000000 
20.000000 
20.000000 
20.000000 
20.000000 
20.000000 
20.000000 
20.000000 
20.000000 
20.000000 
20.000000 
20.000000 
20.000000 
20.000000 
20.000000 
20.000000 
20.000000 
20.000000 
20.000000 
20.000000 
20.000000 
20.000000 
20.000000 
20.000000 
20.000000 
20.000000 
20.000000 
20.000000 
20.000000 
20.000000 
20.000000 
20.000000 
20.000000 
20.000000 
20.000000 
20.000000 
20.000000 
20.000000 
20.000000 
20.000000 
20.000000 
20.000000 
20.000000 
20.000000 
20.000000 
20.000000 
20.000000 
20.000000 
20.000000 
20.000000 
20.000000 
20.000000 
20.000000 
20.000000 
20.000000 
SCALARS ELEM_i float 
LOOKUP_TABLE default 
172 
199 
172 
172 
200 
200 
200 
173 
173 
227 
200 
200 
200 
201 
174 
174 
227 
227 
228 
201 
201 
201 
201 
174 
174 
171 
198 
199 
199 
225 
198 
226 
199 
199 
225 
225 
226 
226 
226 
226 
227 
252 
252 
252 
253 
253 
253 
254 
227 
227 
171 
197 
198 
198 
197 
197 
197 
198 
225 
196 
197 
224 
224 
224 
224 
225 
196 
223 
223 
223 
223 
224 
251 
251 
251 
171 
170 
170 
170 
143 
170 
170 
170 
197 
142 
142 
169 
169 
169 
196 
196 
141 
142 
141 
168 
168 
168 
195 
196 
195 
171 
144 
144 
143 
117 
144 
143 
143 
143 
117 
116 
116 
116 
116 
143 
142 
89 
89 
89 
116 
115 
115 
115 
115 
142 
171 
145 
145 
144 
145 
145 
118 
144 
117 
119 
118 
118 
118 
118 
117 
117 
119 
119 
92 
91 
91 
91 
90 
90 
90 
172 
172 
172 
145 
173 
173 
146 
146 
146 
174 
174 
147 
146 
146 
146 
119 
174 
174 
147 
147 
147 
147 
120 
119 
119 
VECTORS VELOCITY float 
0.000000 -5.499094 0.000000 
-0.000000 -5.499094 0.000000 
-0.000000 -5.499094 0.000000 
-0.000000 -5.499094 0.000000 
0.000000 -5.499094 0.000000 
-0.000000 -5.499094 0.000000 
-0.000000 -5.499094 0.000000 
-0.000000 -5.499094 0.000000 
0.000000 -5.499094 0.000000 
0.000000 -5.499094 0.000000 
0.000000 -5.499094 0.000000 
0.000000 -5.499094 0.000000 
0.000000 -5.499094 0.000000 
-0.000000 -5.499094 0.000000 
0.000000 -5.499094 0.000000 
-0.000000 -5.499094 0.000000 
-0.000000 -5.499094 0.000000 
-0.000000 -5.499094 0.000000 
-0.000000 -5.499094 0.000000 
-0.000000 -5.499094 0.000000 
-0.000000 -5.499094 0.000000 
-0.000000 -5.499094 0.000000 
0.000000 -5.499094 0.000000 
-0.000000 -5.499094 0.000000 
0.000000 -5.499094 0.000000 
-0.000000 -5.499094 0.000000 
-0.000000 -5.499094 0.000000 
-0.000000 -5.499094 0.000000 
-0.000000 -5.499094 0.000000 
-0.000000 -5.499094 0.000000 
-0.000000 -5.499094 0.000000 
-0.000000 -5.499094 0.000000 
-0.000000 -5.499094 0.000000 
-0.000000 -5.499094 0.000000 
-0.000000 -5.499094 0.000000 
-0.000000 -5.499094 0.000000 
-0.000000 -5.499094 0.000000 
-0.000000 -5.499094 0.000000 
-0.000000 -5.499094 0.000000 
-0.000000 -5.499094 0.000000 
0.000000 -5.499094 0.000000 
0.000000 -5.499094 0.000000 
0.000000 -5.499094 0.000000 
0.000000 -5.499094 0.000000 
-0.000000 -5.499094 0.000000 
-0.000000 -5.499094 0.000000 
0.000000 -5.499094 0.000000 
-0.000000 -5.499094 0.000000 
-0.000000 -5.499094 0.000000 
-0.000000 -5.499094 0.000000 
-0.000000 -5.499094 0.000000 
-0.000000 -5.499094 0.000000 
-0.000000 -5.499094 0.000000 
-0.000000 -5.499094 0.000000 
-0.000000 -5.499094 0.000000 
-0.000000 -5.499094 0.000000 
-0.000000 -5.499094 0.000000 
-0.000000 -5.499094 0.000000 
-0.000000 -5.499094 0.000000 
0.000000 -5.499094 0.000000 
0.000000 -5.499094 0.000000 
0.000000 -5.499094 0.000000 
0.000000 -5.499094 0.000000 
0.000000 -5.499094 0.000000 
0.000000 -5.499094 0.000000 
0.000000 -5.499094 0.000000 
-0.000000 -5.499094 0.000000 
-0.000000 -5.499094 0.000000 
-0.000000 -5.499094 0.000000 
-0.000000 -5.499094 0.000000 
-0.000000 -5.499094 0.000000 
0.000000 -5.499094 0.000000 
-0.000000 -5.499094 0.000000 
0.000000 -5.499094 0.000000 
0.000000 -5.499094 0.000000 
-0.000000 -5.499094 0.000000 
0.000000 -5.499094 0.000000 
-0.000000 -5.499094 0.000000 
-0.000000 -5.499094 0.000000 
-0.000000 -5.499094 0.000000 
-0.000000 -5.499094 0.000000 
-0.000000 -5.499094 0.000000 
-0.000000 -5.499094 0.000000 
-0.000000 -5.499094 0.000000 
0.000000 -5.499094 0.000000 
-0.000000 -5.499094 0.000000 
0.000000 -5.499094 0.000000 
-0.000000 -5.499094 0.000000 
0.000000 -5.499094 0.000000 
0.000000 -5.499094 0.000000 
0.000000 -5.499094 0.000000 
-0.000000 -5.499094 0.000000 
-0.000000 -5.499094 0.000000 
-0.000000 -5.499094 0.000000 
-0.000000 -5.499094 0.000000 
-0.000000 -5.499094 0.000000 
0.000000 -5.499094 0.000000 
-0.000000 -5.499094 0.000000 
-0.000000 -5.499094 0.000000 
0.000000 -5.499094 0.000000 
-0.000000 -5.499094 0.000000 
0.000000 -5.499094 0.000000 
0.000000 -5.499094 0.000000 
0.000000 -5.499094 0.000000 
0.000000 -5.499094 0.000000 
0.000000 -5.499094 0.000000 
0.000000 -5.499094 0.000000 
0.000000 -5.499094 0.000000 
-0.000000 -5.499094 0.000000 
0.000000 -5.499094 0.000000 
0.000000 -5.499094 0.000000 
-0.000000 -5.499094 0.000000 
0.000000 -5.499094 0.000000 
0.000000 -5.499094 0.000000 
0.000000 -5.499094 0.000000 
0.000000 -5.499094 0.000000 
0.000000 -5.499094 0.000000 
-0.000000 -5.499094 0.000000 
-0.000000 -5.499094 0.000000 
-0.000000 -5.499094 0.000000 
0.000000 -5.499094 0.000000 
-0.000000 -5.499094 0.000000 
-0.000000 -5.499094 0.000000 
0.000000 -5.499094 0.000000 
-0.000000 -5.499094 0.000000 
-0.000000 -5.499094 0.000000 
0.000000 -5.499094 0.000000 
0.000000 -5.499094 0.000000 
0.000000 -5.499094 0.000000 
0.000000 -5.499094 0.000000 
0.000000 -5.499094 0.000000 
-0.000000 -5.499094 0.000000 
0.000000 -5.499094 0.000000 
0.000000 -5.499094 0.000000 
0.000000 -5.499094 0.000000 
0.000000 -5.499094 0.000000 
0.000000 -5.499094 0.000000 
-0.000000 -5.499094 0.000000 
-0.000000 -5.499094 0.000000 
0.000000 -5.499094 0.000000 
0.000000 -5.499094 0.000000 
-0.000000 -5.499094 0.000000 
0.000000 -5.499094 0.000000 
0.000000 -5.499094 0.000000 
0.000000 -5.499094 0.000000 
0.000000 -5.499094 0.000000 
0.000000 -5.499094 0.000000 
-0.000000 -5.499094 0.000000 
0.000000 -5.499094 0.000000 
0.000000 -5.499094 0.000000 
0.000000 -5.499094 0.000000 
0.000000 -5.499094 0.000000 
0.000000 -5.499094 0.000000 
0.000000 -5.499094 0.000000 
0.000000 -5.499094 0.000000 
0.000000 -5.499094 0.000000 
0.000000 -5.499094 0.000000 
0.000000 -5.499094 0.000000 
0.000000 -5.499094 0.000000 
-0.000000 -5.499094 0.000000 
-0.000000 -5.499094 0.000000 
-0.000000 -5.499094 0.000000 
-0.000000 -5.499094 0.000000 
-0.000000 -5.499094 0.000000 
0.000000 -5.499094 0.000000 
0.000000 -5.499094 0.000000 
0.000000 -5.499094 0.000000 
0.000000 -5.499094 0.000000 
-0.000000 -5.499094 0.000000 
-0.000000 -5.499094 0.000000 
0.000000 -5.499094 0.000000 
-0.000000 -5.499094 0.000000 
0.000000 -5.499094 0.000000 
-0.000000 -5.499094 0.000000 
0.000000 -5.499094 0.000000 
TENSORS STRESS float 
0.000000 0.000000 0.000000 
0.000000 -0.000000 0.000000 
0.000000 0.000000 0.000000 

-0.000000 -0.000000 0.000000 
0.000000 -0.000000 0.000000 
0.000000 0.000000 0.000000 

0.000000 0.000000 0.000000 
0.000000 -0.000000 0.000000 
0.000000 0.000000 0.000000 

0.000000 -0.000000 0.000000 
0.000000 -0.000000 0.000000 
0.000000 0.000000 0.000000 

-0.000000 0.000000 0.000000 
0.000000 -0.000000 0.000000 
0.000000 0.000000 0.000000 

-0.000000 -0.000000 0.000000 
0.000000 0.000000 0.000000 
0.000000 0.000000 0.000000 

-0.000000 0.000000 0.000000 
0.000000 0.000000 0.000000 
0.000000 0.000000 0.000000 

0.000000 0.000000 0.000000 
0.000000 -0.000000 0.000000 
0.000000 0.000000 0.000000 

-0.000000 0.000000 0.000000 
0.000000 -0.000000 0.000000 
0.000000 0.000000 0.000000 

-0.000000 -0.000000 0.000000 
0.000000 0.000000 0.000000 
0.000000 0.000000 0.000000 

-0.000000 -0.000000 0.000000 
0.000000 -0.000000 0.000000 
0.000000 0.000000 0.000000 

0.000000 0.000000 0.000000 
0.000000 0.000000 0.000000 
0.000000 0.000000 0.000000 

-0.000000 0.000000 0.000000 
0.000000 0.000000 0.000000 
0.000000 0.000000 0.000000 

-0.000000 -0.000000 0.000000 
0.000000 -0.000000 0.000000 
0.000000 0.000000 0.000000 

-0.000000 -0.000000 0.000000 
0.000000 -0.000000 0.000000 
0.000000 0.000000 0.000000 

-0.000000 0.000000 0.000000 
0.000000 -0.000000 0.000000 
0.000000 0.000000 0.000000 

-0.000000 -0.000000 0.000000 
0.000000 0.000000 0.000000 
0.000000 0.000000 0.000000 

-0.000000 -0.000000 0.000000 
0.000000 0.000000 0.000000 
0.000000 0.000000 0.000000 

-0.000000 -0.000000 0.000000 
0.000000 0.000000 0.000000 
0.000000 0.000000 0.000000 

-0.000000 0.000000 0.000000 
0.000000 -0.000000 0.000000 
0.000000 0.000000 0.000000 

0.000000 0.000000 0.000000 
0.000000 0.000000 0.000000 
0.000000 0.000000 0.000000 

-0.000000 -0.000000 0.000000 
0.000000 -0.000000 0.000000 
0.000000 0.000000 0.000000 

0.000000 -0.000000 0.000000 
0.000000 0.000000 0.000000 
0.000000 0.000000 0.000000 

0.000000 0.000000 0.000000 
0.000000 0.000000 0.000000 
0.000000 0.000000 0.000000 

-0.000000 0.000000 0.000000 
0.000000 -0.000000 0.000000 
0.000000 0.000000 0.000000 

0.000000 -0.000000 0.000000 
0.000000 0.000000 0.000000 
0.000000 0.000000 0.000000 

0.000000 -0.000000 0.000000 
0.000000 0.000000 0.000000 
0.000000 0.000000 0.000000 

0.000000 -0.000000 0.000000 
0.000000 0.000000 0.000000 
0.000000 0.000000 0.000000 

-0.000000 -0.000000 0.000000 
0.000000 -0.000000 0.000000 
0.000000 0.000000 0.000000 

0.000000 0.000000 0.000000 
0.000000 -0.000000 0.000000 
0.000000 0.000000 0.000000 

-0.000000 -0.000000 0.000000 
0.000000 -0.000000 0.000000 
0.000000 0.000000 0.000000 

0.000000 0.000000 0.000000 
0.000000 -0.000000 0.000000 
0.000000 0.000000 0.000000 

-0.000000 -0.000000 0.000000 
0.000000 -0.000000 0.000000 
0.000000 0.000000 0.000000 

-0.000000 -0.000000 0.000000 
0.000000 0.000000 0.000000 
0.000000 0.000000 0.000000 

-0.000000 -0.000000 0.000000 
0.000000 -0.000000 0.000000 
0.000000 0.000000 0.000000 

-0.000000 0.000000 0.000000 
0.000000 -0.000000 0.000000 
0.000000 0.000000 0.000000 

0.000000 -0.000000 0.000000 
0.000000 0.000000 0.000000 
0.000000 0.000000 0.000000 

0.000000 0.000000 0.000000 
0.000000 0.000000 0.000000 
0.000000 0.000000 0.000000 

0.000000 0.000000 0.000000 
0.000000 0.000000 0.000000 
0.000000 0.000000 0.000000 

0.000000 0.000000 0.000000 
0.000000 0.000000 0.000000 
0.000000 0.000000 0.000000 

-0.000000 0.000000 0.000000 
0.000000 0.000000 0.000000 
0.000000 0.000000 0.000000 

-0.000000 -0.000000 0.000000 
0.000000 -0.000000 0.000000 
0.000000 0.000000 0.000000 

0.000000 -0.000000 0.000000 
0.000000 -0.000000 0.000000 
0.000000 0.000000 0.000000 

0.000000 -0.000000 0.000000 
0.000000 0.000000 0.000000 
0.000000 0.000000 0.000000 

0.000000 -0.000000 0.000000 
0.000000 0.000000 0.000000 
0.000000 0.000000 0.000000 

0.000000 0.000000 0.000000 
0.000000 0.000000 0.000000 
0.000000 0.000000 0.000000 

-0.000000 -0.000000 0.000000 
0.000000 0.000000 0.000000 
0.000000 0.000000 0.000000 

-0.000000 -0.000000 0.000000 
0.000000 -0.000000 0.000000 
0.000000 0.000000 0.000000 

-0.000000 0.000000 0.000000 
0.000000 0.000000 0.000000 
0.000000 0.000000 0.000000 

-0.000000 -0.000000 0.000000 
0.000000 -0.000000 0.000000 
0.000000 0.000000 0.000000 

-0.000000 0.000000 0.000000 
0.000000 0.000000 0.000000 
0.000000 0.000000 0.000000 

0.000000 0.000000 0.000000 
0.000000 0.000000 0.000000 
0.000000 0.000000 0.000000 

0.000000 -0.000000 0.000000 
0.000000 0.000000 0.000000 
0.000000 0.000000 0.000000 

0.000000 0.000000 0.000000 
0.000000 0.000000 0.000000 
0.000000 0.000000 0.000000 

-0.000000 0.000000 0.000000 
0.000000 -0.000000 0.000000 
0.000000 0.000000 0.000000 

-0.000000 -0.000000 0.000000 
0.000000 -0.000000 0.000000 
0.000000 0.000000 0.000000 

0.000000 -0.000000 0.000000 
0.000000 0.000000 0.000000 
0.000000 0.000000 0.000000 

0.000000 0.000000 0.000000 
0.000000 -0.000000 0.000000 
0.000000 0.000000 0.000000 

0.000000 0.000000 0.000000 
0.000000 0.000000 0.000000 
0.000000 0.000000 0.000000 

-0.000000 -0.000000 0.000000 
0.000000 -0.000000 0.000000 
0.000000 0.000000 0.000000 

-0.000000 -0.000000 0.000000 
0.000000 -0.000000 0.000000 
0.000000 0.000000 0.000000 

0.000000 0.000000 0.000000 
0.000000 -0.000000 0.000000 
0.000000 0.000000 0.000000 

-0.000000 0.000000 0.000000 
0.000000 -0.000000 0.000000 
0.000000 0.000000 0.000000 

0.000000 -0.000000 0.000000 
0.000000 0.000000 0.000000 
0.000000 0.000000 0.000000 

0.000000 -0.000000 0.000000 
0.000000 0.000000 0.000000 
0.000000 0.000000 0.000000 

-0.000000 -0.000000 0.000000 
0.000000 -0.000000 0.000000 
0.000000 0.000000 0.000000 

0.000000 -0.000000 0.000000 
0.000000 -0.000000 0.000000 
0.000000 0.000000 0.000000 

0.000000 0.000000 0.000000 
0.000000 0.000000 0.000000 
0.000000 0.000000 0.000000 

0.000000 0.000000 0.000000 
0.000000 -0.000000 0.000000 
0.000000 0.000000 0.000000 

0.000000 -0.000000 0.000000 
0.000000 0.000000 0.000000 
0.000000 0.000000 0.000000 

0.000000 -0.000000 0.000000 
0.000000 -0.000000 0.000000 
0.000000 0.000000 0.000000 

-0.000000 -0.000000 0.000000 
0.000000 -0.000000 0.000000 
0.000000 0.000000 0.000000 

-0.000000 0.000000 0.000000 
0.000000 0.000000 0.000000 
0.000000 0.000000 0.000000 

-0.000000 -0.000000 0.000000 
0.000000 -0.000000 0.000000 
0.000000 0.000000 0.000000 

-0.000000 -0.000000 0.000000 
0.000000 -0.000000 0.000000 
0.000000 0.000000 0.000000 

-0.000000 0.000000 0.000000 
0.000000 -0.000000 0.000000 
0.000000 0.000000 0.000000 

0.000000 0.000000 0.000000 
0.000000 0.000000 0.000000 
0.000000 0.000000 0.000000 

0.000000 -0.000000 0.000000 
0.000000 0.000000 0.000000 
0.000000 0.000000 0.000000 

0.000000 0.000000 0.000000 
0.000000 0.000000 0.000000 
0.000000 0.000000 0.000000 

0.000000 -0.000000 0.000000 
0.000000 0.000000 0.000000 
0.000000 0.000000 0.000000 

0.000000 -0.000000 0.000000 
0.000000 0.000000 0.000000 
0.000000 0.000000 0.000000 

0.000000 -0.000000 0.000000 
0.000000 0.000000 0.000000 
0.000000 0.000000 0.000000 

0.000000 0.000000 0.000000 
0.000000 0.000000 0.000000 
0.000000 0.000000 0.000000 

-0.000000 -0.000000 0.000000 
0.000000 0.000000 0.000000 
0.000000 0.000000 0.000000 

0.000000 0.000000 0.000000 
0.000000 0.000000 0.000000 
0.000000 0.000000 0.000000 

0.000000 -0.000000 0.000000 
0.000000 0.000000 0.000000 
0.000000 0.000000 0.000000 

0.000000 0.000000 0.000000 
0.000000 0.000000 0.000000 
0.000000 0.000000 0.000000 

-0.000000 -0.000000 0.000000 
0.000000 -0.000000 0.000000 
0.000000 0.000000 0.000000 

0.000000 -0.000000 0.000000 
0.000000 0.000000 0.000000 
0.000000 0.000000 0.000000 

-0.000000 -0.000000 0.000000 
0.000000 -0.000000 0.000000 
0.000000 0.000000 0.000000 

0.000000 -0.000000 0.000000 
0.000000 0.000000 0.000000 
0.000000 0.000000 0.000000 

0.000000 -0.000000 0.000000 
0.000000 0.000000 0.000000 
0.000000 0.000000 0.000000 

0.000000 0.000000 0.000000 
0.000000 -0.000000 0.000000 
0.000000 0.000000 0.000000 

0.000000 -0.000000 0.000000 
0.000000 0.000000 0.000000 
0.000000 0.000000 0.000000 

0.000000 -0.000000 0.000000 
0.000000 0.000000 0.000000 
0.000000 0.000000 0.000000 

-0.000000 -0.000000 0.000000 
0.000000 -0.000000 0.000000 
0.000000 0.000000 0.000000 

-0.000000 0.000000 0.000000 
0.000000 -0.000000 0.000000 
0.000000 0.000000 0.000000 

-0.000000 -0.000000 0.000000 
0.000000 -0.000000 0.000000 
0.000000 0.000000 0.000000 

0.000000 -0.000000 0.000000 
0.000000 0.000000 0.000000 
0.000000 0.000000 0.000000 

0.000000 0.000000 0.000000 
0.000000 0.000000 0.000000 
0.000000 0.000000 0.000000 

-0.000000 0.000000 0.000000 
0.000000 -0.000000 0.000000 
0.000000 0.000000 0.000000 

0.000000 -0.000000 0.000000 
0.000000 0.000000 0.000000 
0.000000 0.000000 0.000000 

0.000000 -0.000000 0.000000 
0.000000 0.000000 0.000000 
0.000000 0.000000 0.000000 

0.000000 -0.000000 0.000000 
0.000000 0.000000 0.000000 
0.000000 0.000000 0.000000 

-0.000000 0.000000 0.000000 
0.000000 -0.000000 0.000000 
0.000000 0.000000 0.000000 

0.000000 -0.000000 0.000000 
0.000000 0.000000 0.000000 
0.000000 0.000000 0.000000 

-0.000000 0.000000 0.000000 
0.000000 -0.000000 0.000000 
0.000000 0.000000 0.000000 

-0.000000 -0.000000 0.000000 
0.000000 0.000000 0.000000 
0.000000 0.000000 0.000000 

0.000000 -0.000000 0.000000 
0.000000 0.000000 0.000000 
0.000000 0.000000 0.000000 

-0.000000 0.000000 0.000000 
0.000000 0.000000 0.000000 
0.000000 0.000000 0.000000 

-0.000000 -0.000000 0.000000 
0.000000 0.000000 0.000000 
0.000000 0.000000 0.000000 

-0.000000 -0.000000 0.000000 
0.000000 -0.000000 0.000000 
0.000000 0.000000 0.000000 

-0.000000 -0.000000 0.000000 
0.000000 -0.000000 0.000000 
0.000000 0.000000 0.000000 

-0.000000 -0.000000 0.000000 
0.000000 -0.000000 0.000000 
0.000000 0.000000 0.000000 

0.000000 -0.000000 0.000000 
0.000000 0.000000 0.000000 
0.000000 0.000000 0.000000 

0.000000 -0.000000 0.000000 
0.000000 0.000000 0.000000 
0.000000 0.000000 0.000000 

-0.000000 -0.000000 0.000000 
0.000000 -0.000000 0.000000 
0.000000 0.000000 0.000000 

-0.000000 0.000000 0.000000 
0.000000 0.000000 0.000000 
0.000000 0.000000 0.000000 

0.000000 0.000000 0.000000 
0.000000 0.000000 0.000000 
0.000000 0.000000 0.000000 

-0.000000 -0.000000 0.000000 
0.000000 -0.000000 0.000000 
0.000000 0.000000 0.000000 

0.000000 0.000000 0.000000 
0.000000 0.000000 0.000000 
0.000000 0.000000 0.000000 

0.000000 -0.000000 0.000000 
0.000000 0.000000 0.000000 
0.000000 0.000000 0.000000 

0.000000 -0.000000 0.000000 
0.000000 -0.000000 0.000000 
0.000000 0.000000 0.000000 

0.000000 -0.000000 0.000000 
0.000000 -0.000000 0.000000 
0.000000 0.000000 0.000000 

0.000000 0.000000 0.000000 
0.000000 0.000000 0.000000 
0.000000 0.000000 0.000000 

0.000000 0.000000 0.000000 
0.000000 0.000000 0.000000 
0.000000 0.000000 0.000000 

-0.000000 0.000000 0.000000 
0.000000 0.000000 0.000000 
0.000000 0.000000 0.000000 

0.000000 -0.000000 0.000000 
0.000000 0.000000 0.000000 
0.000000 0.000000 0.000000 

0.000000 -0.000000 0.000000 
0.000000 0.000000 0.000000 
0.000000 0.000000 0.000000 

-0.000000 0.000000 0.000000 
0.000000 -0.000000 0.000000 
0.000000 0.000000 0.000000 

-0.000000 0.000000 0.000000 
0.000000 -0.000000 0.000000 
0.000000 0.000000 0.000000 

-0.000000 -0.000000 0.000000 
0.000000 -0.000000 0.000000 
0.000000 0.000000 0.000000 

0.000000 -0.000000 0.000000 
0.000000 0.000000 0.000000 
0.000000 0.000000 0.000000 

-0.000000 0.000000 0.000000 
0.000000 0.000000 0.000000 
0.000000 0.000000 0.000000 

0.000000 -0.000000 0.000000 
0.000000 0.000000 0.000000 
0.000000 0.000000 0.000000 

-0.000000 -0.000000 0.000000 
0.000000 -0.000000 0.000000 
0.000000 0.000000 0.000000 

0.000000 -0.000000 0.000000 
0.000000 0.000000 0.000000 
0.000000 0.000000 0.000000 

0.000000 0.000000 0.000000 
0.000000 0.000000 0.000000 
0.000000 0.000000 0.000000 

-0.000000 0.000000 0.000000 
0.000000 0.000000 0.000000 
0.000000 0.000000 0.000000 

-0.000000 -0.000000 0.000000 
0.000000 0.000000 0.000000 
0.000000 0.000000 0.000000 

-0.000000 0.000000 0.000000 
0.000000 -0.000000 0.000000 
0.000000 0.000000 0.000000 

0.000000 -0.000000 0.000000 
0.000000 0.000000 0.000000 
0.000000 0.000000 0.000000 

0.000000 0.000000 0.000000 
0.000000 0.000000 0.000000 
0.000000 0.000000 0.000000 

0.000000 0.000000 0.000000 
0.000000 0.000000 0.000000 
0.000000 0.000000 0.000000 

-0.000000 0.000000 0.000000 
0.000000 0.000000 0.000000 
0.000000 0.000000 0.000000 

-0.000000 -0.000000 0.000000 
0.000000 -0.000000 0.000000 
0.000000 0.000000 0.000000 

-0.000000 0.000000 0.000000 
0.000000 0.000000 0.000000 
0.000000 0.000000 0.000000 

-0.000000 -0.000000 0.000000 
0.000000 0.000000 0.000000 
0.000000 0.000000 0.000000 

0.000000 0.000000 0.000000 
0.000000 0.000000 0.000000 
0.000000 0.000000 0.000000 

0.000000 -0.000000 0.000000 
0.000000 0.000000 0.000000 
0.000000 0.000000 0.000000 

-0.000000 0.000000 0.000000 
0.000000 -0.000000 0.000000 
0.000000 0.000000 0.000000 

0.000000 0.000000 0.000000 
0.000000 -0.000000 0.000000 
0.000000 0.000000 0.000000 

0.000000 0.000000 0.000000 
0.000000 0.000000 0.000000 
0.000000 0.000000 0.000000 

-0.000000 -0.000000 0.000000 
0.000000 -0.000000 0.000000 
0.000000 0.000000 0.000000 

0.000000 0.000000 0.000000 
0.000000 0.000000 0.000000 
0.000000 0.000000 0.000000 

0.000000 0.000000 0.000000 
0.000000 0.000000 0.000000 
0.000000 0.000000 0.000000 

-0.000000 0.000000 0.000000 
0.000000 -0.000000 0.000000 
0.000000 0.000000 0.000000 

-0.000000 -0.000000 0.000000 
0.000000 0.000000 0.000000 
0.000000 0.000000 0.000000 

0.000000 -0.000000 0.000000 
0.000000 0.000000 0.000000 
0.000000 0.000000 0.000000 

0.000000 0.000000 0.000000 
0.000000 0.000000 0.000000 
0.000000 0.000000 0.000000 

0.000000 -0.000000 0.000000 
0.000000 0.000000 0.000000 
0.000000 0.000000 0.000000 

-0.000000 -0.000000 0.000000 
0.000000 -0.000000 0.000000 
0.000000 0.000000 0.000000 

-0.000000 -0.000000 0.000000 
0.000000 0.000000 0.000000 
0.000000 0.000000 0.000000 

-0.000000 -0.000000 0.000000 
0.000000 0.000000 0.000000 
0.000000 0.000000 0.000000 

0.000000 0.000000 0.000000 
0.000000 0.000000 0.000000 
0.000000 0.000000 0.000000 

0.000000 0.000000 0.000000 
0.000000 0.000000 0.000000 
0.000000 0.000000 0.000000 

-0.000000 0.000000 0.000000 
0.000000 -0.000000 0.000000 
0.000000 0.000000 0.000000 

0.000000 0.000000 0.000000 
0.000000 0.000000 0.000000 
0.000000 0.000000 0.000000 

-0.000000 -0.000000 0.000000 
0.000000 -0.000000 0.000000 
0.000000 0.000000 0.000000 

-0.000000 -0.000000 0.000000 
0.000000 -0.000000 0.000000 
0.000000 0.000000 0.000000 

-0.000000 -0.000000 0.000000 
0.000000 -0.000000 0.000000 
0.000000 0.000000 0.000000 

-0.000000 0.000000 0.000000 
0.000000 -0.000000 0.000000 
0.000000 0.000000 0.000000 

-0.000000 -0.000000 0.000000 
0.000000 -0.000000 0.000000 
0.000000 0.000000 0.000000 

0.000000 -0.000000 0.000000 
0.000000 0.000000 0.000000 
0.000000 0.000000 0.000000 

0.000000 -0.000000 0.000000 
0.000000 0.000000 0.000000 
0.000000 0.000000 0.000000 

TENSORS STRAIN float 
0.000000 0.000000 0.000000 
0.000000 -0.000000 0.000000 
0.000000 0.000000 0.000000 

-0.000000 -0.000000 0.000000 
0.000000 0.000000 0.000000 
0.000000 0.000000 0.000000 

0.000000 0.000000 0.000000 
0.000000 -0.000000 0.000000 
0.000000 0.000000 0.000000 

0.000000 -0.000000 0.000000 
0.000000 -0.000000 0.000000 
0.000000 0.000000 0.000000 

-0.000000 0.000000 0.000000 
0.000000 -0.000000 0.000000 
0.000000 0.000000 0.000000 

-0.000000 -0.000000 0.000000 
0.000000 0.000000 0.000000 
0.000000 0.000000 0.000000 

-0.000000 0.000000 0.000000 
0.000000 0.000000 0.000000 
0.000000 0.000000 0.000000 

0.000000 0.000000 0.000000 
0.000000 -0.000000 0.000000 
0.000000 0.000000 0.000000 

0.000000 0.000000 0.000000 
0.000000 -0.000000 0.000000 
0.000000 0.000000 0.000000 

-0.000000 -0.000000 0.000000 
0.000000 0.000000 0.000000 
0.000000 0.000000 0.000000 

-0.000000 -0.000000 0.000000 
0.000000 -0.000000 0.000000 
0.000000 0.000000 0.000000 

-0.000000 0.000000 0.000000 
0.000000 0.000000 0.000000 
0.000000 0.000000 0.000000 

-0.000000 0.000000 0.000000 
0.000000 0.000000 0.000000 
0.000000 0.000000 0.000000 

-0.000000 -0.000000 0.000000 
0.000000 0.000000 0.000000 
0.000000 0.000000 0.000000 

-0.000000 -0.000000 0.000000 
0.000000 -0.000000 0.000000 
0.000000 0.000000 0.000000 

0.000000 0.000000 0.000000 
0.000000 -0.000000 0.000000 
0.000000 0.000000 0.000000 

-0.000000 -0.000000 0.000000 
0.000000 0.000000 0.000000 
0.000000 0.000000 0.000000 

-0.000000 -0.000000 0.000000 
0.000000 0.000000 0.000000 
0.000000 0.000000 0.000000 

-0.000000 -0.000000 0.000000 
0.000000 0.000000 0.000000 
0.000000 0.000000 0.000000 

-0.000000 0.000000 0.000000 
0.000000 -0.000000 0.000000 
0.000000 0.000000 0.000000 

0.000000 0.000000 0.000000 
0.000000 0.000000 0.000000 
0.000000 0.000000 0.000000 

-0.000000 -0.000000 0.000000 
0.000000 -0.000000 0.000000 
0.000000 0.000000 0.000000 

0.000000 -0.000000 0.000000 
0.000000 0.000000 0.000000 
0.000000 0.000000 0.000000 

-0.000000 0.000000 0.000000 
0.000000 0.000000 0.000000 
0.000000 0.000000 0.000000 

-0.000000 0.000000 0.000000 
0.000000 -0.000000 0.000000 
0.000000 0.000000 0.000000 

0.000000 -0.000000 0.000000 
0.000000 0.000000 0.000000 
0.000000 0.000000 0.000000 

0.000000 -0.000000 0.000000 
0.000000 0.000000 0.000000 
0.000000 0.000000 0.000000 

-0.000000 -0.000000 0.000000 
0.000000 0.000000 0.000000 
0.000000 0.000000 0.000000 

-0.000000 -0.000000 0.000000 
0.000000 -0.000000 0.000000 
0.000000 0.000000 0.000000 

0.000000 0.000000 0.000000 
0.000000 -0.000000 0.000000 
0.000000 0.000000 0.000000 

0.000000 -0.000000 0.000000 
0.000000 -0.000000 0.000000 
0.000000 0.000000 0.000000 

0.000000 0.000000 0.000000 
0.000000 -0.000000 0.000000 
0.000000 0.000000 0.000000 

-0.000000 -0.000000 0.000000 
0.000000 -0.000000 0.000000 
0.000000 0.000000 0.000000 

-0.000000 -0.000000 0.000000 
0.000000 0.000000 0.000000 
0.000000 0.000000 0.000000 

0.000000 -0.000000 0.000000 
0.000000 -0.000000 0.000000 
0.000000 0.000000 0.000000 

0.000000 0.000000 0.000000 
0.000000 -0.000000 0.000000 
0.000000 0.000000 0.000000 

0.000000 -0.000000 0.000000 
0.000000 0.000000 0.000000 
0.000000 0.000000 0.000000 

0.000000 0.000000 0.000000 
0.000000 -0.000000 0.000000 
0.000000 0.000000 0.000000 

0.000000 0.000000 0.000000 
0.000000 -0.000000 0.000000 
0.000000 0.000000 0.000000 

0.000000 0.000000 0.000000 
0.000000 -0.000000 0.000000 
0.000000 0.000000 0.000000 

-0.000000 0.000000 0.000000 
0.000000 0.000000 0.000000 
0.000000 0.000000 0.000000 

-0.000000 -0.000000 0.000000 
0.000000 -0.000000 0.000000 
0.000000 0.000000 0.000000 

0.000000 -0.000000 0.000000 
0.000000 -0.000000 0.000000 
0.000000 0.000000 0.000000 

0.000000 -0.000000 0.000000 
0.000000 0.000000 0.000000 
0.000000 0.000000 0.000000 

0.000000 -0.000000 0.000000 
0.000000 0.000000 0.000000 
0.000000 0.000000 0.000000 

-0.000000 0.000000 0.000000 
0.000000 0.000000 0.000000 
0.000000 0.000000 0.000000 

-0.000000 -0.000000 0.000000 
0.000000 0.000000 0.000000 
0.000000 0.000000 0.000000 

-0.000000 -0.000000 0.000000 
0.000000 -0.000000 0.000000 
0.000000 0.000000 0.000000 

-0.000000 0.000000 0.000000 
0.000000 0.000000 0.000000 
0.000000 0.000000 0.000000 

-0.000000 -0.000000 0.000000 
0.000000 -0.000000 0.000000 
0.000000 0.000000 0.000000 

-0.000000 0.000000 0.000000 
0.000000 0.000000 0.000000 
0.000000 0.000000 0.000000 

0.000000 0.000000 0.000000 
0.000000 -0.000000 0.000000 
0.000000 0.000000 0.000000 

0.000000 -0.000000 0.000000 
0.000000 0.000000 0.000000 
0.000000 0.000000 0.000000 

0.000000 0.000000 0.000000 
0.000000 0.000000 0.000000 
0.000000 0.000000 0.000000 

-0.000000 0.000000 0.000000 
0.000000 -0.000000 0.000000 
0.000000 0.000000 0.000000 

0.000000 -0.000000 0.000000 
0.000000 -0.000000 0.000000 
0.000000 0.000000 0.000000 

0.000000 -0.000000 0.000000 
0.000000 0.000000 0.000000 
0.000000 0.000000 0.000000 

0.000000 0.000000 0.000000 
0.000000 -0.000000 0.000000 
0.000000 0.000000 0.000000 

0.000000 0.000000 0.000000 
0.000000 0.000000 0.000000 
0.000000 0.000000 0.000000 

-0.000000 -0.000000 0.000000 
0.000000 -0.000000 0.000000 
0.000000 0.000000 0.000000 

-0.000000 -0.000000 0.000000 
0.000000 0.000000 0.000000 
0.000000 0.000000 0.000000 

0.000000 0.000000 0.000000 
0.000000 -0.000000 0.000000 
0.000000 0.000000 0.000000 

-0.000000 0.000000 0.000000 
0.000000 -0.000000 0.000000 
0.000000 0.000000 0.000000 

-0.000000 -0.000000 0.000000 
0.000000 0.000000 0.000000 
0.000000 0.000000 0.000000 

-0.000000 -0.000000 0.000000 
0.000000 0.000000 0.000000 
0.000000 0.000000 0.000000 

-0.000000 -0.000000 0.000000 
0.000000 -0.000000 0.000000 
0.000000 0.000000 0.000000 

0.000000 -0.000000 0.000000 
0.000000 -0.000000 0.000000 
0.000000 0.000000 0.000000 

0.000000 0.000000 0.000000 
0.000000 -0.000000 0.000000 
0.000000 0.000000 0.000000 

0.000000 0.000000 0.000000 
0.000000 -0.000000 0.000000 
0.000000 0.000000 0.000000 

0.000000 -0.000000 0.000000 
0.000000 -0.000000 0.000000 
0.000000 0.000000 0.000000 

0.000000 -0.000000 0.000000 
0.000000 -0.000000 0.000000 
0.000000 0.000000 0.000000 

-0.000000 -0.000000 0.000000 
0.000000 -0.000000 0.000000 
0.000000 0.000000 0.000000 

-0.000000 0.000000 0.000000 
0.000000 0.000000 0.000000 
0.000000 0.000000 0.000000 

-0.000000 -0.000000 0.000000 
0.000000 -0.000000 0.000000 
0.000000 0.000000 0.000000 

-0.000000 -0.000000 0.000000 
0.000000 0.000000 0.000000 
0.000000 0.000000 0.000000 

-0.000000 0.000000 0.000000 
0.000000 -0.000000 0.000000 
0.000000 0.000000 0.000000 

0.000000 0.000000 0.000000 
0.000000 0.000000 0.000000 
0.000000 0.000000 0.000000 

-0.000000 -0.000000 0.000000 
0.000000 0.000000 0.000000 
0.000000 0.000000 0.000000 

0.000000 0.000000 0.000000 
0.000000 0.000000 0.000000 
0.000000 0.000000 0.000000 

0.000000 -0.000000 0.000000 
0.000000 0.000000 0.000000 
0.000000 0.000000 0.000000 

0.000000 -0.000000 0.000000 
0.000000 0.000000 0.000000 
0.000000 0.000000 0.000000 

0.000000 -0.000000 0.000000 
0.000000 0.000000 0.000000 
0.000000 0.000000 0.000000 

0.000000 0.000000 0.000000 
0.000000 0.000000 0.000000 
0.000000 0.000000 0.000000 

-0.000000 -0.000000 0.000000 
0.000000 0.000000 0.000000 
0.000000 0.000000 0.000000 

0.000000 0.000000 0.000000 
0.000000 0.000000 0.000000 
0.000000 0.000000 0.000000 

0.000000 -0.000000 0.000000 
0.000000 -0.000000 0.000000 
0.000000 0.000000 0.000000 

-0.000000 0.000000 0.000000 
0.000000 0.000000 0.000000 
0.000000 0.000000 0.000000 

0.000000 -0.000000 0.000000 
0.000000 -0.000000 0.000000 
0.000000 0.000000 0.000000 

-0.000000 -0.000000 0.000000 
0.000000 0.000000 0.000000 
0.000000 0.000000 0.000000 

-0.000000 -0.000000 0.000000 
0.000000 0.000000 0.000000 
0.000000 0.000000 0.000000 

-0.000000 -0.000000 0.000000 
0.000000 0.000000 0.000000 
0.000000 0.000000 0.000000 

-0.000000 -0.000000 0.000000 
0.000000 0.000000 0.000000 
0.000000 0.000000 0.000000 

0.000000 0.000000 0.000000 
0.000000 -0.000000 0.000000 
0.000000 0.000000 0.000000 

0.000000 -0.000000 0.000000 
0.000000 0.000000 0.000000 
0.000000 0.000000 0.000000 

0.000000 -0.000000 0.000000 
0.000000 0.000000 0.000000 
0.000000 0.000000 0.000000 

0.000000 -0.000000 0.000000 
0.000000 -0.000000 0.000000 
0.000000 0.000000 0.000000 

0.000000 0.000000 0.000000 
0.000000 -0.000000 0.000000 
0.000000 0.000000 0.000000 

0.000000 -0.000000 0.000000 
0.000000 -0.000000 0.000000 
0.000000 0.000000 0.000000 

0.000000 -0.000000 0.000000 
0.000000 0.000000 0.000000 
0.000000 0.000000 0.000000 

0.000000 0.000000 0.000000 
0.000000 0.000000 0.000000 
0.000000 0.000000 0.000000 

-0.000000 0.000000 0.000000 
0.000000 -0.000000 0.000000 
0.000000 0.000000 0.000000 

0.000000 -0.000000 0.000000 
0.000000 0.000000 0.000000 
0.000000 0.000000 0.000000 

0.000000 -0.000000 0.000000 
0.000000 0.000000 0.000000 
0.000000 0.000000 0.000000 

0.000000 -0.000000 0.000000 
0.000000 0.000000 0.000000 
0.000000 0.000000 0.000000 

-0.000000 0.000000 0.000000 
0.000000 -0.000000 0.000000 
0.000000 0.000000 0.000000 

0.000000 -0.000000 0.000000 
0.000000 0.000000 0.000000 
0.000000 0.000000 0.000000 

-0.000000 0.000000 0.000000 
0.000000 -0.000000 0.000000 
0.000000 0.000000 0.000000 

-0.000000 -0.000000 0.000000 
0.000000 0.000000 0.000000 
0.000000 0.000000 0.000000 

0.000000 -0.000000 0.000000 
0.000000 0.000000 0.000000 
0.000000 0.000000 0.000000 

-0.000000 0.000000 0.000000 
0.000000 0.000000 0.000000 
0.000000 0.000000 0.000000 

-0.000000 -0.000000 0.000000 
0.000000 0.000000 0.000000 
0.000000 0.000000 0.000000 

-0.000000 -0.000000 0.000000 
0.000000 -0.000000 0.000000 
0.000000 0.000000 0.000000 

-0.000000 -0.000000 0.000000 
0.000000 -0.000000 0.000000 
0.000000 0.000000 0.000000 

-0.000000 -0.000000 0.000000 
0.000000 -0.000000 0.000000 
0.000000 0.000000 0.000000 

0.000000 -0.000000 0.000000 
0.000000 0.000000 0.000000 
0.000000 0.000000 0.000000 

0.000000 -0.000000 0.000000 
0.000000 -0.000000 0.000000 
0.000000 0.000000 0.000000 

-0.000000 -0.000000 0.000000 
0.000000 -0.000000 0.000000 
0.000000 0.000000 0.000000 

-0.000000 0.000000 0.000000 
0.000000 0.000000 0.000000 
0.000000 0.000000 0.000000 

-0.000000 0.000000 0.000000 
0.000000 0.000000 0.000000 
0.000000 0.000000 0.000000 

-0.000000 -0.000000 0.000000 
0.000000 -0.000000 0.000000 
0.000000 0.000000 0.000000 

-0.000000 0.000000 0.000000 
0.000000 0.000000 0.000000 
0.000000 0.000000 0.000000 

-0.000000 -0.000000 0.000000 
0.000000 0.000000 0.000000 
0.000000 0.000000 0.000000 

0.000000 -0.000000 0.000000 
0.000000 -0.000000 0.000000 
0.000000 0.000000 0.000000 

0.000000 -0.000000 0.000000 
0.000000 -0.000000 0.000000 
0.000000 0.000000 0.000000 

0.000000 0.000000 0.000000 
0.000000 0.000000 0.000000 
0.000000 0.000000 0.000000 

0.000000 0.000000 0.000000 
0.000000 0.000000 0.000000 
0.000000 0.000000 0.000000 

-0.000000 0.000000 0.000000 
0.000000 0.000000 0.000000 
0.000000 0.000000 0.000000 

0.000000 -0.000000 0.000000 
0.000000 0.000000 0.000000 
0.000000 0.000000 0.000000 

0.000000 -0.000000 0.000000 
0.000000 0.000000 0.000000 
0.000000 0.000000 0.000000 

-0.000000 0.000000 0.000000 
0.000000 -0.000000 0.000000 
0.000000 0.000000 0.000000 

-0.000000 0.000000 0.000000 
0.000000 0.000000 0.000000 
0.000000 0.000000 0.000000 

-0.000000 -0.000000 0.000000 
0.000000 -0.000000 0.000000 
0.000000 0.000000 0.000000 

-0.000000 -0.000000 0.000000 
0.000000 0.000000 0.000000 
0.000000 0.000000 0.000000 

-0.000000 0.000000 0.000000 
0.000000 0.000000 0.000000 
0.000000 0.000000 0.000000 

0.000000 -0.000000 0.000000 
0.000000 -0.000000 0.000000 
0.000000 0.000000 0.000000 

0.000000 -0.000000 0.000000 
0.000000 -0.000000 0.000000 
0.000000 0.000000 0.000000 

0.000000 -0.000000 0.000000 
0.000000 0.000000 0.000000 
0.000000 0.000000 0.000000 

-0.000000 0.000000 0.000000 
0.000000 0.000000 0.000000 
0.000000 0.000000 0.000000 

-0.000000 0.000000 0.000000 
0.000000 0.000000 0.000000 
0.000000 0.000000 0.000000 

-0.000000 -0.000000 0.000000 
0.000000 0.000000 0.000000 
0.000000 0.000000 0.000000 

-0.000000 0.000000 0.000000 
0.000000 -0.000000 0.000000 
0.000000 0.000000 0.000000 

0.000000 -0.000000 0.000000 
0.000000 -0.000000 0.000000 
0.000000 0.000000 0.000000 

0.000000 0.000000 0.000000 
0.000000 0.000000 0.000000 
0.000000 0.000000 0.000000 

0.000000 0.000000 0.000000 
0.000000 0.000000 0.000000 
0.000000 0.000000 0.000000 

-0.000000 0.000000 0.000000 
0.000000 0.000000 0.000000 
0.000000 0.000000 0.000000 

-0.000000 -0.000000 0.000000 
0.000000 -0.000000 0.000000 
0.000000 0.000000 0.000000 

-0.000000 0.000000 0.000000 
0.000000 0.000000 0.000000 
0.000000 0.000000 0.000000 

-0.000000 -0.000000 0.000000 
0.000000 0.000000 0.000000 
0.000000 0.000000 0.000000 

-0.000000 0.000000 0.000000 
0.000000 0.000000 0.000000 
0.000000 0.000000 0.000000 

-0.000000 -0.000000 0.000000 
0.000000 0.000000 0.000000 
0.000000 0.000000 0.000000 

0.000000 0.000000 0.000000 
0.000000 -0.000000 0.000000 
0.000000 0.000000 0.000000 

0.000000 0.000000 0.000000 
0.000000 -0.000000 0.000000 
0.000000 0.000000 0.000000 

0.000000 0.000000 0.000000 
0.000000 -0.000000 0.000000 
0.000000 0.000000 0.000000 

-0.000000 -0.000000 0.000000 
0.000000 -0.000000 0.000000 
0.000000 0.000000 0.000000 

0.000000 0.000000 0.000000 
0.000000 0.000000 0.000000 
0.000000 0.000000 0.000000 

0.000000 0.000000 0.000000 
0.000000 0.000000 0.000000 
0.000000 0.000000 0.000000 

-0.000000 0.000000 0.000000 
0.000000 0.000000 0.000000 
0.000000 0.000000 0.000000 

-0.000000 -0.000000 0.000000 
0.000000 0.000000 0.000000 
0.000000 0.000000 0.000000 

-0.000000 -0.000000 0.000000 
0.000000 0.000000 0.000000 
0.000000 0.000000 0.000000 

0.000000 0.000000 0.000000 
0.000000 0.000000 0.000000 
0.000000 0.000000 0.000000 

-0.000000 -0.000000 0.000000 
0.000000 0.000000 0.000000 
0.000000 0.000000 0.000000 

-0.000000 -0.000000 0.000000 
0.000000 0.000000 0.000000 
0.000000 0.000000 0.000000 

-0.000000 -0.000000 0.000000 
0.000000 0.000000 0.000000 
0.000000 0.000000 0.000000 

-0.000000 -0.000000 0.000000 
0.000000 0.000000 0.000000 
0.000000 0.000000 0.000000 

-0.000000 0.000000 0.000000 
0.000000 0.000000 0.000000 
0.000000 0.000000 0.000000 

0.000000 0.000000 0.000000 
0.000000 0.000000 0.000000 
0.000000 0.000000 0.000000 

-0.000000 0.000000 0.000000 
0.000000 0.000000 0.000000 
0.000000 0.000000 0.000000 

-0.000000 0.000000 0.000000 
0.000000 0.000000 0.000000 
0.000000 0.000000 0.000000 

-0.000000 -0.000000 0.000000 
0.000000 -0.000000 0.000000 
0.000000 0.000000 0.000000 

-0.000000 -0.000000 0.000000 
0.000000 0.000000 0.000000 
0.000000 0.000000 0.000000 

-0.000000 -0.000000 0.000000 
0.000000 -0.000000 0.000000 
0.000000 0.000000 0.000000 

-0.000000 0.000000 0.000000 
0.000000 -0.000000 0.000000 
0.000000 0.000000 0.000000 

-0.000000 -0.000000 0.000000 
0.000000 -0.000000 0.000000 
0.000000 0.000000 0.000000 

0.000000 -0.000000 0.000000 
0.000000 0.000000 0.000000 
0.000000 0.000000 0.000000 

0.000000 -0.000000 0.000000 
0.000000 0.000000 0.000000 
0.000000 0.000000 0.000000 

