# vtk DataFile Version 3.0 
vtk output 
ASCII 
DATASET UNSTRUCTURED_GRID 
POINTS 175 float 
-0.026061 -0.759670 0.000000 
-0.106992 -0.691615 0.000000 
-0.054870 -0.699847 0.000000 
-0.028809 -0.653964 0.000000 
-0.186430 -0.627539 0.000000 
-0.137056 -0.630065 0.000000 
-0.114311 -0.576418 0.000000 
-0.058186 -0.592084 0.000000 
-0.029377 -0.551907 0.000000 
-0.265318 -0.564383 0.000000 
-0.217198 -0.565183 0.000000 
-0.196633 -0.507887 0.000000 
-0.143120 -0.516595 0.000000 
-0.116563 -0.469327 0.000000 
-0.058945 -0.488972 0.000000 
-0.029568 -0.450852 0.000000 
-0.344206 -0.501228 0.000000 
-0.296791 -0.501221 0.000000 
-0.278030 -0.441278 0.000000 
-0.225992 -0.447144 0.000000 
-0.201664 -0.395027 0.000000 
-0.145749 -0.408501 0.000000 
-0.117890 -0.364158 0.000000 
-0.059328 -0.386864 0.000000 
-0.029759 -0.349798 0.000000 
-0.058559 -0.800421 0.000000 
-0.162226 -0.821264 0.000000 
-0.123292 -0.785646 0.000000 
-0.142917 -0.736663 0.000000 
-0.261851 -0.843420 0.000000 
-0.229092 -0.806393 0.000000 
-0.256854 -0.755161 0.000000 
-0.209613 -0.721049 0.000000 
-0.223062 -0.673475 0.000000 
-0.360414 -0.865720 0.000000 
-0.329787 -0.828597 0.000000 
-0.361761 -0.776795 0.000000 
-0.321587 -0.740386 0.000000 
-0.341985 -0.690152 0.000000 
-0.290702 -0.657353 0.000000 
-0.302189 -0.610618 0.000000 
-0.458977 -0.888020 0.000000 
-0.429420 -0.850945 0.000000 
-0.464588 -0.798904 0.000000 
-0.427556 -0.761876 0.000000 
-0.453135 -0.710361 0.000000 
-0.407738 -0.675046 0.000000 
-0.425037 -0.625618 0.000000 
-0.370772 -0.593989 0.000000 
-0.381315 -0.547761 0.000000 
-0.046960 -0.851236 0.000000 
-0.095301 -0.945282 0.000000 
-0.098873 -0.892635 0.000000 
-0.149405 -0.877437 0.000000 
-0.140093 -1.036986 0.000000 
-0.148617 -0.988288 0.000000 
-0.205981 -0.978051 0.000000 
-0.203197 -0.919847 0.000000 
-0.248777 -0.900701 0.000000 
-0.184111 -1.127950 0.000000 
-0.194039 -1.080859 0.000000 
-0.254475 -1.073559 0.000000 
-0.257893 -1.019449 0.000000 
-0.309886 -1.004077 0.000000 
-0.303554 -0.943532 0.000000 
-0.347255 -0.923374 0.000000 
-0.228129 -1.218913 0.000000 
-0.238687 -1.172689 0.000000 
-0.301302 -1.167737 0.000000 
-0.307162 -1.115698 0.000000 
-0.363386 -1.103577 0.000000 
-0.362692 -1.046066 0.000000 
-0.412122 -1.028773 0.000000 
-0.403017 -0.966626 0.000000 
-0.445733 -0.946047 0.000000 
-0.000000 -0.873851 0.000000 
0.043388 -0.970282 0.000000 
-0.000000 -0.940249 0.000000 
-0.043388 -0.970282 0.000000 
0.087158 -1.062478 0.000000 
0.043769 -1.038780 0.000000 
-0.000000 -1.077246 0.000000 
-0.043769 -1.038780 0.000000 
-0.087158 -1.062478 0.000000 
0.130831 -1.153608 0.000000 
0.087824 -1.132009 0.000000 
0.044436 -1.174709 0.000000 
-0.000000 -1.143644 0.000000 
-0.044436 -1.174709 0.000000 
-0.087824 -1.132009 0.000000 
-0.130831 -1.153608 0.000000 
0.174505 -1.244738 0.000000 
0.131782 -1.224172 0.000000 
0.088871 -1.270038 0.000000 
0.044532 -1.242174 0.000000 
-0.000000 -1.278574 0.000000 
-0.044532 -1.242174 0.000000 
-0.088871 -1.270038 0.000000 
-0.131782 -1.224172 0.000000 
-0.174505 -1.244738 0.000000 
0.046960 -0.851236 0.000000 
0.149405 -0.877437 0.000000 
0.098873 -0.892635 0.000000 
0.095301 -0.945282 0.000000 
0.248777 -0.900701 0.000000 
0.203197 -0.919847 0.000000 
0.205981 -0.978051 0.000000 
0.148617 -0.988288 0.000000 
0.140093 -1.036986 0.000000 
0.347255 -0.923374 0.000000 
0.303554 -0.943532 0.000000 
0.309886 -1.004077 0.000000 
0.257893 -1.019449 0.000000 
0.254475 -1.073559 0.000000 
0.194039 -1.080859 0.000000 
0.184111 -1.127950 0.000000 
0.445733 -0.946047 0.000000 
0.403017 -0.966626 0.000000 
0.412122 -1.028773 0.000000 
0.362692 -1.046066 0.000000 
0.363386 -1.103577 0.000000 
0.307162 -1.115698 0.000000 
0.301302 -1.167737 0.000000 
0.238687 -1.172689 0.000000 
0.228129 -1.218913 0.000000 
0.058559 -0.800421 0.000000 
0.142917 -0.736663 0.000000 
0.123292 -0.785646 0.000000 
0.162226 -0.821264 0.000000 
0.223062 -0.673475 0.000000 
0.209613 -0.721049 0.000000 
0.256854 -0.755161 0.000000 
0.229092 -0.806393 0.000000 
0.261851 -0.843420 0.000000 
0.302189 -0.610618 0.000000 
0.290702 -0.657353 0.000000 
0.341985 -0.690152 0.000000 
0.321587 -0.740386 0.000000 
0.361761 -0.776795 0.000000 
0.329787 -0.828597 0.000000 
0.360414 -0.865720 0.000000 
0.381315 -0.547761 0.000000 
0.370772 -0.593989 0.000000 
0.425037 -0.625618 0.000000 
0.407738 -0.675046 0.000000 
0.453135 -0.710361 0.000000 
0.427556 -0.761876 0.000000 
0.464588 -0.798904 0.000000 
0.429420 -0.850945 0.000000 
0.458977 -0.888020 0.000000 
0.026061 -0.759670 0.000000 
0.028809 -0.653964 0.000000 
0.054870 -0.699847 0.000000 
0.106992 -0.691615 0.000000 
0.029377 -0.551907 0.000000 
0.058186 -0.592084 0.000000 
0.114311 -0.576418 0.000000 
0.137056 -0.630065 0.000000 
0.186430 -0.627539 0.000000 
0.029568 -0.450852 0.000000 
0.058945 -0.488972 0.000000 
0.116563 -0.469327 0.000000 
0.143120 -0.516595 0.000000 
0.196633 -0.507887 0.000000 
0.217198 -0.565183 0.000000 
0.265318 -0.564383 0.000000 
0.029759 -0.349798 0.000000 
0.059328 -0.386864 0.000000 
0.117890 -0.364158 0.000000 
0.145749 -0.408501 0.000000 
0.201664 -0.395027 0.000000 
0.225992 -0.447144 0.000000 
0.278030 -0.441278 0.000000 
0.296791 -0.501221 0.000000 
0.344206 -0.501228 0.000000 
CELLS 175 350 
1 0 
1 1 
1 2 
1 3 
1 4 
1 5 
1 6 
1 7 
1 8 
1 9 
1 10 
1 11 
1 12 
1 13 
1 14 
1 15 
1 16 
1 17 
1 18 
1 19 
1 20 
1 21 
1 22 
1 23 
1 24 
1 25 
1 26 
1 27 
1 28 
1 29 
1 30 
1 31 
1 32 
1 33 
1 34 
1 35 
1 36 
1 37 
1 38 
1 39 
1 40 
1 41 
1 42 
1 43 
1 44 
1 45 
1 46 
1 47 
1 48 
1 49 
1 50 
1 51 
1 52 
1 53 
1 54 
1 55 
1 56 
1 57 
1 58 
1 59 
1 60 
1 61 
1 62 
1 63 
1 64 
1 65 
1 66 
1 67 
1 68 
1 69 
1 70 
1 71 
1 72 
1 73 
1 74 
1 75 
1 76 
1 77 
1 78 
1 79 
1 80 
1 81 
1 82 
1 83 
1 84 
1 85 
1 86 
1 87 
1 88 
1 89 
1 90 
1 91 
1 92 
1 93 
1 94 
1 95 
1 96 
1 97 
1 98 
1 99 
1 100 
1 101 
1 102 
1 103 
1 104 
1 105 
1 106 
1 107 
1 108 
1 109 
1 110 
1 111 
1 112 
1 113 
1 114 
1 115 
1 116 
1 117 
1 118 
1 119 
1 120 
1 121 
1 122 
1 123 
1 124 
1 125 
1 126 
1 127 
1 128 
1 129 
1 130 
1 131 
1 132 
1 133 
1 134 
1 135 
1 136 
1 137 
1 138 
1 139 
1 140 
1 141 
1 142 
1 143 
1 144 
1 145 
1 146 
1 147 
1 148 
1 149 
1 150 
1 151 
1 152 
1 153 
1 154 
1 155 
1 156 
1 157 
1 158 
1 159 
1 160 
1 161 
1 162 
1 163 
1 164 
1 165 
1 166 
1 167 
1 168 
1 169 
1 170 
1 171 
1 172 
1 173 
1 174 
CELL_TYPES 175 
1 
1 
1 
1 
1 
1 
1 
1 
1 
1 
1 
1 
1 
1 
1 
1 
1 
1 
1 
1 
1 
1 
1 
1 
1 
1 
1 
1 
1 
1 
1 
1 
1 
1 
1 
1 
1 
1 
1 
1 
1 
1 
1 
1 
1 
1 
1 
1 
1 
1 
1 
1 
1 
1 
1 
1 
1 
1 
1 
1 
1 
1 
1 
1 
1 
1 
1 
1 
1 
1 
1 
1 
1 
1 
1 
1 
1 
1 
1 
1 
1 
1 
1 
1 
1 
1 
1 
1 
1 
1 
1 
1 
1 
1 
1 
1 
1 
1 
1 
1 
1 
1 
1 
1 
1 
1 
1 
1 
1 
1 
1 
1 
1 
1 
1 
1 
1 
1 
1 
1 
1 
1 
1 
1 
1 
1 
1 
1 
1 
1 
1 
1 
1 
1 
1 
1 
1 
1 
1 
1 
1 
1 
1 
1 
1 
1 
1 
1 
1 
1 
1 
1 
1 
1 
1 
1 
1 
1 
1 
1 
1 
1 
1 
1 
1 
1 
1 
1 
1 
1 
1 
1 
1 
1 
1 
POINT_DATA 175 
VECTORS X_GC float 
-0.026061 -0.759670 0.000000 
-0.106992 -0.691615 0.000000 
-0.054870 -0.699847 0.000000 
-0.028809 -0.653964 0.000000 
-0.186430 -0.627539 0.000000 
-0.137056 -0.630065 0.000000 
-0.114311 -0.576418 0.000000 
-0.058186 -0.592084 0.000000 
-0.029377 -0.551907 0.000000 
-0.265318 -0.564383 0.000000 
-0.217198 -0.565183 0.000000 
-0.196633 -0.507887 0.000000 
-0.143120 -0.516595 0.000000 
-0.116563 -0.469327 0.000000 
-0.058945 -0.488972 0.000000 
-0.029568 -0.450852 0.000000 
-0.344206 -0.501228 0.000000 
-0.296791 -0.501221 0.000000 
-0.278030 -0.441278 0.000000 
-0.225992 -0.447144 0.000000 
-0.201664 -0.395027 0.000000 
-0.145749 -0.408501 0.000000 
-0.117890 -0.364158 0.000000 
-0.059328 -0.386864 0.000000 
-0.029759 -0.349798 0.000000 
-0.058559 -0.800421 0.000000 
-0.162226 -0.821264 0.000000 
-0.123292 -0.785646 0.000000 
-0.142917 -0.736663 0.000000 
-0.261851 -0.843420 0.000000 
-0.229092 -0.806393 0.000000 
-0.256854 -0.755161 0.000000 
-0.209613 -0.721049 0.000000 
-0.223062 -0.673475 0.000000 
-0.360414 -0.865720 0.000000 
-0.329787 -0.828597 0.000000 
-0.361761 -0.776795 0.000000 
-0.321587 -0.740386 0.000000 
-0.341985 -0.690152 0.000000 
-0.290702 -0.657353 0.000000 
-0.302189 -0.610618 0.000000 
-0.458977 -0.888020 0.000000 
-0.429420 -0.850945 0.000000 
-0.464588 -0.798904 0.000000 
-0.427556 -0.761876 0.000000 
-0.453135 -0.710361 0.000000 
-0.407738 -0.675046 0.000000 
-0.425037 -0.625618 0.000000 
-0.370772 -0.593989 0.000000 
-0.381315 -0.547761 0.000000 
-0.046960 -0.851236 0.000000 
-0.095301 -0.945282 0.000000 
-0.098873 -0.892635 0.000000 
-0.149405 -0.877437 0.000000 
-0.140093 -1.036986 0.000000 
-0.148617 -0.988288 0.000000 
-0.205981 -0.978051 0.000000 
-0.203197 -0.919847 0.000000 
-0.248777 -0.900701 0.000000 
-0.184111 -1.127950 0.000000 
-0.194039 -1.080859 0.000000 
-0.254475 -1.073559 0.000000 
-0.257893 -1.019449 0.000000 
-0.309886 -1.004077 0.000000 
-0.303554 -0.943532 0.000000 
-0.347255 -0.923374 0.000000 
-0.228129 -1.218913 0.000000 
-0.238687 -1.172689 0.000000 
-0.301302 -1.167737 0.000000 
-0.307162 -1.115698 0.000000 
-0.363386 -1.103577 0.000000 
-0.362692 -1.046066 0.000000 
-0.412122 -1.028773 0.000000 
-0.403017 -0.966626 0.000000 
-0.445733 -0.946047 0.000000 
-0.000000 -0.873851 0.000000 
0.043388 -0.970282 0.000000 
-0.000000 -0.940249 0.000000 
-0.043388 -0.970282 0.000000 
0.087158 -1.062478 0.000000 
0.043769 -1.038780 0.000000 
-0.000000 -1.077246 0.000000 
-0.043769 -1.038780 0.000000 
-0.087158 -1.062478 0.000000 
0.130831 -1.153608 0.000000 
0.087824 -1.132009 0.000000 
0.044436 -1.174709 0.000000 
-0.000000 -1.143644 0.000000 
-0.044436 -1.174709 0.000000 
-0.087824 -1.132009 0.000000 
-0.130831 -1.153608 0.000000 
0.174505 -1.244738 0.000000 
0.131782 -1.224172 0.000000 
0.088871 -1.270038 0.000000 
0.044532 -1.242174 0.000000 
-0.000000 -1.278574 0.000000 
-0.044532 -1.242174 0.000000 
-0.088871 -1.270038 0.000000 
-0.131782 -1.224172 0.000000 
-0.174505 -1.244738 0.000000 
0.046960 -0.851236 0.000000 
0.149405 -0.877437 0.000000 
0.098873 -0.892635 0.000000 
0.095301 -0.945282 0.000000 
0.248777 -0.900701 0.000000 
0.203197 -0.919847 0.000000 
0.205981 -0.978051 0.000000 
0.148617 -0.988288 0.000000 
0.140093 -1.036986 0.000000 
0.347255 -0.923374 0.000000 
0.303554 -0.943532 0.000000 
0.309886 -1.004077 0.000000 
0.257893 -1.019449 0.000000 
0.254475 -1.073559 0.000000 
0.194039 -1.080859 0.000000 
0.184111 -1.127950 0.000000 
0.445733 -0.946047 0.000000 
0.403017 -0.966626 0.000000 
0.412122 -1.028773 0.000000 
0.362692 -1.046066 0.000000 
0.363386 -1.103577 0.000000 
0.307162 -1.115698 0.000000 
0.301302 -1.167737 0.000000 
0.238687 -1.172689 0.000000 
0.228129 -1.218913 0.000000 
0.058559 -0.800421 0.000000 
0.142917 -0.736663 0.000000 
0.123292 -0.785646 0.000000 
0.162226 -0.821264 0.000000 
0.223062 -0.673475 0.000000 
0.209613 -0.721049 0.000000 
0.256854 -0.755161 0.000000 
0.229092 -0.806393 0.000000 
0.261851 -0.843420 0.000000 
0.302189 -0.610618 0.000000 
0.290702 -0.657353 0.000000 
0.341985 -0.690152 0.000000 
0.321587 -0.740386 0.000000 
0.361761 -0.776795 0.000000 
0.329787 -0.828597 0.000000 
0.360414 -0.865720 0.000000 
0.381315 -0.547761 0.000000 
0.370772 -0.593989 0.000000 
0.425037 -0.625618 0.000000 
0.407738 -0.675046 0.000000 
0.453135 -0.710361 0.000000 
0.427556 -0.761876 0.000000 
0.464588 -0.798904 0.000000 
0.429420 -0.850945 0.000000 
0.458977 -0.888020 0.000000 
0.026061 -0.759670 0.000000 
0.028809 -0.653964 0.000000 
0.054870 -0.699847 0.000000 
0.106992 -0.691615 0.000000 
0.029377 -0.551907 0.000000 
0.058186 -0.592084 0.000000 
0.114311 -0.576418 0.000000 
0.137056 -0.630065 0.000000 
0.186430 -0.627539 0.000000 
0.029568 -0.450852 0.000000 
0.058945 -0.488972 0.000000 
0.116563 -0.469327 0.000000 
0.143120 -0.516595 0.000000 
0.196633 -0.507887 0.000000 
0.217198 -0.565183 0.000000 
0.265318 -0.564383 0.000000 
0.029759 -0.349798 0.000000 
0.059328 -0.386864 0.000000 
0.117890 -0.364158 0.000000 
0.145749 -0.408501 0.000000 
0.201664 -0.395027 0.000000 
0.225992 -0.447144 0.000000 
0.278030 -0.441278 0.000000 
0.296791 -0.501221 0.000000 
0.344206 -0.501228 0.000000 
VECTORS X_EC float 
0.338794 0.755547 0.000000 
-0.609100 -0.163201 0.000000 
0.713312 -0.052060 0.000000 
0.374519 -0.671490 0.000000 
0.423588 0.971780 0.000000 
-0.218274 -0.994117 0.000000 
-0.513962 0.281644 0.000000 
0.756418 0.493130 0.000000 
0.381900 -0.049262 0.000000 
-0.550868 0.119176 0.000000 
0.823577 0.129972 0.000000 
0.556234 -0.643532 0.000000 
-0.139443 -0.525963 0.000000 
-0.484677 0.835912 0.000000 
0.766286 -0.898873 0.000000 
0.384386 0.586507 0.000000 
0.474677 -0.733427 0.000000 
-0.141715 -0.733523 0.000000 
-0.385608 0.457249 0.000000 
0.937896 0.536444 0.000000 
0.621631 -0.167136 0.000000 
-0.105264 0.014763 0.000000 
-0.467428 -0.583863 0.000000 
0.771260 -0.277335 0.000000 
0.386873 -0.777724 0.000000 
0.761262 -0.694318 0.000000 
0.108942 -0.412942 0.000000 
-0.397202 -0.893781 0.000000 
-0.142083 0.444944 0.000000 
-0.595936 -0.113831 0.000000 
0.978194 -0.613697 0.000000 
-0.660903 0.694678 0.000000 
0.724964 0.234158 0.000000 
0.899809 -0.408091 0.000000 
0.685384 0.187221 0.000000 
0.287229 -0.313937 0.000000 
0.702895 0.986734 0.000000 
0.180633 0.495215 0.000000 
0.445811 -0.182944 0.000000 
-0.220880 -0.625730 0.000000 
-0.071546 0.743344 0.000000 
-0.033296 0.488273 0.000000 
-0.417537 -0.012236 0.000000 
0.039645 -0.714799 0.000000 
-0.441768 0.785330 0.000000 
-0.109248 0.089879 0.000000 
-0.699407 -0.386876 0.000000 
-0.474522 0.945845 0.000000 
0.820030 0.518851 0.000000 
0.957100 -0.105221 0.000000 
0.610485 -0.008312 0.000000 
-0.761092 -0.738693 0.000000 
-0.714655 0.550570 0.000000 
-0.057734 0.345403 0.000000 
-0.178789 0.499312 0.000000 
-0.067979 -0.158114 0.000000 
0.677748 -0.296318 0.000000 
0.641556 0.917937 0.000000 
-0.765897 0.659458 0.000000 
0.393446 -0.272679 0.000000 
0.522510 -0.908409 0.000000 
-0.691820 0.993047 0.000000 
-0.647393 0.262564 0.000000 
0.028512 0.055037 0.000000 
-0.053800 -0.762323 0.000000 
0.514316 0.965546 0.000000 
0.965681 0.955330 0.000000 
-0.897068 0.331301 0.000000 
-0.083078 0.264448 0.000000 
-0.006893 -0.438077 0.000000 
0.724017 -0.601709 0.000000 
0.714996 0.621887 0.000000 
-0.642413 0.388430 0.000000 
-0.760780 -0.450551 0.000000 
-0.205471 -0.728366 0.000000 
0.000000 0.296990 0.000000 
-0.564049 -0.401197 0.000000 
0.000000 -0.806633 0.000000 
0.564049 -0.401197 0.000000 
0.866949 0.843458 0.000000 
-0.569003 0.523527 0.000000 
0.000000 -0.957185 0.000000 
0.569003 0.523527 0.000000 
-0.866949 0.843458 0.000000 
0.299194 0.073708 0.000000 
0.858290 -0.217876 0.000000 
-0.577662 0.358570 0.000000 
0.000000 -0.060808 0.000000 
0.577662 0.358570 0.000000 
-0.858290 -0.217876 0.000000 
-0.299194 0.073708 0.000000 
-0.268560 -0.696042 0.000000 
0.286830 -0.973684 0.000000 
0.844677 -0.354485 0.000000 
-0.578910 -0.730648 0.000000 
0.000000 -0.239244 0.000000 
0.578910 -0.730648 0.000000 
-0.844677 -0.354485 0.000000 
-0.286830 -0.973684 0.000000 
0.268560 -0.696042 0.000000 
-0.610485 -0.008312 0.000000 
0.057734 0.345403 0.000000 
0.714655 0.550570 0.000000 
0.761092 -0.738693 0.000000 
0.765897 0.659458 0.000000 
-0.641556 0.917937 0.000000 
-0.677748 -0.296318 0.000000 
0.067979 -0.158114 0.000000 
0.178789 0.499312 0.000000 
-0.514316 0.965546 0.000000 
0.053800 -0.762323 0.000000 
-0.028512 0.055037 0.000000 
0.647393 0.262564 0.000000 
0.691820 0.993047 0.000000 
-0.522510 -0.908409 0.000000 
-0.393446 -0.272679 0.000000 
0.205471 -0.728366 0.000000 
0.760780 -0.450551 0.000000 
0.642413 0.388430 0.000000 
-0.714996 0.621887 0.000000 
-0.724017 -0.601709 0.000000 
0.006894 -0.438077 0.000000 
0.083078 0.264448 0.000000 
0.897068 0.331301 0.000000 
-0.965681 0.955330 0.000000 
-0.761262 -0.694318 0.000000 
0.142083 0.444944 0.000000 
0.397202 -0.893781 0.000000 
-0.108942 -0.412942 0.000000 
-0.899809 -0.408091 0.000000 
-0.724964 0.234158 0.000000 
0.660903 0.694678 0.000000 
-0.978194 -0.613697 0.000000 
0.595936 -0.113831 0.000000 
0.071546 0.743344 0.000000 
0.220880 -0.625730 0.000000 
-0.445811 -0.182944 0.000000 
-0.180633 0.495215 0.000000 
-0.702895 0.986734 0.000000 
-0.287229 -0.313937 0.000000 
-0.685384 0.187221 0.000000 
-0.957100 -0.105221 0.000000 
-0.820030 0.518851 0.000000 
0.474522 0.945845 0.000000 
0.699407 -0.386876 0.000000 
0.109248 0.089879 0.000000 
0.441768 0.785330 0.000000 
-0.039645 -0.714799 0.000000 
0.417537 -0.012236 0.000000 
0.033296 0.488273 0.000000 
-0.338794 0.755547 0.000000 
-0.374519 -0.671490 0.000000 
-0.713312 -0.052060 0.000000 
0.609100 -0.163201 0.000000 
-0.381900 -0.049262 0.000000 
-0.756418 0.493130 0.000000 
0.513962 0.281644 0.000000 
0.218274 -0.994117 0.000000 
-0.423588 0.971780 0.000000 
-0.384386 0.586507 0.000000 
-0.766286 -0.898873 0.000000 
0.484677 0.835912 0.000000 
0.139443 -0.525963 0.000000 
-0.556234 -0.643532 0.000000 
-0.823577 0.129972 0.000000 
0.550868 0.119176 0.000000 
-0.386873 -0.777724 0.000000 
-0.771260 -0.277335 0.000000 
0.467428 -0.583863 0.000000 
0.105264 0.014763 0.000000 
-0.621631 -0.167136 0.000000 
-0.937896 0.536444 0.000000 
0.385608 0.457249 0.000000 
0.141715 -0.733523 0.000000 
-0.474677 -0.733427 0.000000 
CELL_DATA 175 
SCALARS MASS float 
LOOKUP_TABLE default 
0.078183 
0.086427 
0.094672 
0.086427 
0.088131 
0.092111 
0.085854 
0.092111 
0.088131 
0.088705 
0.091000 
0.086983 
0.091556 
0.086983 
0.091000 
0.088705 
0.089278 
0.091574 
0.089278 
0.092722 
0.089278 
0.092722 
0.089278 
0.091574 
0.089278 
0.078183 
0.086427 
0.094672 
0.086427 
0.088131 
0.092111 
0.085854 
0.092111 
0.088131 
0.088705 
0.091000 
0.086983 
0.091556 
0.086983 
0.091000 
0.088705 
0.089278 
0.091574 
0.089278 
0.092722 
0.089278 
0.092722 
0.089278 
0.091574 
0.089278 
0.078183 
0.086427 
0.094672 
0.086427 
0.088131 
0.092111 
0.085854 
0.092111 
0.088131 
0.088705 
0.091000 
0.086983 
0.091556 
0.086983 
0.091000 
0.088705 
0.089278 
0.091574 
0.089278 
0.092722 
0.089278 
0.092722 
0.089278 
0.091574 
0.089278 
0.078183 
0.086427 
0.094672 
0.086427 
0.088131 
0.092111 
0.085854 
0.092111 
0.088131 
0.088705 
0.091000 
0.086983 
0.091556 
0.086983 
0.091000 
0.088705 
0.089278 
0.091574 
0.089278 
0.092722 
0.089278 
0.092722 
0.089278 
0.091574 
0.089278 
0.078183 
0.086427 
0.094672 
0.086427 
0.088131 
0.092111 
0.085854 
0.092111 
0.088131 
0.088705 
0.091000 
0.086983 
0.091556 
0.086983 
0.091000 
0.088705 
0.089278 
0.091574 
0.089278 
0.092722 
0.089278 
0.092722 
0.089278 
0.091574 
0.089278 
0.078183 
0.086427 
0.094672 
0.086427 
0.088131 
0.092111 
0.085854 
0.092111 
0.088131 
0.088705 
0.091000 
0.086983 
0.091556 
0.086983 
0.091000 
0.088705 
0.089278 
0.091574 
0.089278 
0.092722 
0.089278 
0.092722 
0.089278 
0.091574 
0.089278 
0.078183 
0.086427 
0.094672 
0.086427 
0.088131 
0.092111 
0.085854 
0.092111 
0.088131 
0.088705 
0.091000 
0.086983 
0.091556 
0.086983 
0.091000 
0.088705 
0.089278 
0.091574 
0.089278 
0.092722 
0.089278 
0.092722 
0.089278 
0.091574 
0.089278 
SCALARS MASS float 
LOOKUP_TABLE default 
0.078183 
0.086427 
0.094672 
0.086427 
0.088131 
0.092111 
0.085854 
0.092111 
0.088131 
0.088705 
0.091000 
0.086983 
0.091556 
0.086983 
0.091000 
0.088705 
0.089278 
0.091574 
0.089278 
0.092722 
0.089278 
0.092722 
0.089278 
0.091574 
0.089278 
0.078183 
0.086427 
0.094672 
0.086427 
0.088131 
0.092111 
0.085854 
0.092111 
0.088131 
0.088705 
0.091000 
0.086983 
0.091556 
0.086983 
0.091000 
0.088705 
0.089278 
0.091574 
0.089278 
0.092722 
0.089278 
0.092722 
0.089278 
0.091574 
0.089278 
0.078183 
0.086427 
0.094672 
0.086427 
0.088131 
0.092111 
0.085854 
0.092111 
0.088131 
0.088705 
0.091000 
0.086983 
0.091556 
0.086983 
0.091000 
0.088705 
0.089278 
0.091574 
0.089278 
0.092722 
0.089278 
0.092722 
0.089278 
0.091574 
0.089278 
0.078183 
0.086427 
0.094672 
0.086427 
0.088131 
0.092111 
0.085854 
0.092111 
0.088131 
0.088705 
0.091000 
0.086983 
0.091556 
0.086983 
0.091000 
0.088705 
0.089278 
0.091574 
0.089278 
0.092722 
0.089278 
0.092722 
0.089278 
0.091574 
0.089278 
0.078183 
0.086427 
0.094672 
0.086427 
0.088131 
0.092111 
0.085854 
0.092111 
0.088131 
0.088705 
0.091000 
0.086983 
0.091556 
0.086983 
0.091000 
0.088705 
0.089278 
0.091574 
0.089278 
0.092722 
0.089278 
0.092722 
0.089278 
0.091574 
0.089278 
0.078183 
0.086427 
0.094672 
0.086427 
0.088131 
0.092111 
0.085854 
0.092111 
0.088131 
0.088705 
0.091000 
0.086983 
0.091556 
0.086983 
0.091000 
0.088705 
0.089278 
0.091574 
0.089278 
0.092722 
0.089278 
0.092722 
0.089278 
0.091574 
0.089278 
0.078183 
0.086427 
0.094672 
0.086427 
0.088131 
0.092111 
0.085854 
0.092111 
0.088131 
0.088705 
0.091000 
0.086983 
0.091556 
0.086983 
0.091000 
0.088705 
0.089278 
0.091574 
0.089278 
0.092722 
0.089278 
0.092722 
0.089278 
0.091574 
0.089278 
SCALARS DENSITY float 
LOOKUP_TABLE default 
20.000000 
20.000000 
20.000000 
20.000000 
20.000000 
20.000000 
20.000000 
20.000000 
20.000000 
20.000000 
20.000000 
20.000000 
20.000000 
20.000000 
20.000000 
20.000000 
20.000000 
20.000000 
20.000000 
20.000000 
20.000000 
20.000000 
20.000000 
20.000000 
20.000000 
20.000000 
20.000000 
20.000000 
20.000000 
20.000000 
20.000000 
20.000000 
20.000000 
20.000000 
20.000000 
20.000000 
20.000000 
20.000000 
20.000000 
20.000000 
20.000000 
20.000000 
20.000000 
20.000000 
20.000000 
20.000000 
20.000000 
20.000000 
20.000000 
20.000000 
20.000000 
20.000000 
20.000000 
20.000000 
20.000000 
20.000000 
20.000000 
20.000000 
20.000000 
20.000000 
20.000000 
20.000000 
20.000000 
20.000000 
20.000000 
20.000000 
20.000000 
20.000000 
20.000000 
20.000000 
20.000000 
20.000000 
20.000000 
20.000000 
20.000000 
20.000000 
20.000000 
20.000000 
20.000000 
20.000000 
20.000000 
20.000000 
20.000000 
20.000000 
20.000000 
20.000000 
20.000000 
20.000000 
20.000000 
20.000000 
20.000000 
20.000000 
20.000000 
20.000000 
20.000000 
20.000000 
20.000000 
20.000000 
20.000000 
20.000000 
20.000000 
20.000000 
20.000000 
20.000000 
20.000000 
20.000000 
20.000000 
20.000000 
20.000000 
20.000000 
20.000000 
20.000000 
20.000000 
20.000000 
20.000000 
20.000000 
20.000000 
20.000000 
20.000000 
20.000000 
20.000000 
20.000000 
20.000000 
20.000000 
20.000000 
20.000000 
20.000000 
20.000000 
20.000000 
20.000000 
20.000000 
20.000000 
20.000000 
20.000000 
20.000000 
20.000000 
20.000000 
20.000000 
20.000000 
20.000000 
20.000000 
20.000000 
20.000000 
20.000000 
20.000000 
20.000000 
20.000000 
20.000000 
20.000000 
20.000000 
20.000000 
20.000000 
20.000000 
20.000000 
20.000000 
20.000000 
20.000000 
20.000000 
20.000000 
20.000000 
20.000000 
20.000000 
20.000000 
20.000000 
20.000000 
20.000000 
20.000000 
20.000000 
20.000000 
20.000000 
20.000000 
20.000000 
20.000000 
20.000000 
20.000000 
SCALARS ELEM_i float 
LOOKUP_TABLE default 
177 
204 
177 
177 
205 
204 
205 
178 
178 
232 
205 
205 
205 
206 
178 
179 
232 
232 
233 
206 
206 
206 
206 
179 
179 
176 
203 
203 
204 
230 
203 
231 
204 
204 
230 
230 
231 
231 
231 
231 
232 
257 
257 
257 
258 
258 
258 
259 
232 
232 
176 
202 
203 
203 
202 
202 
202 
203 
230 
201 
201 
229 
229 
229 
229 
230 
201 
228 
228 
228 
228 
229 
256 
256 
256 
176 
175 
175 
175 
148 
175 
174 
175 
202 
147 
147 
174 
174 
174 
201 
201 
146 
146 
146 
173 
173 
173 
200 
200 
200 
176 
149 
149 
148 
122 
149 
148 
148 
148 
122 
121 
121 
121 
121 
147 
147 
94 
94 
94 
121 
120 
120 
120 
120 
147 
176 
150 
149 
149 
150 
150 
123 
149 
122 
124 
123 
123 
123 
123 
122 
122 
124 
124 
97 
96 
96 
96 
95 
95 
95 
177 
177 
177 
150 
178 
178 
151 
150 
151 
179 
178 
152 
151 
151 
151 
124 
179 
179 
152 
152 
152 
152 
125 
124 
124 
VECTORS VELOCITY float 
-0.000000 -3.995417 0.000000 
-0.000000 -3.995417 0.000000 
-0.000000 -3.995417 0.000000 
-0.000000 -3.995417 0.000000 
0.000000 -3.995417 0.000000 
0.000000 -3.995417 0.000000 
-0.000000 -3.995417 0.000000 
-0.000000 -3.995417 0.000000 
-0.000000 -3.995417 0.000000 
0.000000 -3.995417 0.000000 
0.000000 -3.995417 0.000000 
-0.000000 -3.995417 0.000000 
-0.000000 -3.995417 0.000000 
-0.000000 -3.995417 0.000000 
-0.000000 -3.995417 0.000000 
0.000000 -3.995417 0.000000 
0.000000 -3.995417 0.000000 
-0.000000 -3.995417 0.000000 
0.000000 -3.995417 0.000000 
-0.000000 -3.995417 0.000000 
0.000000 -3.995417 0.000000 
0.000000 -3.995417 0.000000 
0.000000 -3.995417 0.000000 
0.000000 -3.995417 0.000000 
-0.000000 -3.995417 0.000000 
0.000000 -3.995417 0.000000 
-0.000000 -3.995417 0.000000 
-0.000000 -3.995417 0.000000 
-0.000000 -3.995417 0.000000 
-0.000000 -3.995417 0.000000 
-0.000000 -3.995417 0.000000 
-0.000000 -3.995417 0.000000 
-0.000000 -3.995417 0.000000 
0.000000 -3.995417 0.000000 
0.000000 -3.995417 0.000000 
-0.000000 -3.995417 0.000000 
-0.000000 -3.995417 0.000000 
-0.000000 -3.995417 0.000000 
-0.000000 -3.995417 0.000000 
-0.000000 -3.995417 0.000000 
0.000000 -3.995417 0.000000 
-0.000000 -3.995417 0.000000 
-0.000000 -3.995417 0.000000 
-0.000000 -3.995417 0.000000 
-0.000000 -3.995417 0.000000 
-0.000000 -3.995417 0.000000 
-0.000000 -3.995417 0.000000 
-0.000000 -3.995417 0.000000 
-0.000000 -3.995417 0.000000 
0.000000 -3.995417 0.000000 
0.000000 -3.995417 0.000000 
-0.000000 -3.995417 0.000000 
0.000000 -3.995417 0.000000 
-0.000000 -3.995417 0.000000 
0.000000 -3.995417 0.000000 
0.000000 -3.995417 0.000000 
0.000000 -3.995417 0.000000 
-0.000000 -3.995417 0.000000 
-0.000000 -3.995417 0.000000 
-0.000000 -3.995417 0.000000 
0.000000 -3.995417 0.000000 
0.000000 -3.995417 0.000000 
0.000000 -3.995417 0.000000 
0.000000 -3.995417 0.000000 
0.000000 -3.995417 0.000000 
0.000000 -3.995417 0.000000 
0.000000 -3.995417 0.000000 
-0.000000 -3.995417 0.000000 
0.000000 -3.995417 0.000000 
-0.000000 -3.995417 0.000000 
-0.000000 -3.995417 0.000000 
0.000000 -3.995417 0.000000 
-0.000000 -3.995417 0.000000 
-0.000000 -3.995417 0.000000 
-0.000000 -3.995417 0.000000 
0.000000 -3.995417 0.000000 
-0.000000 -3.995417 0.000000 
-0.000000 -3.995417 0.000000 
-0.000000 -3.995417 0.000000 
0.000000 -3.995417 0.000000 
0.000000 -3.995417 0.000000 
0.000000 -3.995417 0.000000 
-0.000000 -3.995417 0.000000 
0.000000 -3.995417 0.000000 
-0.000000 -3.995417 0.000000 
-0.000000 -3.995417 0.000000 
-0.000000 -3.995417 0.000000 
-0.000000 -3.995417 0.000000 
0.000000 -3.995417 0.000000 
0.000000 -3.995417 0.000000 
-0.000000 -3.995417 0.000000 
0.000000 -3.995417 0.000000 
0.000000 -3.995417 0.000000 
0.000000 -3.995417 0.000000 
-0.000000 -3.995417 0.000000 
0.000000 -3.995417 0.000000 
-0.000000 -3.995417 0.000000 
-0.000000 -3.995417 0.000000 
-0.000000 -3.995417 0.000000 
-0.000000 -3.995417 0.000000 
-0.000000 -3.995417 0.000000 
-0.000000 -3.995417 0.000000 
-0.000000 -3.995417 0.000000 
-0.000000 -3.995417 0.000000 
-0.000000 -3.995417 0.000000 
-0.000000 -3.995417 0.000000 
-0.000000 -3.995417 0.000000 
-0.000000 -3.995417 0.000000 
0.000000 -3.995417 0.000000 
0.000000 -3.995417 0.000000 
0.000000 -3.995417 0.000000 
-0.000000 -3.995417 0.000000 
-0.000000 -3.995417 0.000000 
-0.000000 -3.995417 0.000000 
-0.000000 -3.995417 0.000000 
-0.000000 -3.995417 0.000000 
-0.000000 -3.995417 0.000000 
-0.000000 -3.995417 0.000000 
-0.000000 -3.995417 0.000000 
-0.000000 -3.995417 0.000000 
0.000000 -3.995417 0.000000 
0.000000 -3.995417 0.000000 
0.000000 -3.995417 0.000000 
0.000000 -3.995417 0.000000 
0.000000 -3.995417 0.000000 
-0.000000 -3.995417 0.000000 
-0.000000 -3.995417 0.000000 
-0.000000 -3.995417 0.000000 
-0.000000 -3.995417 0.000000 
0.000000 -3.995417 0.000000 
0.000000 -3.995417 0.000000 
0.000000 -3.995417 0.000000 
-0.000000 -3.995417 0.000000 
-0.000000 -3.995417 0.000000 
0.000000 -3.995417 0.000000 
0.000000 -3.995417 0.000000 
-0.000000 -3.995417 0.000000 
-0.000000 -3.995417 0.000000 
-0.000000 -3.995417 0.000000 
-0.000000 -3.995417 0.000000 
0.000000 -3.995417 0.000000 
0.000000 -3.995417 0.000000 
0.000000 -3.995417 0.000000 
0.000000 -3.995417 0.000000 
-0.000000 -3.995417 0.000000 
0.000000 -3.995417 0.000000 
-0.000000 -3.995417 0.000000 
0.000000 -3.995417 0.000000 
0.000000 -3.995417 0.000000 
0.000000 -3.995417 0.000000 
-0.000000 -3.995417 0.000000 
-0.000000 -3.995417 0.000000 
-0.000000 -3.995417 0.000000 
-0.000000 -3.995417 0.000000 
0.000000 -3.995417 0.000000 
0.000000 -3.995417 0.000000 
0.000000 -3.995417 0.000000 
0.000000 -3.995417 0.000000 
0.000000 -3.995417 0.000000 
0.000000 -3.995417 0.000000 
0.000000 -3.995417 0.000000 
0.000000 -3.995417 0.000000 
0.000000 -3.995417 0.000000 
0.000000 -3.995417 0.000000 
0.000000 -3.995417 0.000000 
0.000000 -3.995417 0.000000 
-0.000000 -3.995417 0.000000 
0.000000 -3.995417 0.000000 
0.000000 -3.995417 0.000000 
0.000000 -3.995417 0.000000 
0.000000 -3.995417 0.000000 
-0.000000 -3.995417 0.000000 
0.000000 -3.995417 0.000000 
0.000000 -3.995417 0.000000 
0.000000 -3.995417 0.000000 
TENSORS STRESS float 
0.000000 -0.000000 0.000000 
0.000000 0.000000 0.000000 
0.000000 0.000000 0.000000 

-0.000000 0.000000 0.000000 
0.000000 0.000000 0.000000 
0.000000 0.000000 0.000000 

0.000000 -0.000000 0.000000 
0.000000 -0.000000 0.000000 
0.000000 0.000000 0.000000 

-0.000000 0.000000 0.000000 
0.000000 -0.000000 0.000000 
0.000000 0.000000 0.000000 

-0.000000 -0.000000 0.000000 
0.000000 0.000000 0.000000 
0.000000 0.000000 0.000000 

0.000000 -0.000000 0.000000 
0.000000 0.000000 0.000000 
0.000000 0.000000 0.000000 

-0.000000 -0.000000 0.000000 
0.000000 -0.000000 0.000000 
0.000000 0.000000 0.000000 

0.000000 -0.000000 0.000000 
0.000000 0.000000 0.000000 
0.000000 0.000000 0.000000 

-0.000000 0.000000 0.000000 
0.000000 -0.000000 0.000000 
0.000000 0.000000 0.000000 

-0.000000 0.000000 0.000000 
0.000000 0.000000 0.000000 
0.000000 0.000000 0.000000 

-0.000000 -0.000000 0.000000 
0.000000 0.000000 0.000000 
0.000000 0.000000 0.000000 

-0.000000 0.000000 0.000000 
0.000000 -0.000000 0.000000 
0.000000 0.000000 0.000000 

-0.000000 -0.000000 0.000000 
0.000000 0.000000 0.000000 
0.000000 0.000000 0.000000 

-0.000000 -0.000000 0.000000 
0.000000 -0.000000 0.000000 
0.000000 0.000000 0.000000 

0.000000 -0.000000 0.000000 
0.000000 -0.000000 0.000000 
0.000000 0.000000 0.000000 

0.000000 0.000000 0.000000 
0.000000 0.000000 0.000000 
0.000000 0.000000 0.000000 

0.000000 -0.000000 0.000000 
0.000000 0.000000 0.000000 
0.000000 0.000000 0.000000 

-0.000000 -0.000000 0.000000 
0.000000 -0.000000 0.000000 
0.000000 0.000000 0.000000 

-0.000000 -0.000000 0.000000 
0.000000 0.000000 0.000000 
0.000000 0.000000 0.000000 

-0.000000 -0.000000 0.000000 
0.000000 -0.000000 0.000000 
0.000000 0.000000 0.000000 

0.000000 -0.000000 0.000000 
0.000000 0.000000 0.000000 
0.000000 0.000000 0.000000 

0.000000 -0.000000 0.000000 
0.000000 0.000000 0.000000 
0.000000 0.000000 0.000000 

-0.000000 -0.000000 0.000000 
0.000000 -0.000000 0.000000 
0.000000 0.000000 0.000000 

-0.000000 -0.000000 0.000000 
0.000000 -0.000000 0.000000 
0.000000 0.000000 0.000000 

-0.000000 -0.000000 0.000000 
0.000000 0.000000 0.000000 
0.000000 0.000000 0.000000 

-0.000000 0.000000 0.000000 
0.000000 0.000000 0.000000 
0.000000 0.000000 0.000000 

0.000000 0.000000 0.000000 
0.000000 0.000000 0.000000 
0.000000 0.000000 0.000000 

0.000000 -0.000000 0.000000 
0.000000 0.000000 0.000000 
0.000000 0.000000 0.000000 

-0.000000 -0.000000 0.000000 
0.000000 -0.000000 0.000000 
0.000000 0.000000 0.000000 

-0.000000 0.000000 0.000000 
0.000000 -0.000000 0.000000 
0.000000 0.000000 0.000000 

0.000000 -0.000000 0.000000 
0.000000 -0.000000 0.000000 
0.000000 0.000000 0.000000 

-0.000000 -0.000000 0.000000 
0.000000 -0.000000 0.000000 
0.000000 0.000000 0.000000 

0.000000 -0.000000 0.000000 
0.000000 0.000000 0.000000 
0.000000 0.000000 0.000000 

-0.000000 -0.000000 0.000000 
0.000000 0.000000 0.000000 
0.000000 0.000000 0.000000 

-0.000000 0.000000 0.000000 
0.000000 -0.000000 0.000000 
0.000000 0.000000 0.000000 

-0.000000 0.000000 0.000000 
0.000000 0.000000 0.000000 
0.000000 0.000000 0.000000 

0.000000 -0.000000 0.000000 
0.000000 0.000000 0.000000 
0.000000 0.000000 0.000000 

0.000000 0.000000 0.000000 
0.000000 0.000000 0.000000 
0.000000 0.000000 0.000000 

0.000000 -0.000000 0.000000 
0.000000 0.000000 0.000000 
0.000000 0.000000 0.000000 

-0.000000 -0.000000 0.000000 
0.000000 0.000000 0.000000 
0.000000 0.000000 0.000000 

-0.000000 -0.000000 0.000000 
0.000000 -0.000000 0.000000 
0.000000 0.000000 0.000000 

0.000000 0.000000 0.000000 
0.000000 0.000000 0.000000 
0.000000 0.000000 0.000000 

0.000000 0.000000 0.000000 
0.000000 0.000000 0.000000 
0.000000 0.000000 0.000000 

0.000000 -0.000000 0.000000 
0.000000 0.000000 0.000000 
0.000000 0.000000 0.000000 

0.000000 0.000000 0.000000 
0.000000 0.000000 0.000000 
0.000000 0.000000 0.000000 

0.000000 -0.000000 0.000000 
0.000000 0.000000 0.000000 
0.000000 0.000000 0.000000 

0.000000 -0.000000 0.000000 
0.000000 -0.000000 0.000000 
0.000000 0.000000 0.000000 

0.000000 -0.000000 0.000000 
0.000000 -0.000000 0.000000 
0.000000 0.000000 0.000000 

-0.000000 -0.000000 0.000000 
0.000000 -0.000000 0.000000 
0.000000 0.000000 0.000000 

-0.000000 0.000000 0.000000 
0.000000 -0.000000 0.000000 
0.000000 0.000000 0.000000 

-0.000000 0.000000 0.000000 
0.000000 0.000000 0.000000 
0.000000 0.000000 0.000000 

-0.000000 -0.000000 0.000000 
0.000000 -0.000000 0.000000 
0.000000 0.000000 0.000000 

-0.000000 0.000000 0.000000 
0.000000 -0.000000 0.000000 
0.000000 0.000000 0.000000 

0.000000 0.000000 0.000000 
0.000000 -0.000000 0.000000 
0.000000 0.000000 0.000000 

-0.000000 0.000000 0.000000 
0.000000 -0.000000 0.000000 
0.000000 0.000000 0.000000 

-0.000000 0.000000 0.000000 
0.000000 -0.000000 0.000000 
0.000000 0.000000 0.000000 

0.000000 0.000000 0.000000 
0.000000 0.000000 0.000000 
0.000000 0.000000 0.000000 

0.000000 0.000000 0.000000 
0.000000 -0.000000 0.000000 
0.000000 0.000000 0.000000 

0.000000 0.000000 0.000000 
0.000000 0.000000 0.000000 
0.000000 0.000000 0.000000 

0.000000 0.000000 0.000000 
0.000000 0.000000 0.000000 
0.000000 0.000000 0.000000 

0.000000 0.000000 0.000000 
0.000000 0.000000 0.000000 
0.000000 0.000000 0.000000 

0.000000 0.000000 0.000000 
0.000000 0.000000 0.000000 
0.000000 0.000000 0.000000 

0.000000 0.000000 0.000000 
0.000000 -0.000000 0.000000 
0.000000 0.000000 0.000000 

0.000000 0.000000 0.000000 
0.000000 0.000000 0.000000 
0.000000 0.000000 0.000000 

0.000000 0.000000 0.000000 
0.000000 -0.000000 0.000000 
0.000000 0.000000 0.000000 

-0.000000 0.000000 0.000000 
0.000000 -0.000000 0.000000 
0.000000 0.000000 0.000000 

-0.000000 -0.000000 0.000000 
0.000000 -0.000000 0.000000 
0.000000 0.000000 0.000000 

0.000000 -0.000000 0.000000 
0.000000 0.000000 0.000000 
0.000000 0.000000 0.000000 

-0.000000 0.000000 0.000000 
0.000000 -0.000000 0.000000 
0.000000 0.000000 0.000000 

0.000000 -0.000000 0.000000 
0.000000 0.000000 0.000000 
0.000000 0.000000 0.000000 

0.000000 -0.000000 0.000000 
0.000000 0.000000 0.000000 
0.000000 0.000000 0.000000 

0.000000 0.000000 0.000000 
0.000000 0.000000 0.000000 
0.000000 0.000000 0.000000 

0.000000 0.000000 0.000000 
0.000000 0.000000 0.000000 
0.000000 0.000000 0.000000 

-0.000000 0.000000 0.000000 
0.000000 -0.000000 0.000000 
0.000000 0.000000 0.000000 

0.000000 0.000000 0.000000 
0.000000 0.000000 0.000000 
0.000000 0.000000 0.000000 

-0.000000 0.000000 0.000000 
0.000000 -0.000000 0.000000 
0.000000 0.000000 0.000000 

-0.000000 -0.000000 0.000000 
0.000000 -0.000000 0.000000 
0.000000 0.000000 0.000000 

0.000000 -0.000000 0.000000 
0.000000 -0.000000 0.000000 
0.000000 0.000000 0.000000 

0.000000 -0.000000 0.000000 
0.000000 0.000000 0.000000 
0.000000 0.000000 0.000000 

-0.000000 0.000000 0.000000 
0.000000 -0.000000 0.000000 
0.000000 0.000000 0.000000 

0.000000 0.000000 0.000000 
0.000000 0.000000 0.000000 
0.000000 0.000000 0.000000 

-0.000000 0.000000 0.000000 
0.000000 -0.000000 0.000000 
0.000000 0.000000 0.000000 

0.000000 0.000000 0.000000 
0.000000 -0.000000 0.000000 
0.000000 0.000000 0.000000 

-0.000000 -0.000000 0.000000 
0.000000 -0.000000 0.000000 
0.000000 0.000000 0.000000 

-0.000000 0.000000 0.000000 
0.000000 -0.000000 0.000000 
0.000000 0.000000 0.000000 

0.000000 0.000000 0.000000 
0.000000 -0.000000 0.000000 
0.000000 0.000000 0.000000 

-0.000000 -0.000000 0.000000 
0.000000 -0.000000 0.000000 
0.000000 0.000000 0.000000 

-0.000000 -0.000000 0.000000 
0.000000 -0.000000 0.000000 
0.000000 0.000000 0.000000 

-0.000000 0.000000 0.000000 
0.000000 -0.000000 0.000000 
0.000000 0.000000 0.000000 

-0.000000 0.000000 0.000000 
0.000000 -0.000000 0.000000 
0.000000 0.000000 0.000000 

0.000000 0.000000 0.000000 
0.000000 0.000000 0.000000 
0.000000 0.000000 0.000000 

-0.000000 -0.000000 0.000000 
0.000000 -0.000000 0.000000 
0.000000 0.000000 0.000000 

-0.000000 0.000000 0.000000 
0.000000 -0.000000 0.000000 
0.000000 0.000000 0.000000 

-0.000000 0.000000 0.000000 
0.000000 0.000000 0.000000 
0.000000 0.000000 0.000000 

-0.000000 -0.000000 0.000000 
0.000000 -0.000000 0.000000 
0.000000 0.000000 0.000000 

-0.000000 -0.000000 0.000000 
0.000000 0.000000 0.000000 
0.000000 0.000000 0.000000 

-0.000000 -0.000000 0.000000 
0.000000 -0.000000 0.000000 
0.000000 0.000000 0.000000 

-0.000000 0.000000 0.000000 
0.000000 -0.000000 0.000000 
0.000000 0.000000 0.000000 

-0.000000 -0.000000 0.000000 
0.000000 -0.000000 0.000000 
0.000000 0.000000 0.000000 

0.000000 -0.000000 0.000000 
0.000000 0.000000 0.000000 
0.000000 0.000000 0.000000 

-0.000000 -0.000000 0.000000 
0.000000 -0.000000 0.000000 
0.000000 0.000000 0.000000 

0.000000 0.000000 0.000000 
0.000000 0.000000 0.000000 
0.000000 0.000000 0.000000 

-0.000000 0.000000 0.000000 
0.000000 -0.000000 0.000000 
0.000000 0.000000 0.000000 

0.000000 -0.000000 0.000000 
0.000000 0.000000 0.000000 
0.000000 0.000000 0.000000 

-0.000000 -0.000000 0.000000 
0.000000 -0.000000 0.000000 
0.000000 0.000000 0.000000 

0.000000 0.000000 0.000000 
0.000000 0.000000 0.000000 
0.000000 0.000000 0.000000 

-0.000000 0.000000 0.000000 
0.000000 -0.000000 0.000000 
0.000000 0.000000 0.000000 

-0.000000 0.000000 0.000000 
0.000000 -0.000000 0.000000 
0.000000 0.000000 0.000000 

0.000000 0.000000 0.000000 
0.000000 0.000000 0.000000 
0.000000 0.000000 0.000000 

-0.000000 0.000000 0.000000 
0.000000 -0.000000 0.000000 
0.000000 0.000000 0.000000 

-0.000000 -0.000000 0.000000 
0.000000 -0.000000 0.000000 
0.000000 0.000000 0.000000 

-0.000000 -0.000000 0.000000 
0.000000 0.000000 0.000000 
0.000000 0.000000 0.000000 

-0.000000 -0.000000 0.000000 
0.000000 -0.000000 0.000000 
0.000000 0.000000 0.000000 

-0.000000 -0.000000 0.000000 
0.000000 -0.000000 0.000000 
0.000000 0.000000 0.000000 

0.000000 0.000000 0.000000 
0.000000 0.000000 0.000000 
0.000000 0.000000 0.000000 

0.000000 -0.000000 0.000000 
0.000000 -0.000000 0.000000 
0.000000 0.000000 0.000000 

-0.000000 -0.000000 0.000000 
0.000000 -0.000000 0.000000 
0.000000 0.000000 0.000000 

0.000000 0.000000 0.000000 
0.000000 0.000000 0.000000 
0.000000 0.000000 0.000000 

-0.000000 -0.000000 0.000000 
0.000000 -0.000000 0.000000 
0.000000 0.000000 0.000000 

-0.000000 -0.000000 0.000000 
0.000000 -0.000000 0.000000 
0.000000 0.000000 0.000000 

-0.000000 0.000000 0.000000 
0.000000 -0.000000 0.000000 
0.000000 0.000000 0.000000 

0.000000 -0.000000 0.000000 
0.000000 0.000000 0.000000 
0.000000 0.000000 0.000000 

-0.000000 -0.000000 0.000000 
0.000000 -0.000000 0.000000 
0.000000 0.000000 0.000000 

-0.000000 -0.000000 0.000000 
0.000000 -0.000000 0.000000 
0.000000 0.000000 0.000000 

-0.000000 0.000000 0.000000 
0.000000 -0.000000 0.000000 
0.000000 0.000000 0.000000 

-0.000000 0.000000 0.000000 
0.000000 -0.000000 0.000000 
0.000000 0.000000 0.000000 

-0.000000 -0.000000 0.000000 
0.000000 -0.000000 0.000000 
0.000000 0.000000 0.000000 

0.000000 -0.000000 0.000000 
0.000000 0.000000 0.000000 
0.000000 0.000000 0.000000 

0.000000 0.000000 0.000000 
0.000000 0.000000 0.000000 
0.000000 0.000000 0.000000 

-0.000000 0.000000 0.000000 
0.000000 -0.000000 0.000000 
0.000000 0.000000 0.000000 

0.000000 -0.000000 0.000000 
0.000000 0.000000 0.000000 
0.000000 0.000000 0.000000 

-0.000000 -0.000000 0.000000 
0.000000 -0.000000 0.000000 
0.000000 0.000000 0.000000 

-0.000000 -0.000000 0.000000 
0.000000 0.000000 0.000000 
0.000000 0.000000 0.000000 

0.000000 0.000000 0.000000 
0.000000 -0.000000 0.000000 
0.000000 0.000000 0.000000 

0.000000 0.000000 0.000000 
0.000000 0.000000 0.000000 
0.000000 0.000000 0.000000 

-0.000000 0.000000 0.000000 
0.000000 -0.000000 0.000000 
0.000000 0.000000 0.000000 

-0.000000 -0.000000 0.000000 
0.000000 -0.000000 0.000000 
0.000000 0.000000 0.000000 

0.000000 0.000000 0.000000 
0.000000 0.000000 0.000000 
0.000000 0.000000 0.000000 

-0.000000 -0.000000 0.000000 
0.000000 -0.000000 0.000000 
0.000000 0.000000 0.000000 

-0.000000 -0.000000 0.000000 
0.000000 -0.000000 0.000000 
0.000000 0.000000 0.000000 

0.000000 -0.000000 0.000000 
0.000000 0.000000 0.000000 
0.000000 0.000000 0.000000 

-0.000000 0.000000 0.000000 
0.000000 -0.000000 0.000000 
0.000000 0.000000 0.000000 

0.000000 0.000000 0.000000 
0.000000 0.000000 0.000000 
0.000000 0.000000 0.000000 

-0.000000 -0.000000 0.000000 
0.000000 -0.000000 0.000000 
0.000000 0.000000 0.000000 

0.000000 -0.000000 0.000000 
0.000000 0.000000 0.000000 
0.000000 0.000000 0.000000 

-0.000000 0.000000 0.000000 
0.000000 -0.000000 0.000000 
0.000000 0.000000 0.000000 

-0.000000 -0.000000 0.000000 
0.000000 -0.000000 0.000000 
0.000000 0.000000 0.000000 

0.000000 0.000000 0.000000 
0.000000 0.000000 0.000000 
0.000000 0.000000 0.000000 

0.000000 -0.000000 0.000000 
0.000000 0.000000 0.000000 
0.000000 0.000000 0.000000 

-0.000000 -0.000000 0.000000 
0.000000 0.000000 0.000000 
0.000000 0.000000 0.000000 

0.000000 0.000000 0.000000 
0.000000 0.000000 0.000000 
0.000000 0.000000 0.000000 

0.000000 0.000000 0.000000 
0.000000 0.000000 0.000000 
0.000000 0.000000 0.000000 

0.000000 0.000000 0.000000 
0.000000 0.000000 0.000000 
0.000000 0.000000 0.000000 

-0.000000 -0.000000 0.000000 
0.000000 -0.000000 0.000000 
0.000000 0.000000 0.000000 

0.000000 -0.000000 0.000000 
0.000000 0.000000 0.000000 
0.000000 0.000000 0.000000 

-0.000000 0.000000 0.000000 
0.000000 -0.000000 0.000000 
0.000000 0.000000 0.000000 

-0.000000 0.000000 0.000000 
0.000000 -0.000000 0.000000 
0.000000 0.000000 0.000000 

0.000000 -0.000000 0.000000 
0.000000 0.000000 0.000000 
0.000000 0.000000 0.000000 

0.000000 0.000000 0.000000 
0.000000 0.000000 0.000000 
0.000000 0.000000 0.000000 

0.000000 0.000000 0.000000 
0.000000 -0.000000 0.000000 
0.000000 0.000000 0.000000 

0.000000 -0.000000 0.000000 
0.000000 0.000000 0.000000 
0.000000 0.000000 0.000000 

0.000000 -0.000000 0.000000 
0.000000 0.000000 0.000000 
0.000000 0.000000 0.000000 

0.000000 -0.000000 0.000000 
0.000000 -0.000000 0.000000 
0.000000 0.000000 0.000000 

0.000000 0.000000 0.000000 
0.000000 0.000000 0.000000 
0.000000 0.000000 0.000000 

0.000000 -0.000000 0.000000 
0.000000 0.000000 0.000000 
0.000000 0.000000 0.000000 

0.000000 -0.000000 0.000000 
0.000000 0.000000 0.000000 
0.000000 0.000000 0.000000 

0.000000 -0.000000 0.000000 
0.000000 0.000000 0.000000 
0.000000 0.000000 0.000000 

0.000000 -0.000000 0.000000 
0.000000 0.000000 0.000000 
0.000000 0.000000 0.000000 

-0.000000 0.000000 0.000000 
0.000000 -0.000000 0.000000 
0.000000 0.000000 0.000000 

-0.000000 0.000000 0.000000 
0.000000 -0.000000 0.000000 
0.000000 0.000000 0.000000 

-0.000000 0.000000 0.000000 
0.000000 -0.000000 0.000000 
0.000000 0.000000 0.000000 

-0.000000 -0.000000 0.000000 
0.000000 0.000000 0.000000 
0.000000 0.000000 0.000000 

0.000000 -0.000000 0.000000 
0.000000 0.000000 0.000000 
0.000000 0.000000 0.000000 

0.000000 -0.000000 0.000000 
0.000000 0.000000 0.000000 
0.000000 0.000000 0.000000 

0.000000 0.000000 0.000000 
0.000000 -0.000000 0.000000 
0.000000 0.000000 0.000000 

TENSORS STRAIN float 
0.000000 -0.000000 0.000000 
0.000000 0.000000 0.000000 
0.000000 0.000000 0.000000 

-0.000000 0.000000 0.000000 
0.000000 0.000000 0.000000 
0.000000 0.000000 0.000000 

0.000000 -0.000000 0.000000 
0.000000 -0.000000 0.000000 
0.000000 0.000000 0.000000 

0.000000 0.000000 0.000000 
0.000000 -0.000000 0.000000 
0.000000 0.000000 0.000000 

-0.000000 -0.000000 0.000000 
0.000000 0.000000 0.000000 
0.000000 0.000000 0.000000 

-0.000000 -0.000000 0.000000 
0.000000 0.000000 0.000000 
0.000000 0.000000 0.000000 

-0.000000 -0.000000 0.000000 
0.000000 -0.000000 0.000000 
0.000000 0.000000 0.000000 

0.000000 -0.000000 0.000000 
0.000000 0.000000 0.000000 
0.000000 0.000000 0.000000 

0.000000 0.000000 0.000000 
0.000000 -0.000000 0.000000 
0.000000 0.000000 0.000000 

-0.000000 0.000000 0.000000 
0.000000 0.000000 0.000000 
0.000000 0.000000 0.000000 

-0.000000 -0.000000 0.000000 
0.000000 0.000000 0.000000 
0.000000 0.000000 0.000000 

-0.000000 0.000000 0.000000 
0.000000 -0.000000 0.000000 
0.000000 0.000000 0.000000 

-0.000000 -0.000000 0.000000 
0.000000 0.000000 0.000000 
0.000000 0.000000 0.000000 

-0.000000 -0.000000 0.000000 
0.000000 0.000000 0.000000 
0.000000 0.000000 0.000000 

0.000000 -0.000000 0.000000 
0.000000 -0.000000 0.000000 
0.000000 0.000000 0.000000 

0.000000 0.000000 0.000000 
0.000000 0.000000 0.000000 
0.000000 0.000000 0.000000 

-0.000000 -0.000000 0.000000 
0.000000 0.000000 0.000000 
0.000000 0.000000 0.000000 

-0.000000 -0.000000 0.000000 
0.000000 -0.000000 0.000000 
0.000000 0.000000 0.000000 

-0.000000 -0.000000 0.000000 
0.000000 0.000000 0.000000 
0.000000 0.000000 0.000000 

-0.000000 -0.000000 0.000000 
0.000000 -0.000000 0.000000 
0.000000 0.000000 0.000000 

-0.000000 -0.000000 0.000000 
0.000000 0.000000 0.000000 
0.000000 0.000000 0.000000 

-0.000000 -0.000000 0.000000 
0.000000 0.000000 0.000000 
0.000000 0.000000 0.000000 

0.000000 -0.000000 0.000000 
0.000000 -0.000000 0.000000 
0.000000 0.000000 0.000000 

-0.000000 -0.000000 0.000000 
0.000000 -0.000000 0.000000 
0.000000 0.000000 0.000000 

-0.000000 -0.000000 0.000000 
0.000000 0.000000 0.000000 
0.000000 0.000000 0.000000 

-0.000000 0.000000 0.000000 
0.000000 0.000000 0.000000 
0.000000 0.000000 0.000000 

0.000000 0.000000 0.000000 
0.000000 0.000000 0.000000 
0.000000 0.000000 0.000000 

0.000000 -0.000000 0.000000 
0.000000 0.000000 0.000000 
0.000000 0.000000 0.000000 

0.000000 -0.000000 0.000000 
0.000000 -0.000000 0.000000 
0.000000 0.000000 0.000000 

-0.000000 0.000000 0.000000 
0.000000 -0.000000 0.000000 
0.000000 0.000000 0.000000 

0.000000 -0.000000 0.000000 
0.000000 -0.000000 0.000000 
0.000000 0.000000 0.000000 

-0.000000 -0.000000 0.000000 
0.000000 -0.000000 0.000000 
0.000000 0.000000 0.000000 

-0.000000 -0.000000 0.000000 
0.000000 0.000000 0.000000 
0.000000 0.000000 0.000000 

-0.000000 -0.000000 0.000000 
0.000000 0.000000 0.000000 
0.000000 0.000000 0.000000 

-0.000000 0.000000 0.000000 
0.000000 -0.000000 0.000000 
0.000000 0.000000 0.000000 

-0.000000 0.000000 0.000000 
0.000000 0.000000 0.000000 
0.000000 0.000000 0.000000 

-0.000000 -0.000000 0.000000 
0.000000 0.000000 0.000000 
0.000000 0.000000 0.000000 

-0.000000 0.000000 0.000000 
0.000000 0.000000 0.000000 
0.000000 0.000000 0.000000 

-0.000000 -0.000000 0.000000 
0.000000 0.000000 0.000000 
0.000000 0.000000 0.000000 

-0.000000 -0.000000 0.000000 
0.000000 0.000000 0.000000 
0.000000 0.000000 0.000000 

-0.000000 -0.000000 0.000000 
0.000000 0.000000 0.000000 
0.000000 0.000000 0.000000 

0.000000 0.000000 0.000000 
0.000000 0.000000 0.000000 
0.000000 0.000000 0.000000 

0.000000 0.000000 0.000000 
0.000000 0.000000 0.000000 
0.000000 0.000000 0.000000 

0.000000 -0.000000 0.000000 
0.000000 0.000000 0.000000 
0.000000 0.000000 0.000000 

0.000000 0.000000 0.000000 
0.000000 0.000000 0.000000 
0.000000 0.000000 0.000000 

0.000000 -0.000000 0.000000 
0.000000 0.000000 0.000000 
0.000000 0.000000 0.000000 

0.000000 -0.000000 0.000000 
0.000000 -0.000000 0.000000 
0.000000 0.000000 0.000000 

0.000000 -0.000000 0.000000 
0.000000 -0.000000 0.000000 
0.000000 0.000000 0.000000 

-0.000000 -0.000000 0.000000 
0.000000 -0.000000 0.000000 
0.000000 0.000000 0.000000 

-0.000000 0.000000 0.000000 
0.000000 -0.000000 0.000000 
0.000000 0.000000 0.000000 

-0.000000 0.000000 0.000000 
0.000000 0.000000 0.000000 
0.000000 0.000000 0.000000 

-0.000000 -0.000000 0.000000 
0.000000 -0.000000 0.000000 
0.000000 0.000000 0.000000 

0.000000 0.000000 0.000000 
0.000000 -0.000000 0.000000 
0.000000 0.000000 0.000000 

0.000000 0.000000 0.000000 
0.000000 -0.000000 0.000000 
0.000000 0.000000 0.000000 

0.000000 0.000000 0.000000 
0.000000 -0.000000 0.000000 
0.000000 0.000000 0.000000 

0.000000 0.000000 0.000000 
0.000000 -0.000000 0.000000 
0.000000 0.000000 0.000000 

0.000000 0.000000 0.000000 
0.000000 0.000000 0.000000 
0.000000 0.000000 0.000000 

0.000000 0.000000 0.000000 
0.000000 -0.000000 0.000000 
0.000000 0.000000 0.000000 

0.000000 0.000000 0.000000 
0.000000 0.000000 0.000000 
0.000000 0.000000 0.000000 

0.000000 0.000000 0.000000 
0.000000 0.000000 0.000000 
0.000000 0.000000 0.000000 

0.000000 0.000000 0.000000 
0.000000 0.000000 0.000000 
0.000000 0.000000 0.000000 

0.000000 0.000000 0.000000 
0.000000 0.000000 0.000000 
0.000000 0.000000 0.000000 

0.000000 0.000000 0.000000 
0.000000 -0.000000 0.000000 
0.000000 0.000000 0.000000 

0.000000 0.000000 0.000000 
0.000000 -0.000000 0.000000 
0.000000 0.000000 0.000000 

0.000000 0.000000 0.000000 
0.000000 -0.000000 0.000000 
0.000000 0.000000 0.000000 

0.000000 0.000000 0.000000 
0.000000 -0.000000 0.000000 
0.000000 0.000000 0.000000 

-0.000000 -0.000000 0.000000 
0.000000 -0.000000 0.000000 
0.000000 0.000000 0.000000 

0.000000 -0.000000 0.000000 
0.000000 0.000000 0.000000 
0.000000 0.000000 0.000000 

0.000000 0.000000 0.000000 
0.000000 -0.000000 0.000000 
0.000000 0.000000 0.000000 

0.000000 -0.000000 0.000000 
0.000000 0.000000 0.000000 
0.000000 0.000000 0.000000 

0.000000 -0.000000 0.000000 
0.000000 -0.000000 0.000000 
0.000000 0.000000 0.000000 

0.000000 0.000000 0.000000 
0.000000 0.000000 0.000000 
0.000000 0.000000 0.000000 

-0.000000 0.000000 0.000000 
0.000000 0.000000 0.000000 
0.000000 0.000000 0.000000 

-0.000000 0.000000 0.000000 
0.000000 -0.000000 0.000000 
0.000000 0.000000 0.000000 

-0.000000 0.000000 0.000000 
0.000000 0.000000 0.000000 
0.000000 0.000000 0.000000 

0.000000 0.000000 0.000000 
0.000000 -0.000000 0.000000 
0.000000 0.000000 0.000000 

0.000000 -0.000000 0.000000 
0.000000 -0.000000 0.000000 
0.000000 0.000000 0.000000 

0.000000 -0.000000 0.000000 
0.000000 -0.000000 0.000000 
0.000000 0.000000 0.000000 

0.000000 -0.000000 0.000000 
0.000000 -0.000000 0.000000 
0.000000 0.000000 0.000000 

0.000000 0.000000 0.000000 
0.000000 -0.000000 0.000000 
0.000000 0.000000 0.000000 

0.000000 0.000000 0.000000 
0.000000 0.000000 0.000000 
0.000000 0.000000 0.000000 

-0.000000 0.000000 0.000000 
0.000000 -0.000000 0.000000 
0.000000 0.000000 0.000000 

0.000000 0.000000 0.000000 
0.000000 -0.000000 0.000000 
0.000000 0.000000 0.000000 

0.000000 -0.000000 0.000000 
0.000000 -0.000000 0.000000 
0.000000 0.000000 0.000000 

-0.000000 0.000000 0.000000 
0.000000 -0.000000 0.000000 
0.000000 0.000000 0.000000 

0.000000 0.000000 0.000000 
0.000000 -0.000000 0.000000 
0.000000 0.000000 0.000000 

-0.000000 -0.000000 0.000000 
0.000000 0.000000 0.000000 
0.000000 0.000000 0.000000 

-0.000000 -0.000000 0.000000 
0.000000 -0.000000 0.000000 
0.000000 0.000000 0.000000 

-0.000000 0.000000 0.000000 
0.000000 -0.000000 0.000000 
0.000000 0.000000 0.000000 

0.000000 0.000000 0.000000 
0.000000 -0.000000 0.000000 
0.000000 0.000000 0.000000 

0.000000 0.000000 0.000000 
0.000000 0.000000 0.000000 
0.000000 0.000000 0.000000 

-0.000000 -0.000000 0.000000 
0.000000 -0.000000 0.000000 
0.000000 0.000000 0.000000 

-0.000000 0.000000 0.000000 
0.000000 -0.000000 0.000000 
0.000000 0.000000 0.000000 

-0.000000 0.000000 0.000000 
0.000000 0.000000 0.000000 
0.000000 0.000000 0.000000 

-0.000000 -0.000000 0.000000 
0.000000 -0.000000 0.000000 
0.000000 0.000000 0.000000 

-0.000000 -0.000000 0.000000 
0.000000 0.000000 0.000000 
0.000000 0.000000 0.000000 

-0.000000 -0.000000 0.000000 
0.000000 -0.000000 0.000000 
0.000000 0.000000 0.000000 

-0.000000 0.000000 0.000000 
0.000000 -0.000000 0.000000 
0.000000 0.000000 0.000000 

-0.000000 -0.000000 0.000000 
0.000000 -0.000000 0.000000 
0.000000 0.000000 0.000000 

-0.000000 -0.000000 0.000000 
0.000000 0.000000 0.000000 
0.000000 0.000000 0.000000 

-0.000000 -0.000000 0.000000 
0.000000 -0.000000 0.000000 
0.000000 0.000000 0.000000 

0.000000 0.000000 0.000000 
0.000000 0.000000 0.000000 
0.000000 0.000000 0.000000 

0.000000 0.000000 0.000000 
0.000000 -0.000000 0.000000 
0.000000 0.000000 0.000000 

-0.000000 -0.000000 0.000000 
0.000000 0.000000 0.000000 
0.000000 0.000000 0.000000 

0.000000 -0.000000 0.000000 
0.000000 -0.000000 0.000000 
0.000000 0.000000 0.000000 

0.000000 0.000000 0.000000 
0.000000 0.000000 0.000000 
0.000000 0.000000 0.000000 

-0.000000 0.000000 0.000000 
0.000000 -0.000000 0.000000 
0.000000 0.000000 0.000000 

-0.000000 0.000000 0.000000 
0.000000 0.000000 0.000000 
0.000000 0.000000 0.000000 

-0.000000 0.000000 0.000000 
0.000000 0.000000 0.000000 
0.000000 0.000000 0.000000 

-0.000000 0.000000 0.000000 
0.000000 -0.000000 0.000000 
0.000000 0.000000 0.000000 

-0.000000 -0.000000 0.000000 
0.000000 -0.000000 0.000000 
0.000000 0.000000 0.000000 

-0.000000 -0.000000 0.000000 
0.000000 0.000000 0.000000 
0.000000 0.000000 0.000000 

-0.000000 -0.000000 0.000000 
0.000000 -0.000000 0.000000 
0.000000 0.000000 0.000000 

0.000000 -0.000000 0.000000 
0.000000 -0.000000 0.000000 
0.000000 0.000000 0.000000 

0.000000 0.000000 0.000000 
0.000000 0.000000 0.000000 
0.000000 0.000000 0.000000 

0.000000 -0.000000 0.000000 
0.000000 -0.000000 0.000000 
0.000000 0.000000 0.000000 

-0.000000 -0.000000 0.000000 
0.000000 -0.000000 0.000000 
0.000000 0.000000 0.000000 

0.000000 0.000000 0.000000 
0.000000 0.000000 0.000000 
0.000000 0.000000 0.000000 

0.000000 -0.000000 0.000000 
0.000000 -0.000000 0.000000 
0.000000 0.000000 0.000000 

-0.000000 -0.000000 0.000000 
0.000000 -0.000000 0.000000 
0.000000 0.000000 0.000000 

0.000000 0.000000 0.000000 
0.000000 -0.000000 0.000000 
0.000000 0.000000 0.000000 

0.000000 -0.000000 0.000000 
0.000000 0.000000 0.000000 
0.000000 0.000000 0.000000 

0.000000 -0.000000 0.000000 
0.000000 -0.000000 0.000000 
0.000000 0.000000 0.000000 

0.000000 -0.000000 0.000000 
0.000000 -0.000000 0.000000 
0.000000 0.000000 0.000000 

-0.000000 0.000000 0.000000 
0.000000 -0.000000 0.000000 
0.000000 0.000000 0.000000 

-0.000000 0.000000 0.000000 
0.000000 -0.000000 0.000000 
0.000000 0.000000 0.000000 

-0.000000 -0.000000 0.000000 
0.000000 -0.000000 0.000000 
0.000000 0.000000 0.000000 

-0.000000 -0.000000 0.000000 
0.000000 0.000000 0.000000 
0.000000 0.000000 0.000000 

0.000000 0.000000 0.000000 
0.000000 0.000000 0.000000 
0.000000 0.000000 0.000000 

0.000000 0.000000 0.000000 
0.000000 -0.000000 0.000000 
0.000000 0.000000 0.000000 

0.000000 -0.000000 0.000000 
0.000000 0.000000 0.000000 
0.000000 0.000000 0.000000 

-0.000000 -0.000000 0.000000 
0.000000 -0.000000 0.000000 
0.000000 0.000000 0.000000 

-0.000000 -0.000000 0.000000 
0.000000 0.000000 0.000000 
0.000000 0.000000 0.000000 

0.000000 0.000000 0.000000 
0.000000 -0.000000 0.000000 
0.000000 0.000000 0.000000 

0.000000 0.000000 0.000000 
0.000000 0.000000 0.000000 
0.000000 0.000000 0.000000 

-0.000000 0.000000 0.000000 
0.000000 -0.000000 0.000000 
0.000000 0.000000 0.000000 

0.000000 -0.000000 0.000000 
0.000000 -0.000000 0.000000 
0.000000 0.000000 0.000000 

-0.000000 0.000000 0.000000 
0.000000 0.000000 0.000000 
0.000000 0.000000 0.000000 

-0.000000 -0.000000 0.000000 
0.000000 -0.000000 0.000000 
0.000000 0.000000 0.000000 

0.000000 -0.000000 0.000000 
0.000000 -0.000000 0.000000 
0.000000 0.000000 0.000000 

0.000000 -0.000000 0.000000 
0.000000 0.000000 0.000000 
0.000000 0.000000 0.000000 

0.000000 0.000000 0.000000 
0.000000 -0.000000 0.000000 
0.000000 0.000000 0.000000 

0.000000 0.000000 0.000000 
0.000000 0.000000 0.000000 
0.000000 0.000000 0.000000 

-0.000000 -0.000000 0.000000 
0.000000 0.000000 0.000000 
0.000000 0.000000 0.000000 

0.000000 -0.000000 0.000000 
0.000000 0.000000 0.000000 
0.000000 0.000000 0.000000 

-0.000000 0.000000 0.000000 
0.000000 -0.000000 0.000000 
0.000000 0.000000 0.000000 

-0.000000 -0.000000 0.000000 
0.000000 -0.000000 0.000000 
0.000000 0.000000 0.000000 

-0.000000 0.000000 0.000000 
0.000000 0.000000 0.000000 
0.000000 0.000000 0.000000 

-0.000000 -0.000000 0.000000 
0.000000 0.000000 0.000000 
0.000000 0.000000 0.000000 

-0.000000 -0.000000 0.000000 
0.000000 0.000000 0.000000 
0.000000 0.000000 0.000000 

0.000000 0.000000 0.000000 
0.000000 0.000000 0.000000 
0.000000 0.000000 0.000000 

0.000000 0.000000 0.000000 
0.000000 0.000000 0.000000 
0.000000 0.000000 0.000000 

0.000000 0.000000 0.000000 
0.000000 0.000000 0.000000 
0.000000 0.000000 0.000000 

0.000000 -0.000000 0.000000 
0.000000 -0.000000 0.000000 
0.000000 0.000000 0.000000 

0.000000 -0.000000 0.000000 
0.000000 0.000000 0.000000 
0.000000 0.000000 0.000000 

0.000000 0.000000 0.000000 
0.000000 -0.000000 0.000000 
0.000000 0.000000 0.000000 

0.000000 0.000000 0.000000 
0.000000 -0.000000 0.000000 
0.000000 0.000000 0.000000 

0.000000 -0.000000 0.000000 
0.000000 -0.000000 0.000000 
0.000000 0.000000 0.000000 

0.000000 0.000000 0.000000 
0.000000 0.000000 0.000000 
0.000000 0.000000 0.000000 

0.000000 0.000000 0.000000 
0.000000 -0.000000 0.000000 
0.000000 0.000000 0.000000 

0.000000 -0.000000 0.000000 
0.000000 0.000000 0.000000 
0.000000 0.000000 0.000000 

-0.000000 -0.000000 0.000000 
0.000000 0.000000 0.000000 
0.000000 0.000000 0.000000 

0.000000 -0.000000 0.000000 
0.000000 -0.000000 0.000000 
0.000000 0.000000 0.000000 

0.000000 0.000000 0.000000 
0.000000 0.000000 0.000000 
0.000000 0.000000 0.000000 

0.000000 -0.000000 0.000000 
0.000000 0.000000 0.000000 
0.000000 0.000000 0.000000 

0.000000 -0.000000 0.000000 
0.000000 0.000000 0.000000 
0.000000 0.000000 0.000000 

-0.000000 -0.000000 0.000000 
0.000000 0.000000 0.000000 
0.000000 0.000000 0.000000 

-0.000000 -0.000000 0.000000 
0.000000 0.000000 0.000000 
0.000000 0.000000 0.000000 

-0.000000 0.000000 0.000000 
0.000000 -0.000000 0.000000 
0.000000 0.000000 0.000000 

-0.000000 0.000000 0.000000 
0.000000 -0.000000 0.000000 
0.000000 0.000000 0.000000 

-0.000000 0.000000 0.000000 
0.000000 0.000000 0.000000 
0.000000 0.000000 0.000000 

-0.000000 -0.000000 0.000000 
0.000000 0.000000 0.000000 
0.000000 0.000000 0.000000 

0.000000 -0.000000 0.000000 
0.000000 -0.000000 0.000000 
0.000000 0.000000 0.000000 

0.000000 -0.000000 0.000000 
0.000000 0.000000 0.000000 
0.000000 0.000000 0.000000 

0.000000 0.000000 0.000000 
0.000000 -0.000000 0.000000 
0.000000 0.000000 0.000000 

