# vtk DataFile Version 3.0 
vtk output 
ASCII 
DATASET UNSTRUCTURED_GRID 
POINTS 175 float 
-0.026061 -0.619558 0.000000 
-0.106992 -0.551502 0.000000 
-0.054870 -0.559735 0.000000 
-0.028809 -0.513851 0.000000 
-0.186430 -0.487427 0.000000 
-0.137056 -0.489953 0.000000 
-0.114311 -0.436306 0.000000 
-0.058186 -0.451971 0.000000 
-0.029377 -0.411794 0.000000 
-0.265318 -0.424271 0.000000 
-0.217198 -0.425071 0.000000 
-0.196633 -0.367774 0.000000 
-0.143120 -0.376483 0.000000 
-0.116563 -0.329214 0.000000 
-0.058945 -0.348860 0.000000 
-0.029568 -0.310740 0.000000 
-0.344206 -0.361115 0.000000 
-0.296791 -0.361108 0.000000 
-0.278030 -0.301165 0.000000 
-0.225992 -0.307032 0.000000 
-0.201664 -0.254915 0.000000 
-0.145749 -0.268389 0.000000 
-0.117890 -0.224046 0.000000 
-0.059328 -0.246752 0.000000 
-0.029759 -0.209686 0.000000 
-0.058559 -0.660308 0.000000 
-0.162226 -0.681151 0.000000 
-0.123292 -0.645533 0.000000 
-0.142917 -0.596550 0.000000 
-0.261851 -0.703308 0.000000 
-0.229092 -0.666280 0.000000 
-0.256854 -0.615049 0.000000 
-0.209613 -0.580936 0.000000 
-0.223062 -0.533362 0.000000 
-0.360414 -0.725608 0.000000 
-0.329787 -0.688485 0.000000 
-0.361761 -0.636683 0.000000 
-0.321587 -0.600274 0.000000 
-0.341985 -0.550040 0.000000 
-0.290702 -0.517241 0.000000 
-0.302189 -0.470506 0.000000 
-0.458977 -0.747908 0.000000 
-0.429420 -0.710833 0.000000 
-0.464588 -0.658791 0.000000 
-0.427556 -0.621764 0.000000 
-0.453135 -0.570249 0.000000 
-0.407738 -0.534934 0.000000 
-0.425037 -0.485506 0.000000 
-0.370772 -0.453877 0.000000 
-0.381315 -0.407649 0.000000 
-0.046960 -0.711124 0.000000 
-0.095301 -0.805170 0.000000 
-0.098873 -0.752522 0.000000 
-0.149405 -0.737325 0.000000 
-0.140093 -0.896874 0.000000 
-0.148617 -0.848175 0.000000 
-0.205981 -0.837938 0.000000 
-0.203197 -0.779735 0.000000 
-0.248777 -0.760588 0.000000 
-0.184111 -0.987837 0.000000 
-0.194039 -0.940746 0.000000 
-0.254475 -0.933447 0.000000 
-0.257893 -0.879337 0.000000 
-0.309886 -0.863964 0.000000 
-0.303554 -0.803419 0.000000 
-0.347255 -0.783261 0.000000 
-0.228129 -1.078801 0.000000 
-0.238687 -1.032577 0.000000 
-0.301302 -1.027624 0.000000 
-0.307162 -0.975586 0.000000 
-0.363386 -0.963465 0.000000 
-0.362692 -0.905953 0.000000 
-0.412122 -0.888660 0.000000 
-0.403017 -0.826513 0.000000 
-0.445733 -0.805935 0.000000 
-0.000000 -0.733739 0.000000 
0.043388 -0.830169 0.000000 
-0.000000 -0.800137 0.000000 
-0.043388 -0.830169 0.000000 
0.087158 -0.922366 0.000000 
0.043769 -0.898667 0.000000 
-0.000000 -0.937133 0.000000 
-0.043769 -0.898667 0.000000 
-0.087158 -0.922366 0.000000 
0.130831 -1.013496 0.000000 
0.087824 -0.991897 0.000000 
0.044436 -1.034596 0.000000 
-0.000000 -1.003531 0.000000 
-0.044436 -1.034596 0.000000 
-0.087824 -0.991897 0.000000 
-0.130831 -1.013496 0.000000 
0.174505 -1.104625 0.000000 
0.131782 -1.084059 0.000000 
0.088871 -1.129926 0.000000 
0.044532 -1.102062 0.000000 
-0.000000 -1.138462 0.000000 
-0.044532 -1.102062 0.000000 
-0.088871 -1.129926 0.000000 
-0.131782 -1.084059 0.000000 
-0.174505 -1.104625 0.000000 
0.046960 -0.711124 0.000000 
0.149405 -0.737325 0.000000 
0.098873 -0.752522 0.000000 
0.095301 -0.805170 0.000000 
0.248777 -0.760588 0.000000 
0.203197 -0.779735 0.000000 
0.205981 -0.837938 0.000000 
0.148617 -0.848175 0.000000 
0.140093 -0.896874 0.000000 
0.347255 -0.783261 0.000000 
0.303554 -0.803419 0.000000 
0.309886 -0.863964 0.000000 
0.257893 -0.879337 0.000000 
0.254475 -0.933447 0.000000 
0.194039 -0.940746 0.000000 
0.184111 -0.987837 0.000000 
0.445733 -0.805935 0.000000 
0.403017 -0.826513 0.000000 
0.412122 -0.888660 0.000000 
0.362692 -0.905953 0.000000 
0.363386 -0.963465 0.000000 
0.307162 -0.975586 0.000000 
0.301302 -1.027624 0.000000 
0.238687 -1.032577 0.000000 
0.228129 -1.078801 0.000000 
0.058559 -0.660308 0.000000 
0.142917 -0.596550 0.000000 
0.123292 -0.645533 0.000000 
0.162226 -0.681151 0.000000 
0.223062 -0.533362 0.000000 
0.209613 -0.580936 0.000000 
0.256854 -0.615049 0.000000 
0.229092 -0.666280 0.000000 
0.261851 -0.703308 0.000000 
0.302189 -0.470506 0.000000 
0.290702 -0.517241 0.000000 
0.341985 -0.550040 0.000000 
0.321587 -0.600274 0.000000 
0.361761 -0.636683 0.000000 
0.329787 -0.688485 0.000000 
0.360414 -0.725608 0.000000 
0.381315 -0.407649 0.000000 
0.370772 -0.453877 0.000000 
0.425037 -0.485506 0.000000 
0.407738 -0.534934 0.000000 
0.453135 -0.570249 0.000000 
0.427556 -0.621764 0.000000 
0.464588 -0.658791 0.000000 
0.429420 -0.710833 0.000000 
0.458977 -0.747908 0.000000 
0.026061 -0.619558 0.000000 
0.028809 -0.513851 0.000000 
0.054870 -0.559735 0.000000 
0.106992 -0.551502 0.000000 
0.029377 -0.411794 0.000000 
0.058186 -0.451971 0.000000 
0.114311 -0.436306 0.000000 
0.137056 -0.489953 0.000000 
0.186430 -0.487427 0.000000 
0.029568 -0.310740 0.000000 
0.058945 -0.348860 0.000000 
0.116563 -0.329214 0.000000 
0.143120 -0.376483 0.000000 
0.196633 -0.367774 0.000000 
0.217198 -0.425071 0.000000 
0.265318 -0.424271 0.000000 
0.029759 -0.209686 0.000000 
0.059328 -0.246752 0.000000 
0.117890 -0.224046 0.000000 
0.145749 -0.268389 0.000000 
0.201664 -0.254915 0.000000 
0.225992 -0.307032 0.000000 
0.278030 -0.301165 0.000000 
0.296791 -0.361108 0.000000 
0.344206 -0.361115 0.000000 
CELLS 175 350 
1 0 
1 1 
1 2 
1 3 
1 4 
1 5 
1 6 
1 7 
1 8 
1 9 
1 10 
1 11 
1 12 
1 13 
1 14 
1 15 
1 16 
1 17 
1 18 
1 19 
1 20 
1 21 
1 22 
1 23 
1 24 
1 25 
1 26 
1 27 
1 28 
1 29 
1 30 
1 31 
1 32 
1 33 
1 34 
1 35 
1 36 
1 37 
1 38 
1 39 
1 40 
1 41 
1 42 
1 43 
1 44 
1 45 
1 46 
1 47 
1 48 
1 49 
1 50 
1 51 
1 52 
1 53 
1 54 
1 55 
1 56 
1 57 
1 58 
1 59 
1 60 
1 61 
1 62 
1 63 
1 64 
1 65 
1 66 
1 67 
1 68 
1 69 
1 70 
1 71 
1 72 
1 73 
1 74 
1 75 
1 76 
1 77 
1 78 
1 79 
1 80 
1 81 
1 82 
1 83 
1 84 
1 85 
1 86 
1 87 
1 88 
1 89 
1 90 
1 91 
1 92 
1 93 
1 94 
1 95 
1 96 
1 97 
1 98 
1 99 
1 100 
1 101 
1 102 
1 103 
1 104 
1 105 
1 106 
1 107 
1 108 
1 109 
1 110 
1 111 
1 112 
1 113 
1 114 
1 115 
1 116 
1 117 
1 118 
1 119 
1 120 
1 121 
1 122 
1 123 
1 124 
1 125 
1 126 
1 127 
1 128 
1 129 
1 130 
1 131 
1 132 
1 133 
1 134 
1 135 
1 136 
1 137 
1 138 
1 139 
1 140 
1 141 
1 142 
1 143 
1 144 
1 145 
1 146 
1 147 
1 148 
1 149 
1 150 
1 151 
1 152 
1 153 
1 154 
1 155 
1 156 
1 157 
1 158 
1 159 
1 160 
1 161 
1 162 
1 163 
1 164 
1 165 
1 166 
1 167 
1 168 
1 169 
1 170 
1 171 
1 172 
1 173 
1 174 
CELL_TYPES 175 
1 
1 
1 
1 
1 
1 
1 
1 
1 
1 
1 
1 
1 
1 
1 
1 
1 
1 
1 
1 
1 
1 
1 
1 
1 
1 
1 
1 
1 
1 
1 
1 
1 
1 
1 
1 
1 
1 
1 
1 
1 
1 
1 
1 
1 
1 
1 
1 
1 
1 
1 
1 
1 
1 
1 
1 
1 
1 
1 
1 
1 
1 
1 
1 
1 
1 
1 
1 
1 
1 
1 
1 
1 
1 
1 
1 
1 
1 
1 
1 
1 
1 
1 
1 
1 
1 
1 
1 
1 
1 
1 
1 
1 
1 
1 
1 
1 
1 
1 
1 
1 
1 
1 
1 
1 
1 
1 
1 
1 
1 
1 
1 
1 
1 
1 
1 
1 
1 
1 
1 
1 
1 
1 
1 
1 
1 
1 
1 
1 
1 
1 
1 
1 
1 
1 
1 
1 
1 
1 
1 
1 
1 
1 
1 
1 
1 
1 
1 
1 
1 
1 
1 
1 
1 
1 
1 
1 
1 
1 
1 
1 
1 
1 
1 
1 
1 
1 
1 
1 
1 
1 
1 
1 
1 
1 
POINT_DATA 175 
VECTORS X_GC float 
-0.026061 -0.619558 0.000000 
-0.106992 -0.551502 0.000000 
-0.054870 -0.559735 0.000000 
-0.028809 -0.513851 0.000000 
-0.186430 -0.487427 0.000000 
-0.137056 -0.489953 0.000000 
-0.114311 -0.436306 0.000000 
-0.058186 -0.451971 0.000000 
-0.029377 -0.411794 0.000000 
-0.265318 -0.424271 0.000000 
-0.217198 -0.425071 0.000000 
-0.196633 -0.367774 0.000000 
-0.143120 -0.376483 0.000000 
-0.116563 -0.329214 0.000000 
-0.058945 -0.348860 0.000000 
-0.029568 -0.310740 0.000000 
-0.344206 -0.361115 0.000000 
-0.296791 -0.361108 0.000000 
-0.278030 -0.301165 0.000000 
-0.225992 -0.307032 0.000000 
-0.201664 -0.254915 0.000000 
-0.145749 -0.268389 0.000000 
-0.117890 -0.224046 0.000000 
-0.059328 -0.246752 0.000000 
-0.029759 -0.209686 0.000000 
-0.058559 -0.660308 0.000000 
-0.162226 -0.681151 0.000000 
-0.123292 -0.645533 0.000000 
-0.142917 -0.596550 0.000000 
-0.261851 -0.703308 0.000000 
-0.229092 -0.666280 0.000000 
-0.256854 -0.615049 0.000000 
-0.209613 -0.580936 0.000000 
-0.223062 -0.533362 0.000000 
-0.360414 -0.725608 0.000000 
-0.329787 -0.688485 0.000000 
-0.361761 -0.636683 0.000000 
-0.321587 -0.600274 0.000000 
-0.341985 -0.550040 0.000000 
-0.290702 -0.517241 0.000000 
-0.302189 -0.470506 0.000000 
-0.458977 -0.747908 0.000000 
-0.429420 -0.710833 0.000000 
-0.464588 -0.658791 0.000000 
-0.427556 -0.621764 0.000000 
-0.453135 -0.570249 0.000000 
-0.407738 -0.534934 0.000000 
-0.425037 -0.485506 0.000000 
-0.370772 -0.453877 0.000000 
-0.381315 -0.407649 0.000000 
-0.046960 -0.711124 0.000000 
-0.095301 -0.805170 0.000000 
-0.098873 -0.752522 0.000000 
-0.149405 -0.737325 0.000000 
-0.140093 -0.896874 0.000000 
-0.148617 -0.848175 0.000000 
-0.205981 -0.837938 0.000000 
-0.203197 -0.779735 0.000000 
-0.248777 -0.760588 0.000000 
-0.184111 -0.987837 0.000000 
-0.194039 -0.940746 0.000000 
-0.254475 -0.933447 0.000000 
-0.257893 -0.879337 0.000000 
-0.309886 -0.863964 0.000000 
-0.303554 -0.803419 0.000000 
-0.347255 -0.783261 0.000000 
-0.228129 -1.078801 0.000000 
-0.238687 -1.032577 0.000000 
-0.301302 -1.027624 0.000000 
-0.307162 -0.975586 0.000000 
-0.363386 -0.963465 0.000000 
-0.362692 -0.905953 0.000000 
-0.412122 -0.888660 0.000000 
-0.403017 -0.826513 0.000000 
-0.445733 -0.805935 0.000000 
-0.000000 -0.733739 0.000000 
0.043388 -0.830169 0.000000 
-0.000000 -0.800137 0.000000 
-0.043388 -0.830169 0.000000 
0.087158 -0.922366 0.000000 
0.043769 -0.898667 0.000000 
-0.000000 -0.937133 0.000000 
-0.043769 -0.898667 0.000000 
-0.087158 -0.922366 0.000000 
0.130831 -1.013496 0.000000 
0.087824 -0.991897 0.000000 
0.044436 -1.034596 0.000000 
-0.000000 -1.003531 0.000000 
-0.044436 -1.034596 0.000000 
-0.087824 -0.991897 0.000000 
-0.130831 -1.013496 0.000000 
0.174505 -1.104625 0.000000 
0.131782 -1.084059 0.000000 
0.088871 -1.129926 0.000000 
0.044532 -1.102062 0.000000 
-0.000000 -1.138462 0.000000 
-0.044532 -1.102062 0.000000 
-0.088871 -1.129926 0.000000 
-0.131782 -1.084059 0.000000 
-0.174505 -1.104625 0.000000 
0.046960 -0.711124 0.000000 
0.149405 -0.737325 0.000000 
0.098873 -0.752522 0.000000 
0.095301 -0.805170 0.000000 
0.248777 -0.760588 0.000000 
0.203197 -0.779735 0.000000 
0.205981 -0.837938 0.000000 
0.148617 -0.848175 0.000000 
0.140093 -0.896874 0.000000 
0.347255 -0.783261 0.000000 
0.303554 -0.803419 0.000000 
0.309886 -0.863964 0.000000 
0.257893 -0.879337 0.000000 
0.254475 -0.933447 0.000000 
0.194039 -0.940746 0.000000 
0.184111 -0.987837 0.000000 
0.445733 -0.805935 0.000000 
0.403017 -0.826513 0.000000 
0.412122 -0.888660 0.000000 
0.362692 -0.905953 0.000000 
0.363386 -0.963465 0.000000 
0.307162 -0.975586 0.000000 
0.301302 -1.027624 0.000000 
0.238687 -1.032577 0.000000 
0.228129 -1.078801 0.000000 
0.058559 -0.660308 0.000000 
0.142917 -0.596550 0.000000 
0.123292 -0.645533 0.000000 
0.162226 -0.681151 0.000000 
0.223062 -0.533362 0.000000 
0.209613 -0.580936 0.000000 
0.256854 -0.615049 0.000000 
0.229092 -0.666280 0.000000 
0.261851 -0.703308 0.000000 
0.302189 -0.470506 0.000000 
0.290702 -0.517241 0.000000 
0.341985 -0.550040 0.000000 
0.321587 -0.600274 0.000000 
0.361761 -0.636683 0.000000 
0.329787 -0.688485 0.000000 
0.360414 -0.725608 0.000000 
0.381315 -0.407649 0.000000 
0.370772 -0.453877 0.000000 
0.425037 -0.485506 0.000000 
0.407738 -0.534934 0.000000 
0.453135 -0.570249 0.000000 
0.427556 -0.621764 0.000000 
0.464588 -0.658791 0.000000 
0.429420 -0.710833 0.000000 
0.458977 -0.747908 0.000000 
0.026061 -0.619558 0.000000 
0.028809 -0.513851 0.000000 
0.054870 -0.559735 0.000000 
0.106992 -0.551502 0.000000 
0.029377 -0.411794 0.000000 
0.058186 -0.451971 0.000000 
0.114311 -0.436306 0.000000 
0.137056 -0.489953 0.000000 
0.186430 -0.487427 0.000000 
0.029568 -0.310740 0.000000 
0.058945 -0.348860 0.000000 
0.116563 -0.329214 0.000000 
0.143120 -0.376483 0.000000 
0.196633 -0.367774 0.000000 
0.217198 -0.425071 0.000000 
0.265318 -0.424271 0.000000 
0.029759 -0.209686 0.000000 
0.059328 -0.246752 0.000000 
0.117890 -0.224046 0.000000 
0.145749 -0.268389 0.000000 
0.201664 -0.254915 0.000000 
0.225992 -0.307032 0.000000 
0.278030 -0.301165 0.000000 
0.296791 -0.361108 0.000000 
0.344206 -0.361115 0.000000 
VECTORS X_EC float 
0.338794 0.864030 0.000000 
-0.609100 -0.054719 0.000000 
0.713312 0.056422 0.000000 
0.374519 -0.563008 0.000000 
0.423588 -0.919738 0.000000 
-0.218274 -0.885634 0.000000 
-0.513962 0.390127 0.000000 
0.756418 0.601613 0.000000 
0.381900 0.059220 0.000000 
-0.550868 0.227659 0.000000 
0.823577 0.238454 0.000000 
0.556234 -0.535050 0.000000 
-0.139443 -0.417481 0.000000 
-0.484677 0.944394 0.000000 
0.766286 -0.790390 0.000000 
0.384386 0.694989 0.000000 
0.474677 -0.624944 0.000000 
-0.141715 -0.625041 0.000000 
-0.385608 0.565731 0.000000 
0.937896 0.644927 0.000000 
0.621631 -0.058653 0.000000 
-0.105264 0.123246 0.000000 
-0.467428 -0.475381 0.000000 
0.771260 -0.168852 0.000000 
0.386873 -0.669242 0.000000 
0.761262 -0.585836 0.000000 
0.108942 -0.304459 0.000000 
-0.397202 -0.785299 0.000000 
-0.142083 0.553426 0.000000 
-0.595936 -0.005349 0.000000 
0.978194 -0.505214 0.000000 
-0.660903 0.803160 0.000000 
0.724964 0.342640 0.000000 
0.899809 -0.299608 0.000000 
0.685384 0.295704 0.000000 
0.287229 -0.205455 0.000000 
0.702895 -0.904783 0.000000 
0.180633 0.603698 0.000000 
0.445811 -0.074462 0.000000 
-0.220880 -0.517248 0.000000 
-0.071546 0.851827 0.000000 
-0.033296 0.596756 0.000000 
-0.417537 0.096246 0.000000 
0.039645 -0.606316 0.000000 
-0.441768 0.893813 0.000000 
-0.109248 0.198362 0.000000 
-0.699407 -0.278394 0.000000 
-0.474522 -0.945673 0.000000 
0.820030 0.627334 0.000000 
0.957100 0.003262 0.000000 
0.610485 0.100170 0.000000 
-0.761092 -0.630210 0.000000 
-0.714655 0.659052 0.000000 
-0.057734 0.453885 0.000000 
-0.178789 0.607794 0.000000 
-0.067979 -0.049632 0.000000 
0.677748 -0.187836 0.000000 
0.641556 -0.973581 0.000000 
-0.765897 0.767941 0.000000 
0.393446 -0.164197 0.000000 
0.522510 -0.799927 0.000000 
-0.691820 -0.898471 0.000000 
-0.647393 0.371046 0.000000 
0.028512 0.163520 0.000000 
-0.053800 -0.653841 0.000000 
0.514316 -0.925972 0.000000 
0.965681 -0.936188 0.000000 
-0.897068 0.439783 0.000000 
-0.083078 0.372930 0.000000 
-0.006893 -0.329594 0.000000 
0.724017 -0.493227 0.000000 
0.714996 0.730369 0.000000 
-0.642413 0.496912 0.000000 
-0.760780 -0.342069 0.000000 
-0.205471 -0.619884 0.000000 
0.000000 0.405472 0.000000 
-0.564049 -0.292715 0.000000 
0.000000 -0.698151 0.000000 
0.564049 -0.292715 0.000000 
0.866949 0.951940 0.000000 
-0.569003 0.632009 0.000000 
0.000000 -0.848703 0.000000 
0.569003 0.632009 0.000000 
-0.866949 0.951940 0.000000 
0.299194 0.182190 0.000000 
0.858290 -0.109394 0.000000 
-0.577662 0.467052 0.000000 
0.000000 0.047674 0.000000 
0.577662 0.467052 0.000000 
-0.858290 -0.109394 0.000000 
-0.299194 0.182190 0.000000 
-0.268560 -0.587560 0.000000 
0.286830 -0.865201 0.000000 
0.844677 -0.246003 0.000000 
-0.578910 -0.622166 0.000000 
0.000000 -0.130762 0.000000 
0.578910 -0.622166 0.000000 
-0.844677 -0.246003 0.000000 
-0.286830 -0.865201 0.000000 
0.268560 -0.587560 0.000000 
-0.610485 0.100170 0.000000 
0.057734 0.453885 0.000000 
0.714655 0.659052 0.000000 
0.761092 -0.630210 0.000000 
0.765897 0.767941 0.000000 
-0.641556 -0.973581 0.000000 
-0.677748 -0.187836 0.000000 
0.067979 -0.049632 0.000000 
0.178789 0.607794 0.000000 
-0.514316 -0.925972 0.000000 
0.053800 -0.653841 0.000000 
-0.028512 0.163520 0.000000 
0.647393 0.371046 0.000000 
0.691820 -0.898471 0.000000 
-0.522510 -0.799927 0.000000 
-0.393446 -0.164197 0.000000 
0.205471 -0.619884 0.000000 
0.760780 -0.342069 0.000000 
0.642413 0.496912 0.000000 
-0.714996 0.730369 0.000000 
-0.724017 -0.493227 0.000000 
0.006894 -0.329594 0.000000 
0.083078 0.372930 0.000000 
0.897068 0.439783 0.000000 
-0.965681 -0.936188 0.000000 
-0.761262 -0.585836 0.000000 
0.142083 0.553426 0.000000 
0.397202 -0.785299 0.000000 
-0.108942 -0.304459 0.000000 
-0.899809 -0.299608 0.000000 
-0.724964 0.342640 0.000000 
0.660903 0.803160 0.000000 
-0.978194 -0.505214 0.000000 
0.595936 -0.005349 0.000000 
0.071546 0.851827 0.000000 
0.220880 -0.517248 0.000000 
-0.445811 -0.074462 0.000000 
-0.180633 0.603698 0.000000 
-0.702895 -0.904783 0.000000 
-0.287229 -0.205455 0.000000 
-0.685384 0.295704 0.000000 
-0.957100 0.003262 0.000000 
-0.820030 0.627334 0.000000 
0.474522 -0.945673 0.000000 
0.699407 -0.278394 0.000000 
0.109248 0.198362 0.000000 
0.441768 0.893813 0.000000 
-0.039645 -0.606316 0.000000 
0.417537 0.096246 0.000000 
0.033296 0.596756 0.000000 
-0.338794 0.864030 0.000000 
-0.374519 -0.563008 0.000000 
-0.713312 0.056422 0.000000 
0.609100 -0.054719 0.000000 
-0.381900 0.059220 0.000000 
-0.756418 0.601613 0.000000 
0.513962 0.390127 0.000000 
0.218274 -0.885634 0.000000 
-0.423588 -0.919738 0.000000 
-0.384386 0.694989 0.000000 
-0.766286 -0.790390 0.000000 
0.484677 0.944394 0.000000 
0.139443 -0.417481 0.000000 
-0.556234 -0.535050 0.000000 
-0.823577 0.238454 0.000000 
0.550868 0.227659 0.000000 
-0.386873 -0.669242 0.000000 
-0.771260 -0.168852 0.000000 
0.467428 -0.475381 0.000000 
0.105264 0.123246 0.000000 
-0.621631 -0.058653 0.000000 
-0.937896 0.644927 0.000000 
0.385608 0.565731 0.000000 
0.141715 -0.625041 0.000000 
-0.474677 -0.624944 0.000000 
CELL_DATA 175 
SCALARS MASS float 
LOOKUP_TABLE default 
0.078183 
0.086427 
0.094672 
0.086427 
0.088131 
0.092111 
0.085854 
0.092111 
0.088131 
0.088705 
0.091000 
0.086983 
0.091556 
0.086983 
0.091000 
0.088705 
0.089278 
0.091574 
0.089278 
0.092722 
0.089278 
0.092722 
0.089278 
0.091574 
0.089278 
0.078183 
0.086427 
0.094672 
0.086427 
0.088131 
0.092111 
0.085854 
0.092111 
0.088131 
0.088705 
0.091000 
0.086983 
0.091556 
0.086983 
0.091000 
0.088705 
0.089278 
0.091574 
0.089278 
0.092722 
0.089278 
0.092722 
0.089278 
0.091574 
0.089278 
0.078183 
0.086427 
0.094672 
0.086427 
0.088131 
0.092111 
0.085854 
0.092111 
0.088131 
0.088705 
0.091000 
0.086983 
0.091556 
0.086983 
0.091000 
0.088705 
0.089278 
0.091574 
0.089278 
0.092722 
0.089278 
0.092722 
0.089278 
0.091574 
0.089278 
0.078183 
0.086427 
0.094672 
0.086427 
0.088131 
0.092111 
0.085854 
0.092111 
0.088131 
0.088705 
0.091000 
0.086983 
0.091556 
0.086983 
0.091000 
0.088705 
0.089278 
0.091574 
0.089278 
0.092722 
0.089278 
0.092722 
0.089278 
0.091574 
0.089278 
0.078183 
0.086427 
0.094672 
0.086427 
0.088131 
0.092111 
0.085854 
0.092111 
0.088131 
0.088705 
0.091000 
0.086983 
0.091556 
0.086983 
0.091000 
0.088705 
0.089278 
0.091574 
0.089278 
0.092722 
0.089278 
0.092722 
0.089278 
0.091574 
0.089278 
0.078183 
0.086427 
0.094672 
0.086427 
0.088131 
0.092111 
0.085854 
0.092111 
0.088131 
0.088705 
0.091000 
0.086983 
0.091556 
0.086983 
0.091000 
0.088705 
0.089278 
0.091574 
0.089278 
0.092722 
0.089278 
0.092722 
0.089278 
0.091574 
0.089278 
0.078183 
0.086427 
0.094672 
0.086427 
0.088131 
0.092111 
0.085854 
0.092111 
0.088131 
0.088705 
0.091000 
0.086983 
0.091556 
0.086983 
0.091000 
0.088705 
0.089278 
0.091574 
0.089278 
0.092722 
0.089278 
0.092722 
0.089278 
0.091574 
0.089278 
SCALARS MASS float 
LOOKUP_TABLE default 
0.078183 
0.086427 
0.094672 
0.086427 
0.088131 
0.092111 
0.085854 
0.092111 
0.088131 
0.088705 
0.091000 
0.086983 
0.091556 
0.086983 
0.091000 
0.088705 
0.089278 
0.091574 
0.089278 
0.092722 
0.089278 
0.092722 
0.089278 
0.091574 
0.089278 
0.078183 
0.086427 
0.094672 
0.086427 
0.088131 
0.092111 
0.085854 
0.092111 
0.088131 
0.088705 
0.091000 
0.086983 
0.091556 
0.086983 
0.091000 
0.088705 
0.089278 
0.091574 
0.089278 
0.092722 
0.089278 
0.092722 
0.089278 
0.091574 
0.089278 
0.078183 
0.086427 
0.094672 
0.086427 
0.088131 
0.092111 
0.085854 
0.092111 
0.088131 
0.088705 
0.091000 
0.086983 
0.091556 
0.086983 
0.091000 
0.088705 
0.089278 
0.091574 
0.089278 
0.092722 
0.089278 
0.092722 
0.089278 
0.091574 
0.089278 
0.078183 
0.086427 
0.094672 
0.086427 
0.088131 
0.092111 
0.085854 
0.092111 
0.088131 
0.088705 
0.091000 
0.086983 
0.091556 
0.086983 
0.091000 
0.088705 
0.089278 
0.091574 
0.089278 
0.092722 
0.089278 
0.092722 
0.089278 
0.091574 
0.089278 
0.078183 
0.086427 
0.094672 
0.086427 
0.088131 
0.092111 
0.085854 
0.092111 
0.088131 
0.088705 
0.091000 
0.086983 
0.091556 
0.086983 
0.091000 
0.088705 
0.089278 
0.091574 
0.089278 
0.092722 
0.089278 
0.092722 
0.089278 
0.091574 
0.089278 
0.078183 
0.086427 
0.094672 
0.086427 
0.088131 
0.092111 
0.085854 
0.092111 
0.088131 
0.088705 
0.091000 
0.086983 
0.091556 
0.086983 
0.091000 
0.088705 
0.089278 
0.091574 
0.089278 
0.092722 
0.089278 
0.092722 
0.089278 
0.091574 
0.089278 
0.078183 
0.086427 
0.094672 
0.086427 
0.088131 
0.092111 
0.085854 
0.092111 
0.088131 
0.088705 
0.091000 
0.086983 
0.091556 
0.086983 
0.091000 
0.088705 
0.089278 
0.091574 
0.089278 
0.092722 
0.089278 
0.092722 
0.089278 
0.091574 
0.089278 
SCALARS DENSITY float 
LOOKUP_TABLE default 
20.000000 
20.000000 
20.000000 
20.000000 
20.000000 
20.000000 
20.000000 
20.000000 
20.000000 
20.000000 
20.000000 
20.000000 
20.000000 
20.000000 
20.000000 
20.000000 
20.000000 
20.000000 
20.000000 
20.000000 
20.000000 
20.000000 
20.000000 
20.000000 
20.000000 
20.000000 
20.000000 
20.000000 
20.000000 
20.000000 
20.000000 
20.000000 
20.000000 
20.000000 
20.000000 
20.000000 
20.000000 
20.000000 
20.000000 
20.000000 
20.000000 
20.000000 
20.000000 
20.000000 
20.000000 
20.000000 
20.000000 
20.000000 
20.000000 
20.000000 
20.000000 
20.000000 
20.000000 
20.000000 
20.000000 
20.000000 
20.000000 
20.000000 
20.000000 
20.000000 
20.000000 
20.000000 
20.000000 
20.000000 
20.000000 
20.000000 
20.000000 
20.000000 
20.000000 
20.000000 
20.000000 
20.000000 
20.000000 
20.000000 
20.000000 
20.000000 
20.000000 
20.000000 
20.000000 
20.000000 
20.000000 
20.000000 
20.000000 
20.000000 
20.000000 
20.000000 
20.000000 
20.000000 
20.000000 
20.000000 
20.000000 
20.000000 
20.000000 
20.000000 
20.000000 
20.000000 
20.000000 
20.000000 
20.000000 
20.000000 
20.000000 
20.000000 
20.000000 
20.000000 
20.000000 
20.000000 
20.000000 
20.000000 
20.000000 
20.000000 
20.000000 
20.000000 
20.000000 
20.000000 
20.000000 
20.000000 
20.000000 
20.000000 
20.000000 
20.000000 
20.000000 
20.000000 
20.000000 
20.000000 
20.000000 
20.000000 
20.000000 
20.000000 
20.000000 
20.000000 
20.000000 
20.000000 
20.000000 
20.000000 
20.000000 
20.000000 
20.000000 
20.000000 
20.000000 
20.000000 
20.000000 
20.000000 
20.000000 
20.000000 
20.000000 
20.000000 
20.000000 
20.000000 
20.000000 
20.000000 
20.000000 
20.000000 
20.000000 
20.000000 
20.000000 
20.000000 
20.000000 
20.000000 
20.000000 
20.000000 
20.000000 
20.000000 
20.000000 
20.000000 
20.000000 
20.000000 
20.000000 
20.000000 
20.000000 
20.000000 
20.000000 
20.000000 
20.000000 
20.000000 
20.000000 
SCALARS ELEM_i float 
LOOKUP_TABLE default 
178 
205 
178 
178 
205 
205 
206 
179 
179 
233 
206 
206 
206 
207 
179 
180 
233 
233 
234 
207 
207 
207 
207 
180 
180 
177 
204 
204 
205 
231 
204 
232 
205 
205 
231 
231 
231 
232 
232 
232 
233 
258 
258 
258 
259 
259 
259 
259 
233 
233 
177 
203 
204 
204 
203 
203 
203 
203 
231 
202 
202 
229 
230 
230 
230 
230 
201 
229 
229 
229 
229 
230 
257 
257 
257 
177 
176 
176 
176 
149 
176 
175 
176 
203 
148 
148 
175 
175 
175 
202 
202 
147 
147 
147 
174 
174 
174 
201 
201 
201 
177 
150 
150 
149 
123 
149 
149 
149 
149 
122 
122 
122 
122 
121 
148 
148 
95 
95 
95 
122 
121 
121 
121 
121 
147 
177 
151 
150 
150 
151 
151 
124 
150 
123 
125 
124 
124 
124 
123 
123 
123 
125 
125 
97 
97 
97 
97 
96 
96 
96 
178 
178 
178 
151 
179 
179 
152 
151 
151 
180 
179 
153 
152 
152 
152 
125 
180 
180 
153 
153 
153 
153 
126 
125 
125 
VECTORS VELOCITY float 
-0.000000 -3.635194 0.000000 
0.000000 -3.635194 0.000000 
0.000000 -3.635194 0.000000 
0.000000 -3.635194 0.000000 
0.000000 -3.635194 0.000000 
0.000000 -3.635194 0.000000 
0.000000 -3.635194 0.000000 
0.000000 -3.635194 0.000000 
0.000000 -3.635194 0.000000 
0.000000 -3.635194 0.000000 
0.000000 -3.635194 0.000000 
0.000000 -3.635194 0.000000 
-0.000000 -3.635194 0.000000 
-0.000000 -3.635194 0.000000 
0.000000 -3.635194 0.000000 
0.000000 -3.635194 0.000000 
-0.000000 -3.635194 0.000000 
-0.000000 -3.635194 0.000000 
0.000000 -3.635194 0.000000 
-0.000000 -3.635194 0.000000 
-0.000000 -3.635194 0.000000 
0.000000 -3.635194 0.000000 
0.000000 -3.635194 0.000000 
0.000000 -3.635194 0.000000 
-0.000000 -3.635194 0.000000 
-0.000000 -3.635194 0.000000 
0.000000 -3.635194 0.000000 
-0.000000 -3.635194 0.000000 
-0.000000 -3.635194 0.000000 
0.000000 -3.635194 0.000000 
0.000000 -3.635194 0.000000 
0.000000 -3.635194 0.000000 
-0.000000 -3.635194 0.000000 
-0.000000 -3.635194 0.000000 
-0.000000 -3.635194 0.000000 
-0.000000 -3.635194 0.000000 
-0.000000 -3.635194 0.000000 
-0.000000 -3.635194 0.000000 
-0.000000 -3.635194 0.000000 
-0.000000 -3.635194 0.000000 
-0.000000 -3.635194 0.000000 
0.000000 -3.635194 0.000000 
0.000000 -3.635194 0.000000 
0.000000 -3.635194 0.000000 
-0.000000 -3.635194 0.000000 
0.000000 -3.635194 0.000000 
-0.000000 -3.635194 0.000000 
-0.000000 -3.635194 0.000000 
-0.000000 -3.635194 0.000000 
-0.000000 -3.635194 0.000000 
0.000000 -3.635194 0.000000 
0.000000 -3.635194 0.000000 
0.000000 -3.635194 0.000000 
0.000000 -3.635194 0.000000 
-0.000000 -3.635194 0.000000 
-0.000000 -3.635194 0.000000 
-0.000000 -3.635194 0.000000 
-0.000000 -3.635194 0.000000 
-0.000000 -3.635194 0.000000 
-0.000000 -3.635194 0.000000 
-0.000000 -3.635194 0.000000 
-0.000000 -3.635194 0.000000 
-0.000000 -3.635194 0.000000 
-0.000000 -3.635194 0.000000 
-0.000000 -3.635194 0.000000 
0.000000 -3.635194 0.000000 
0.000000 -3.635194 0.000000 
-0.000000 -3.635194 0.000000 
-0.000000 -3.635194 0.000000 
-0.000000 -3.635194 0.000000 
-0.000000 -3.635194 0.000000 
-0.000000 -3.635194 0.000000 
0.000000 -3.635194 0.000000 
0.000000 -3.635194 0.000000 
0.000000 -3.635194 0.000000 
0.000000 -3.635194 0.000000 
0.000000 -3.635194 0.000000 
0.000000 -3.635194 0.000000 
0.000000 -3.635194 0.000000 
0.000000 -3.635194 0.000000 
0.000000 -3.635194 0.000000 
0.000000 -3.635194 0.000000 
0.000000 -3.635194 0.000000 
-0.000000 -3.635194 0.000000 
-0.000000 -3.635194 0.000000 
0.000000 -3.635194 0.000000 
0.000000 -3.635194 0.000000 
-0.000000 -3.635194 0.000000 
-0.000000 -3.635194 0.000000 
-0.000000 -3.635194 0.000000 
-0.000000 -3.635194 0.000000 
-0.000000 -3.635194 0.000000 
0.000000 -3.635194 0.000000 
-0.000000 -3.635194 0.000000 
0.000000 -3.635194 0.000000 
-0.000000 -3.635194 0.000000 
-0.000000 -3.635194 0.000000 
0.000000 -3.635194 0.000000 
-0.000000 -3.635194 0.000000 
0.000000 -3.635194 0.000000 
-0.000000 -3.635194 0.000000 
-0.000000 -3.635194 0.000000 
-0.000000 -3.635194 0.000000 
0.000000 -3.635194 0.000000 
-0.000000 -3.635194 0.000000 
-0.000000 -3.635194 0.000000 
0.000000 -3.635194 0.000000 
0.000000 -3.635194 0.000000 
0.000000 -3.635194 0.000000 
-0.000000 -3.635194 0.000000 
-0.000000 -3.635194 0.000000 
-0.000000 -3.635194 0.000000 
-0.000000 -3.635194 0.000000 
-0.000000 -3.635194 0.000000 
0.000000 -3.635194 0.000000 
-0.000000 -3.635194 0.000000 
-0.000000 -3.635194 0.000000 
0.000000 -3.635194 0.000000 
0.000000 -3.635194 0.000000 
-0.000000 -3.635194 0.000000 
-0.000000 -3.635194 0.000000 
-0.000000 -3.635194 0.000000 
0.000000 -3.635194 0.000000 
-0.000000 -3.635194 0.000000 
0.000000 -3.635194 0.000000 
-0.000000 -3.635194 0.000000 
-0.000000 -3.635194 0.000000 
-0.000000 -3.635194 0.000000 
-0.000000 -3.635194 0.000000 
0.000000 -3.635194 0.000000 
0.000000 -3.635194 0.000000 
0.000000 -3.635194 0.000000 
0.000000 -3.635194 0.000000 
-0.000000 -3.635194 0.000000 
0.000000 -3.635194 0.000000 
0.000000 -3.635194 0.000000 
0.000000 -3.635194 0.000000 
0.000000 -3.635194 0.000000 
0.000000 -3.635194 0.000000 
-0.000000 -3.635194 0.000000 
-0.000000 -3.635194 0.000000 
0.000000 -3.635194 0.000000 
-0.000000 -3.635194 0.000000 
-0.000000 -3.635194 0.000000 
-0.000000 -3.635194 0.000000 
0.000000 -3.635194 0.000000 
0.000000 -3.635194 0.000000 
0.000000 -3.635194 0.000000 
0.000000 -3.635194 0.000000 
0.000000 -3.635194 0.000000 
-0.000000 -3.635194 0.000000 
0.000000 -3.635194 0.000000 
0.000000 -3.635194 0.000000 
-0.000000 -3.635194 0.000000 
-0.000000 -3.635194 0.000000 
0.000000 -3.635194 0.000000 
0.000000 -3.635194 0.000000 
0.000000 -3.635194 0.000000 
0.000000 -3.635194 0.000000 
0.000000 -3.635194 0.000000 
0.000000 -3.635194 0.000000 
-0.000000 -3.635194 0.000000 
-0.000000 -3.635194 0.000000 
0.000000 -3.635194 0.000000 
0.000000 -3.635194 0.000000 
0.000000 -3.635194 0.000000 
-0.000000 -3.635194 0.000000 
0.000000 -3.635194 0.000000 
0.000000 -3.635194 0.000000 
-0.000000 -3.635194 0.000000 
-0.000000 -3.635194 0.000000 
-0.000000 -3.635194 0.000000 
0.000000 -3.635194 0.000000 
-0.000000 -3.635194 0.000000 
-0.000000 -3.635194 0.000000 
TENSORS STRESS float 
-0.000000 -0.000000 0.000000 
0.000000 -0.000000 0.000000 
0.000000 0.000000 0.000000 

0.000000 -0.000000 0.000000 
0.000000 0.000000 0.000000 
0.000000 0.000000 0.000000 

-0.000000 -0.000000 0.000000 
0.000000 -0.000000 0.000000 
0.000000 0.000000 0.000000 

-0.000000 -0.000000 0.000000 
0.000000 -0.000000 0.000000 
0.000000 0.000000 0.000000 

-0.000000 0.000000 0.000000 
0.000000 -0.000000 0.000000 
0.000000 0.000000 0.000000 

0.000000 -0.000000 0.000000 
0.000000 0.000000 0.000000 
0.000000 0.000000 0.000000 

-0.000000 0.000000 0.000000 
0.000000 -0.000000 0.000000 
0.000000 0.000000 0.000000 

-0.000000 -0.000000 0.000000 
0.000000 -0.000000 0.000000 
0.000000 0.000000 0.000000 

-0.000000 -0.000000 0.000000 
0.000000 -0.000000 0.000000 
0.000000 0.000000 0.000000 

-0.000000 -0.000000 0.000000 
0.000000 -0.000000 0.000000 
0.000000 0.000000 0.000000 

-0.000000 -0.000000 0.000000 
0.000000 -0.000000 0.000000 
0.000000 0.000000 0.000000 

-0.000000 0.000000 0.000000 
0.000000 -0.000000 0.000000 
0.000000 0.000000 0.000000 

0.000000 -0.000000 0.000000 
0.000000 0.000000 0.000000 
0.000000 0.000000 0.000000 

0.000000 -0.000000 0.000000 
0.000000 0.000000 0.000000 
0.000000 0.000000 0.000000 

0.000000 -0.000000 0.000000 
0.000000 -0.000000 0.000000 
0.000000 0.000000 0.000000 

0.000000 -0.000000 0.000000 
0.000000 0.000000 0.000000 
0.000000 0.000000 0.000000 

-0.000000 -0.000000 0.000000 
0.000000 -0.000000 0.000000 
0.000000 0.000000 0.000000 

-0.000000 -0.000000 0.000000 
0.000000 -0.000000 0.000000 
0.000000 0.000000 0.000000 

-0.000000 -0.000000 0.000000 
0.000000 -0.000000 0.000000 
0.000000 0.000000 0.000000 

0.000000 -0.000000 0.000000 
0.000000 -0.000000 0.000000 
0.000000 0.000000 0.000000 

0.000000 -0.000000 0.000000 
0.000000 -0.000000 0.000000 
0.000000 0.000000 0.000000 

0.000000 -0.000000 0.000000 
0.000000 0.000000 0.000000 
0.000000 0.000000 0.000000 

0.000000 -0.000000 0.000000 
0.000000 -0.000000 0.000000 
0.000000 0.000000 0.000000 

0.000000 -0.000000 0.000000 
0.000000 -0.000000 0.000000 
0.000000 0.000000 0.000000 

0.000000 0.000000 0.000000 
0.000000 -0.000000 0.000000 
0.000000 0.000000 0.000000 

0.000000 0.000000 0.000000 
0.000000 0.000000 0.000000 
0.000000 0.000000 0.000000 

0.000000 0.000000 0.000000 
0.000000 0.000000 0.000000 
0.000000 0.000000 0.000000 

0.000000 0.000000 0.000000 
0.000000 0.000000 0.000000 
0.000000 0.000000 0.000000 

-0.000000 -0.000000 0.000000 
0.000000 -0.000000 0.000000 
0.000000 0.000000 0.000000 

-0.000000 0.000000 0.000000 
0.000000 0.000000 0.000000 
0.000000 0.000000 0.000000 

0.000000 0.000000 0.000000 
0.000000 -0.000000 0.000000 
0.000000 0.000000 0.000000 

-0.000000 -0.000000 0.000000 
0.000000 -0.000000 0.000000 
0.000000 0.000000 0.000000 

-0.000000 -0.000000 0.000000 
0.000000 -0.000000 0.000000 
0.000000 0.000000 0.000000 

-0.000000 -0.000000 0.000000 
0.000000 -0.000000 0.000000 
0.000000 0.000000 0.000000 

-0.000000 -0.000000 0.000000 
0.000000 -0.000000 0.000000 
0.000000 0.000000 0.000000 

-0.000000 -0.000000 0.000000 
0.000000 -0.000000 0.000000 
0.000000 0.000000 0.000000 

-0.000000 -0.000000 0.000000 
0.000000 -0.000000 0.000000 
0.000000 0.000000 0.000000 

0.000000 0.000000 0.000000 
0.000000 0.000000 0.000000 
0.000000 0.000000 0.000000 

-0.000000 -0.000000 0.000000 
0.000000 -0.000000 0.000000 
0.000000 0.000000 0.000000 

-0.000000 -0.000000 0.000000 
0.000000 -0.000000 0.000000 
0.000000 0.000000 0.000000 

-0.000000 -0.000000 0.000000 
0.000000 -0.000000 0.000000 
0.000000 0.000000 0.000000 

0.000000 0.000000 0.000000 
0.000000 0.000000 0.000000 
0.000000 0.000000 0.000000 

0.000000 0.000000 0.000000 
0.000000 0.000000 0.000000 
0.000000 0.000000 0.000000 

-0.000000 -0.000000 0.000000 
0.000000 -0.000000 0.000000 
0.000000 0.000000 0.000000 

-0.000000 0.000000 0.000000 
0.000000 -0.000000 0.000000 
0.000000 0.000000 0.000000 

0.000000 -0.000000 0.000000 
0.000000 0.000000 0.000000 
0.000000 0.000000 0.000000 

-0.000000 -0.000000 0.000000 
0.000000 -0.000000 0.000000 
0.000000 0.000000 0.000000 

-0.000000 -0.000000 0.000000 
0.000000 0.000000 0.000000 
0.000000 0.000000 0.000000 

0.000000 -0.000000 0.000000 
0.000000 0.000000 0.000000 
0.000000 0.000000 0.000000 

-0.000000 -0.000000 0.000000 
0.000000 -0.000000 0.000000 
0.000000 0.000000 0.000000 

0.000000 -0.000000 0.000000 
0.000000 0.000000 0.000000 
0.000000 0.000000 0.000000 

-0.000000 -0.000000 0.000000 
0.000000 -0.000000 0.000000 
0.000000 0.000000 0.000000 

0.000000 -0.000000 0.000000 
0.000000 0.000000 0.000000 
0.000000 0.000000 0.000000 

0.000000 -0.000000 0.000000 
0.000000 0.000000 0.000000 
0.000000 0.000000 0.000000 

-0.000000 0.000000 0.000000 
0.000000 -0.000000 0.000000 
0.000000 0.000000 0.000000 

0.000000 -0.000000 0.000000 
0.000000 -0.000000 0.000000 
0.000000 0.000000 0.000000 

0.000000 0.000000 0.000000 
0.000000 0.000000 0.000000 
0.000000 0.000000 0.000000 

0.000000 -0.000000 0.000000 
0.000000 0.000000 0.000000 
0.000000 0.000000 0.000000 

-0.000000 0.000000 0.000000 
0.000000 -0.000000 0.000000 
0.000000 0.000000 0.000000 

-0.000000 0.000000 0.000000 
0.000000 -0.000000 0.000000 
0.000000 0.000000 0.000000 

0.000000 0.000000 0.000000 
0.000000 0.000000 0.000000 
0.000000 0.000000 0.000000 

0.000000 -0.000000 0.000000 
0.000000 -0.000000 0.000000 
0.000000 0.000000 0.000000 

0.000000 0.000000 0.000000 
0.000000 -0.000000 0.000000 
0.000000 0.000000 0.000000 

0.000000 0.000000 0.000000 
0.000000 0.000000 0.000000 
0.000000 0.000000 0.000000 

0.000000 0.000000 0.000000 
0.000000 0.000000 0.000000 
0.000000 0.000000 0.000000 

0.000000 0.000000 0.000000 
0.000000 0.000000 0.000000 
0.000000 0.000000 0.000000 

-0.000000 0.000000 0.000000 
0.000000 0.000000 0.000000 
0.000000 0.000000 0.000000 

-0.000000 0.000000 0.000000 
0.000000 -0.000000 0.000000 
0.000000 0.000000 0.000000 

-0.000000 0.000000 0.000000 
0.000000 -0.000000 0.000000 
0.000000 0.000000 0.000000 

0.000000 -0.000000 0.000000 
0.000000 -0.000000 0.000000 
0.000000 0.000000 0.000000 

0.000000 0.000000 0.000000 
0.000000 -0.000000 0.000000 
0.000000 0.000000 0.000000 

0.000000 -0.000000 0.000000 
0.000000 -0.000000 0.000000 
0.000000 0.000000 0.000000 

0.000000 -0.000000 0.000000 
0.000000 -0.000000 0.000000 
0.000000 0.000000 0.000000 

-0.000000 0.000000 0.000000 
0.000000 -0.000000 0.000000 
0.000000 0.000000 0.000000 

0.000000 0.000000 0.000000 
0.000000 0.000000 0.000000 
0.000000 0.000000 0.000000 

-0.000000 -0.000000 0.000000 
0.000000 -0.000000 0.000000 
0.000000 0.000000 0.000000 

-0.000000 -0.000000 0.000000 
0.000000 -0.000000 0.000000 
0.000000 0.000000 0.000000 

0.000000 -0.000000 0.000000 
0.000000 -0.000000 0.000000 
0.000000 0.000000 0.000000 

0.000000 -0.000000 0.000000 
0.000000 0.000000 0.000000 
0.000000 0.000000 0.000000 

-0.000000 -0.000000 0.000000 
0.000000 -0.000000 0.000000 
0.000000 0.000000 0.000000 

-0.000000 0.000000 0.000000 
0.000000 -0.000000 0.000000 
0.000000 0.000000 0.000000 

-0.000000 0.000000 0.000000 
0.000000 -0.000000 0.000000 
0.000000 0.000000 0.000000 

-0.000000 0.000000 0.000000 
0.000000 -0.000000 0.000000 
0.000000 0.000000 0.000000 

-0.000000 0.000000 0.000000 
0.000000 -0.000000 0.000000 
0.000000 0.000000 0.000000 

-0.000000 -0.000000 0.000000 
0.000000 -0.000000 0.000000 
0.000000 0.000000 0.000000 

0.000000 0.000000 0.000000 
0.000000 -0.000000 0.000000 
0.000000 0.000000 0.000000 

0.000000 -0.000000 0.000000 
0.000000 0.000000 0.000000 
0.000000 0.000000 0.000000 

-0.000000 -0.000000 0.000000 
0.000000 0.000000 0.000000 
0.000000 0.000000 0.000000 

0.000000 0.000000 0.000000 
0.000000 0.000000 0.000000 
0.000000 0.000000 0.000000 

0.000000 0.000000 0.000000 
0.000000 0.000000 0.000000 
0.000000 0.000000 0.000000 

0.000000 0.000000 0.000000 
0.000000 -0.000000 0.000000 
0.000000 0.000000 0.000000 

-0.000000 -0.000000 0.000000 
0.000000 -0.000000 0.000000 
0.000000 0.000000 0.000000 

-0.000000 -0.000000 0.000000 
0.000000 0.000000 0.000000 
0.000000 0.000000 0.000000 

-0.000000 -0.000000 0.000000 
0.000000 0.000000 0.000000 
0.000000 0.000000 0.000000 

0.000000 0.000000 0.000000 
0.000000 0.000000 0.000000 
0.000000 0.000000 0.000000 

0.000000 -0.000000 0.000000 
0.000000 0.000000 0.000000 
0.000000 0.000000 0.000000 

0.000000 0.000000 0.000000 
0.000000 -0.000000 0.000000 
0.000000 0.000000 0.000000 

-0.000000 0.000000 0.000000 
0.000000 -0.000000 0.000000 
0.000000 0.000000 0.000000 

-0.000000 -0.000000 0.000000 
0.000000 -0.000000 0.000000 
0.000000 0.000000 0.000000 

-0.000000 0.000000 0.000000 
0.000000 -0.000000 0.000000 
0.000000 0.000000 0.000000 

-0.000000 -0.000000 0.000000 
0.000000 0.000000 0.000000 
0.000000 0.000000 0.000000 

0.000000 0.000000 0.000000 
0.000000 -0.000000 0.000000 
0.000000 0.000000 0.000000 

0.000000 -0.000000 0.000000 
0.000000 0.000000 0.000000 
0.000000 0.000000 0.000000 

0.000000 0.000000 0.000000 
0.000000 0.000000 0.000000 
0.000000 0.000000 0.000000 

-0.000000 -0.000000 0.000000 
0.000000 -0.000000 0.000000 
0.000000 0.000000 0.000000 

0.000000 0.000000 0.000000 
0.000000 0.000000 0.000000 
0.000000 0.000000 0.000000 

-0.000000 -0.000000 0.000000 
0.000000 -0.000000 0.000000 
0.000000 0.000000 0.000000 

-0.000000 -0.000000 0.000000 
0.000000 -0.000000 0.000000 
0.000000 0.000000 0.000000 

-0.000000 -0.000000 0.000000 
0.000000 -0.000000 0.000000 
0.000000 0.000000 0.000000 

-0.000000 -0.000000 0.000000 
0.000000 -0.000000 0.000000 
0.000000 0.000000 0.000000 

0.000000 -0.000000 0.000000 
0.000000 -0.000000 0.000000 
0.000000 0.000000 0.000000 

0.000000 0.000000 0.000000 
0.000000 0.000000 0.000000 
0.000000 0.000000 0.000000 

-0.000000 -0.000000 0.000000 
0.000000 -0.000000 0.000000 
0.000000 0.000000 0.000000 

-0.000000 -0.000000 0.000000 
0.000000 -0.000000 0.000000 
0.000000 0.000000 0.000000 

0.000000 0.000000 0.000000 
0.000000 0.000000 0.000000 
0.000000 0.000000 0.000000 

-0.000000 -0.000000 0.000000 
0.000000 -0.000000 0.000000 
0.000000 0.000000 0.000000 

0.000000 0.000000 0.000000 
0.000000 0.000000 0.000000 
0.000000 0.000000 0.000000 

0.000000 0.000000 0.000000 
0.000000 0.000000 0.000000 
0.000000 0.000000 0.000000 

-0.000000 -0.000000 0.000000 
0.000000 0.000000 0.000000 
0.000000 0.000000 0.000000 

0.000000 -0.000000 0.000000 
0.000000 0.000000 0.000000 
0.000000 0.000000 0.000000 

0.000000 0.000000 0.000000 
0.000000 0.000000 0.000000 
0.000000 0.000000 0.000000 

0.000000 -0.000000 0.000000 
0.000000 0.000000 0.000000 
0.000000 0.000000 0.000000 

0.000000 -0.000000 0.000000 
0.000000 -0.000000 0.000000 
0.000000 0.000000 0.000000 

0.000000 -0.000000 0.000000 
0.000000 0.000000 0.000000 
0.000000 0.000000 0.000000 

0.000000 -0.000000 0.000000 
0.000000 0.000000 0.000000 
0.000000 0.000000 0.000000 

-0.000000 -0.000000 0.000000 
0.000000 -0.000000 0.000000 
0.000000 0.000000 0.000000 

-0.000000 0.000000 0.000000 
0.000000 -0.000000 0.000000 
0.000000 0.000000 0.000000 

0.000000 -0.000000 0.000000 
0.000000 0.000000 0.000000 
0.000000 0.000000 0.000000 

0.000000 0.000000 0.000000 
0.000000 0.000000 0.000000 
0.000000 0.000000 0.000000 

-0.000000 0.000000 0.000000 
0.000000 -0.000000 0.000000 
0.000000 0.000000 0.000000 

0.000000 -0.000000 0.000000 
0.000000 0.000000 0.000000 
0.000000 0.000000 0.000000 

-0.000000 -0.000000 0.000000 
0.000000 0.000000 0.000000 
0.000000 0.000000 0.000000 

0.000000 -0.000000 0.000000 
0.000000 0.000000 0.000000 
0.000000 0.000000 0.000000 

-0.000000 0.000000 0.000000 
0.000000 0.000000 0.000000 
0.000000 0.000000 0.000000 

-0.000000 0.000000 0.000000 
0.000000 -0.000000 0.000000 
0.000000 0.000000 0.000000 

-0.000000 -0.000000 0.000000 
0.000000 -0.000000 0.000000 
0.000000 0.000000 0.000000 

-0.000000 -0.000000 0.000000 
0.000000 -0.000000 0.000000 
0.000000 0.000000 0.000000 

-0.000000 0.000000 0.000000 
0.000000 0.000000 0.000000 
0.000000 0.000000 0.000000 

-0.000000 0.000000 0.000000 
0.000000 -0.000000 0.000000 
0.000000 0.000000 0.000000 

-0.000000 0.000000 0.000000 
0.000000 -0.000000 0.000000 
0.000000 0.000000 0.000000 

-0.000000 -0.000000 0.000000 
0.000000 0.000000 0.000000 
0.000000 0.000000 0.000000 

-0.000000 0.000000 0.000000 
0.000000 -0.000000 0.000000 
0.000000 0.000000 0.000000 

0.000000 0.000000 0.000000 
0.000000 0.000000 0.000000 
0.000000 0.000000 0.000000 

-0.000000 -0.000000 0.000000 
0.000000 0.000000 0.000000 
0.000000 0.000000 0.000000 

0.000000 -0.000000 0.000000 
0.000000 0.000000 0.000000 
0.000000 0.000000 0.000000 

-0.000000 -0.000000 0.000000 
0.000000 -0.000000 0.000000 
0.000000 0.000000 0.000000 

0.000000 -0.000000 0.000000 
0.000000 0.000000 0.000000 
0.000000 0.000000 0.000000 

0.000000 0.000000 0.000000 
0.000000 0.000000 0.000000 
0.000000 0.000000 0.000000 

0.000000 0.000000 0.000000 
0.000000 0.000000 0.000000 
0.000000 0.000000 0.000000 

0.000000 -0.000000 0.000000 
0.000000 0.000000 0.000000 
0.000000 0.000000 0.000000 

-0.000000 -0.000000 0.000000 
0.000000 0.000000 0.000000 
0.000000 0.000000 0.000000 

0.000000 -0.000000 0.000000 
0.000000 0.000000 0.000000 
0.000000 0.000000 0.000000 

0.000000 -0.000000 0.000000 
0.000000 0.000000 0.000000 
0.000000 0.000000 0.000000 

0.000000 0.000000 0.000000 
0.000000 -0.000000 0.000000 
0.000000 0.000000 0.000000 

-0.000000 -0.000000 0.000000 
0.000000 -0.000000 0.000000 
0.000000 0.000000 0.000000 

0.000000 -0.000000 0.000000 
0.000000 0.000000 0.000000 
0.000000 0.000000 0.000000 

-0.000000 0.000000 0.000000 
0.000000 -0.000000 0.000000 
0.000000 0.000000 0.000000 

-0.000000 0.000000 0.000000 
0.000000 -0.000000 0.000000 
0.000000 0.000000 0.000000 

-0.000000 0.000000 0.000000 
0.000000 -0.000000 0.000000 
0.000000 0.000000 0.000000 

0.000000 -0.000000 0.000000 
0.000000 -0.000000 0.000000 
0.000000 0.000000 0.000000 

0.000000 0.000000 0.000000 
0.000000 0.000000 0.000000 
0.000000 0.000000 0.000000 

-0.000000 0.000000 0.000000 
0.000000 0.000000 0.000000 
0.000000 0.000000 0.000000 

-0.000000 -0.000000 0.000000 
0.000000 0.000000 0.000000 
0.000000 0.000000 0.000000 

-0.000000 0.000000 0.000000 
0.000000 0.000000 0.000000 
0.000000 0.000000 0.000000 

0.000000 -0.000000 0.000000 
0.000000 0.000000 0.000000 
0.000000 0.000000 0.000000 

0.000000 0.000000 0.000000 
0.000000 0.000000 0.000000 
0.000000 0.000000 0.000000 

0.000000 0.000000 0.000000 
0.000000 -0.000000 0.000000 
0.000000 0.000000 0.000000 

0.000000 -0.000000 0.000000 
0.000000 0.000000 0.000000 
0.000000 0.000000 0.000000 

-0.000000 0.000000 0.000000 
0.000000 0.000000 0.000000 
0.000000 0.000000 0.000000 

-0.000000 0.000000 0.000000 
0.000000 -0.000000 0.000000 
0.000000 0.000000 0.000000 

-0.000000 -0.000000 0.000000 
0.000000 -0.000000 0.000000 
0.000000 0.000000 0.000000 

-0.000000 0.000000 0.000000 
0.000000 -0.000000 0.000000 
0.000000 0.000000 0.000000 

-0.000000 0.000000 0.000000 
0.000000 -0.000000 0.000000 
0.000000 0.000000 0.000000 

0.000000 0.000000 0.000000 
0.000000 0.000000 0.000000 
0.000000 0.000000 0.000000 

0.000000 -0.000000 0.000000 
0.000000 0.000000 0.000000 
0.000000 0.000000 0.000000 

TENSORS STRAIN float 
-0.000000 -0.000000 0.000000 
0.000000 -0.000000 0.000000 
0.000000 0.000000 0.000000 

-0.000000 -0.000000 0.000000 
0.000000 0.000000 0.000000 
0.000000 0.000000 0.000000 

-0.000000 -0.000000 0.000000 
0.000000 -0.000000 0.000000 
0.000000 0.000000 0.000000 

-0.000000 -0.000000 0.000000 
0.000000 -0.000000 0.000000 
0.000000 0.000000 0.000000 

0.000000 0.000000 0.000000 
0.000000 -0.000000 0.000000 
0.000000 0.000000 0.000000 

0.000000 -0.000000 0.000000 
0.000000 0.000000 0.000000 
0.000000 0.000000 0.000000 

-0.000000 0.000000 0.000000 
0.000000 -0.000000 0.000000 
0.000000 0.000000 0.000000 

-0.000000 -0.000000 0.000000 
0.000000 -0.000000 0.000000 
0.000000 0.000000 0.000000 

-0.000000 -0.000000 0.000000 
0.000000 -0.000000 0.000000 
0.000000 0.000000 0.000000 

-0.000000 -0.000000 0.000000 
0.000000 -0.000000 0.000000 
0.000000 0.000000 0.000000 

-0.000000 -0.000000 0.000000 
0.000000 -0.000000 0.000000 
0.000000 0.000000 0.000000 

-0.000000 0.000000 0.000000 
0.000000 -0.000000 0.000000 
0.000000 0.000000 0.000000 

-0.000000 -0.000000 0.000000 
0.000000 0.000000 0.000000 
0.000000 0.000000 0.000000 

0.000000 -0.000000 0.000000 
0.000000 0.000000 0.000000 
0.000000 0.000000 0.000000 

0.000000 -0.000000 0.000000 
0.000000 -0.000000 0.000000 
0.000000 0.000000 0.000000 

0.000000 -0.000000 0.000000 
0.000000 -0.000000 0.000000 
0.000000 0.000000 0.000000 

-0.000000 -0.000000 0.000000 
0.000000 -0.000000 0.000000 
0.000000 0.000000 0.000000 

-0.000000 -0.000000 0.000000 
0.000000 -0.000000 0.000000 
0.000000 0.000000 0.000000 

-0.000000 -0.000000 0.000000 
0.000000 -0.000000 0.000000 
0.000000 0.000000 0.000000 

0.000000 -0.000000 0.000000 
0.000000 -0.000000 0.000000 
0.000000 0.000000 0.000000 

0.000000 -0.000000 0.000000 
0.000000 -0.000000 0.000000 
0.000000 0.000000 0.000000 

0.000000 -0.000000 0.000000 
0.000000 0.000000 0.000000 
0.000000 0.000000 0.000000 

0.000000 -0.000000 0.000000 
0.000000 -0.000000 0.000000 
0.000000 0.000000 0.000000 

0.000000 -0.000000 0.000000 
0.000000 -0.000000 0.000000 
0.000000 0.000000 0.000000 

0.000000 0.000000 0.000000 
0.000000 -0.000000 0.000000 
0.000000 0.000000 0.000000 

-0.000000 0.000000 0.000000 
0.000000 0.000000 0.000000 
0.000000 0.000000 0.000000 

0.000000 0.000000 0.000000 
0.000000 0.000000 0.000000 
0.000000 0.000000 0.000000 

0.000000 0.000000 0.000000 
0.000000 0.000000 0.000000 
0.000000 0.000000 0.000000 

0.000000 -0.000000 0.000000 
0.000000 -0.000000 0.000000 
0.000000 0.000000 0.000000 

-0.000000 0.000000 0.000000 
0.000000 0.000000 0.000000 
0.000000 0.000000 0.000000 

0.000000 0.000000 0.000000 
0.000000 -0.000000 0.000000 
0.000000 0.000000 0.000000 

0.000000 -0.000000 0.000000 
0.000000 -0.000000 0.000000 
0.000000 0.000000 0.000000 

-0.000000 -0.000000 0.000000 
0.000000 -0.000000 0.000000 
0.000000 0.000000 0.000000 

-0.000000 -0.000000 0.000000 
0.000000 -0.000000 0.000000 
0.000000 0.000000 0.000000 

-0.000000 -0.000000 0.000000 
0.000000 -0.000000 0.000000 
0.000000 0.000000 0.000000 

-0.000000 -0.000000 0.000000 
0.000000 -0.000000 0.000000 
0.000000 0.000000 0.000000 

0.000000 -0.000000 0.000000 
0.000000 -0.000000 0.000000 
0.000000 0.000000 0.000000 

0.000000 0.000000 0.000000 
0.000000 0.000000 0.000000 
0.000000 0.000000 0.000000 

-0.000000 -0.000000 0.000000 
0.000000 -0.000000 0.000000 
0.000000 0.000000 0.000000 

-0.000000 -0.000000 0.000000 
0.000000 -0.000000 0.000000 
0.000000 0.000000 0.000000 

-0.000000 -0.000000 0.000000 
0.000000 0.000000 0.000000 
0.000000 0.000000 0.000000 

0.000000 0.000000 0.000000 
0.000000 -0.000000 0.000000 
0.000000 0.000000 0.000000 

-0.000000 0.000000 0.000000 
0.000000 0.000000 0.000000 
0.000000 0.000000 0.000000 

-0.000000 -0.000000 0.000000 
0.000000 -0.000000 0.000000 
0.000000 0.000000 0.000000 

-0.000000 0.000000 0.000000 
0.000000 -0.000000 0.000000 
0.000000 0.000000 0.000000 

0.000000 -0.000000 0.000000 
0.000000 0.000000 0.000000 
0.000000 0.000000 0.000000 

0.000000 -0.000000 0.000000 
0.000000 -0.000000 0.000000 
0.000000 0.000000 0.000000 

-0.000000 -0.000000 0.000000 
0.000000 0.000000 0.000000 
0.000000 0.000000 0.000000 

-0.000000 -0.000000 0.000000 
0.000000 0.000000 0.000000 
0.000000 0.000000 0.000000 

-0.000000 -0.000000 0.000000 
0.000000 -0.000000 0.000000 
0.000000 0.000000 0.000000 

-0.000000 -0.000000 0.000000 
0.000000 0.000000 0.000000 
0.000000 0.000000 0.000000 

0.000000 -0.000000 0.000000 
0.000000 -0.000000 0.000000 
0.000000 0.000000 0.000000 

0.000000 -0.000000 0.000000 
0.000000 0.000000 0.000000 
0.000000 0.000000 0.000000 

0.000000 -0.000000 0.000000 
0.000000 0.000000 0.000000 
0.000000 0.000000 0.000000 

0.000000 0.000000 0.000000 
0.000000 -0.000000 0.000000 
0.000000 0.000000 0.000000 

0.000000 -0.000000 0.000000 
0.000000 -0.000000 0.000000 
0.000000 0.000000 0.000000 

0.000000 0.000000 0.000000 
0.000000 0.000000 0.000000 
0.000000 0.000000 0.000000 

0.000000 -0.000000 0.000000 
0.000000 0.000000 0.000000 
0.000000 0.000000 0.000000 

-0.000000 0.000000 0.000000 
0.000000 -0.000000 0.000000 
0.000000 0.000000 0.000000 

0.000000 0.000000 0.000000 
0.000000 -0.000000 0.000000 
0.000000 0.000000 0.000000 

0.000000 0.000000 0.000000 
0.000000 0.000000 0.000000 
0.000000 0.000000 0.000000 

0.000000 -0.000000 0.000000 
0.000000 -0.000000 0.000000 
0.000000 0.000000 0.000000 

0.000000 0.000000 0.000000 
0.000000 -0.000000 0.000000 
0.000000 0.000000 0.000000 

0.000000 0.000000 0.000000 
0.000000 0.000000 0.000000 
0.000000 0.000000 0.000000 

-0.000000 0.000000 0.000000 
0.000000 0.000000 0.000000 
0.000000 0.000000 0.000000 

-0.000000 0.000000 0.000000 
0.000000 0.000000 0.000000 
0.000000 0.000000 0.000000 

-0.000000 0.000000 0.000000 
0.000000 0.000000 0.000000 
0.000000 0.000000 0.000000 

-0.000000 0.000000 0.000000 
0.000000 -0.000000 0.000000 
0.000000 0.000000 0.000000 

-0.000000 0.000000 0.000000 
0.000000 -0.000000 0.000000 
0.000000 0.000000 0.000000 

0.000000 -0.000000 0.000000 
0.000000 -0.000000 0.000000 
0.000000 0.000000 0.000000 

0.000000 0.000000 0.000000 
0.000000 -0.000000 0.000000 
0.000000 0.000000 0.000000 

0.000000 -0.000000 0.000000 
0.000000 -0.000000 0.000000 
0.000000 0.000000 0.000000 

0.000000 -0.000000 0.000000 
0.000000 -0.000000 0.000000 
0.000000 0.000000 0.000000 

0.000000 0.000000 0.000000 
0.000000 -0.000000 0.000000 
0.000000 0.000000 0.000000 

0.000000 0.000000 0.000000 
0.000000 0.000000 0.000000 
0.000000 0.000000 0.000000 

-0.000000 -0.000000 0.000000 
0.000000 -0.000000 0.000000 
0.000000 0.000000 0.000000 

0.000000 -0.000000 0.000000 
0.000000 -0.000000 0.000000 
0.000000 0.000000 0.000000 

0.000000 -0.000000 0.000000 
0.000000 -0.000000 0.000000 
0.000000 0.000000 0.000000 

0.000000 -0.000000 0.000000 
0.000000 0.000000 0.000000 
0.000000 0.000000 0.000000 

-0.000000 -0.000000 0.000000 
0.000000 -0.000000 0.000000 
0.000000 0.000000 0.000000 

-0.000000 0.000000 0.000000 
0.000000 -0.000000 0.000000 
0.000000 0.000000 0.000000 

-0.000000 0.000000 0.000000 
0.000000 -0.000000 0.000000 
0.000000 0.000000 0.000000 

-0.000000 0.000000 0.000000 
0.000000 -0.000000 0.000000 
0.000000 0.000000 0.000000 

0.000000 0.000000 0.000000 
0.000000 -0.000000 0.000000 
0.000000 0.000000 0.000000 

-0.000000 -0.000000 0.000000 
0.000000 0.000000 0.000000 
0.000000 0.000000 0.000000 

0.000000 0.000000 0.000000 
0.000000 -0.000000 0.000000 
0.000000 0.000000 0.000000 

-0.000000 -0.000000 0.000000 
0.000000 0.000000 0.000000 
0.000000 0.000000 0.000000 

-0.000000 -0.000000 0.000000 
0.000000 0.000000 0.000000 
0.000000 0.000000 0.000000 

-0.000000 0.000000 0.000000 
0.000000 0.000000 0.000000 
0.000000 0.000000 0.000000 

0.000000 0.000000 0.000000 
0.000000 0.000000 0.000000 
0.000000 0.000000 0.000000 

0.000000 0.000000 0.000000 
0.000000 -0.000000 0.000000 
0.000000 0.000000 0.000000 

-0.000000 -0.000000 0.000000 
0.000000 -0.000000 0.000000 
0.000000 0.000000 0.000000 

-0.000000 -0.000000 0.000000 
0.000000 0.000000 0.000000 
0.000000 0.000000 0.000000 

-0.000000 -0.000000 0.000000 
0.000000 0.000000 0.000000 
0.000000 0.000000 0.000000 

0.000000 0.000000 0.000000 
0.000000 0.000000 0.000000 
0.000000 0.000000 0.000000 

0.000000 -0.000000 0.000000 
0.000000 -0.000000 0.000000 
0.000000 0.000000 0.000000 

0.000000 0.000000 0.000000 
0.000000 -0.000000 0.000000 
0.000000 0.000000 0.000000 

-0.000000 0.000000 0.000000 
0.000000 -0.000000 0.000000 
0.000000 0.000000 0.000000 

-0.000000 -0.000000 0.000000 
0.000000 -0.000000 0.000000 
0.000000 0.000000 0.000000 

-0.000000 0.000000 0.000000 
0.000000 -0.000000 0.000000 
0.000000 0.000000 0.000000 

-0.000000 -0.000000 0.000000 
0.000000 0.000000 0.000000 
0.000000 0.000000 0.000000 

0.000000 0.000000 0.000000 
0.000000 -0.000000 0.000000 
0.000000 0.000000 0.000000 

-0.000000 -0.000000 0.000000 
0.000000 0.000000 0.000000 
0.000000 0.000000 0.000000 

-0.000000 0.000000 0.000000 
0.000000 0.000000 0.000000 
0.000000 0.000000 0.000000 

-0.000000 -0.000000 0.000000 
0.000000 -0.000000 0.000000 
0.000000 0.000000 0.000000 

-0.000000 0.000000 0.000000 
0.000000 0.000000 0.000000 
0.000000 0.000000 0.000000 

-0.000000 -0.000000 0.000000 
0.000000 -0.000000 0.000000 
0.000000 0.000000 0.000000 

-0.000000 -0.000000 0.000000 
0.000000 -0.000000 0.000000 
0.000000 0.000000 0.000000 

-0.000000 -0.000000 0.000000 
0.000000 -0.000000 0.000000 
0.000000 0.000000 0.000000 

-0.000000 -0.000000 0.000000 
0.000000 -0.000000 0.000000 
0.000000 0.000000 0.000000 

0.000000 -0.000000 0.000000 
0.000000 -0.000000 0.000000 
0.000000 0.000000 0.000000 

0.000000 0.000000 0.000000 
0.000000 0.000000 0.000000 
0.000000 0.000000 0.000000 

0.000000 -0.000000 0.000000 
0.000000 -0.000000 0.000000 
0.000000 0.000000 0.000000 

0.000000 -0.000000 0.000000 
0.000000 -0.000000 0.000000 
0.000000 0.000000 0.000000 

0.000000 0.000000 0.000000 
0.000000 0.000000 0.000000 
0.000000 0.000000 0.000000 

0.000000 -0.000000 0.000000 
0.000000 -0.000000 0.000000 
0.000000 0.000000 0.000000 

-0.000000 0.000000 0.000000 
0.000000 0.000000 0.000000 
0.000000 0.000000 0.000000 

-0.000000 0.000000 0.000000 
0.000000 0.000000 0.000000 
0.000000 0.000000 0.000000 

-0.000000 -0.000000 0.000000 
0.000000 0.000000 0.000000 
0.000000 0.000000 0.000000 

0.000000 -0.000000 0.000000 
0.000000 0.000000 0.000000 
0.000000 0.000000 0.000000 

0.000000 0.000000 0.000000 
0.000000 0.000000 0.000000 
0.000000 0.000000 0.000000 

0.000000 -0.000000 0.000000 
0.000000 0.000000 0.000000 
0.000000 0.000000 0.000000 

0.000000 -0.000000 0.000000 
0.000000 -0.000000 0.000000 
0.000000 0.000000 0.000000 

0.000000 -0.000000 0.000000 
0.000000 0.000000 0.000000 
0.000000 0.000000 0.000000 

-0.000000 -0.000000 0.000000 
0.000000 0.000000 0.000000 
0.000000 0.000000 0.000000 

-0.000000 -0.000000 0.000000 
0.000000 -0.000000 0.000000 
0.000000 0.000000 0.000000 

0.000000 0.000000 0.000000 
0.000000 -0.000000 0.000000 
0.000000 0.000000 0.000000 

0.000000 -0.000000 0.000000 
0.000000 0.000000 0.000000 
0.000000 0.000000 0.000000 

0.000000 0.000000 0.000000 
0.000000 0.000000 0.000000 
0.000000 0.000000 0.000000 

0.000000 0.000000 0.000000 
0.000000 -0.000000 0.000000 
0.000000 0.000000 0.000000 

0.000000 -0.000000 0.000000 
0.000000 0.000000 0.000000 
0.000000 0.000000 0.000000 

-0.000000 -0.000000 0.000000 
0.000000 0.000000 0.000000 
0.000000 0.000000 0.000000 

-0.000000 -0.000000 0.000000 
0.000000 0.000000 0.000000 
0.000000 0.000000 0.000000 

-0.000000 0.000000 0.000000 
0.000000 0.000000 0.000000 
0.000000 0.000000 0.000000 

-0.000000 0.000000 0.000000 
0.000000 -0.000000 0.000000 
0.000000 0.000000 0.000000 

-0.000000 -0.000000 0.000000 
0.000000 -0.000000 0.000000 
0.000000 0.000000 0.000000 

0.000000 -0.000000 0.000000 
0.000000 -0.000000 0.000000 
0.000000 0.000000 0.000000 

-0.000000 0.000000 0.000000 
0.000000 0.000000 0.000000 
0.000000 0.000000 0.000000 

-0.000000 0.000000 0.000000 
0.000000 -0.000000 0.000000 
0.000000 0.000000 0.000000 

-0.000000 0.000000 0.000000 
0.000000 -0.000000 0.000000 
0.000000 0.000000 0.000000 

-0.000000 -0.000000 0.000000 
0.000000 0.000000 0.000000 
0.000000 0.000000 0.000000 

0.000000 0.000000 0.000000 
0.000000 -0.000000 0.000000 
0.000000 0.000000 0.000000 

0.000000 0.000000 0.000000 
0.000000 -0.000000 0.000000 
0.000000 0.000000 0.000000 

-0.000000 -0.000000 0.000000 
0.000000 0.000000 0.000000 
0.000000 0.000000 0.000000 

-0.000000 -0.000000 0.000000 
0.000000 0.000000 0.000000 
0.000000 0.000000 0.000000 

-0.000000 -0.000000 0.000000 
0.000000 -0.000000 0.000000 
0.000000 0.000000 0.000000 

0.000000 -0.000000 0.000000 
0.000000 0.000000 0.000000 
0.000000 0.000000 0.000000 

0.000000 0.000000 0.000000 
0.000000 -0.000000 0.000000 
0.000000 0.000000 0.000000 

0.000000 0.000000 0.000000 
0.000000 0.000000 0.000000 
0.000000 0.000000 0.000000 

0.000000 -0.000000 0.000000 
0.000000 0.000000 0.000000 
0.000000 0.000000 0.000000 

-0.000000 -0.000000 0.000000 
0.000000 0.000000 0.000000 
0.000000 0.000000 0.000000 

-0.000000 -0.000000 0.000000 
0.000000 0.000000 0.000000 
0.000000 0.000000 0.000000 

-0.000000 -0.000000 0.000000 
0.000000 0.000000 0.000000 
0.000000 0.000000 0.000000 

0.000000 0.000000 0.000000 
0.000000 -0.000000 0.000000 
0.000000 0.000000 0.000000 

-0.000000 -0.000000 0.000000 
0.000000 -0.000000 0.000000 
0.000000 0.000000 0.000000 

-0.000000 -0.000000 0.000000 
0.000000 0.000000 0.000000 
0.000000 0.000000 0.000000 

-0.000000 0.000000 0.000000 
0.000000 -0.000000 0.000000 
0.000000 0.000000 0.000000 

-0.000000 0.000000 0.000000 
0.000000 -0.000000 0.000000 
0.000000 0.000000 0.000000 

-0.000000 0.000000 0.000000 
0.000000 -0.000000 0.000000 
0.000000 0.000000 0.000000 

0.000000 -0.000000 0.000000 
0.000000 -0.000000 0.000000 
0.000000 0.000000 0.000000 

0.000000 0.000000 0.000000 
0.000000 0.000000 0.000000 
0.000000 0.000000 0.000000 

-0.000000 0.000000 0.000000 
0.000000 0.000000 0.000000 
0.000000 0.000000 0.000000 

-0.000000 -0.000000 0.000000 
0.000000 0.000000 0.000000 
0.000000 0.000000 0.000000 

-0.000000 0.000000 0.000000 
0.000000 0.000000 0.000000 
0.000000 0.000000 0.000000 

-0.000000 -0.000000 0.000000 
0.000000 0.000000 0.000000 
0.000000 0.000000 0.000000 

0.000000 0.000000 0.000000 
0.000000 0.000000 0.000000 
0.000000 0.000000 0.000000 

0.000000 0.000000 0.000000 
0.000000 -0.000000 0.000000 
0.000000 0.000000 0.000000 

0.000000 -0.000000 0.000000 
0.000000 0.000000 0.000000 
0.000000 0.000000 0.000000 

-0.000000 0.000000 0.000000 
0.000000 0.000000 0.000000 
0.000000 0.000000 0.000000 

-0.000000 0.000000 0.000000 
0.000000 -0.000000 0.000000 
0.000000 0.000000 0.000000 

-0.000000 -0.000000 0.000000 
0.000000 -0.000000 0.000000 
0.000000 0.000000 0.000000 

-0.000000 0.000000 0.000000 
0.000000 -0.000000 0.000000 
0.000000 0.000000 0.000000 

-0.000000 0.000000 0.000000 
0.000000 -0.000000 0.000000 
0.000000 0.000000 0.000000 

0.000000 0.000000 0.000000 
0.000000 0.000000 0.000000 
0.000000 0.000000 0.000000 

0.000000 -0.000000 0.000000 
0.000000 0.000000 0.000000 
0.000000 0.000000 0.000000 

