# vtk DataFile Version 3.0 
vtk output 
ASCII 
DATASET UNSTRUCTURED_GRID 
POINTS 175 float 
-0.026061 -1.325987 0.000000 
-0.106992 -1.257931 0.000000 
-0.054870 -1.266164 0.000000 
-0.028809 -1.220280 0.000000 
-0.186430 -1.193856 0.000000 
-0.137056 -1.196382 0.000000 
-0.114311 -1.142735 0.000000 
-0.058186 -1.158400 0.000000 
-0.029377 -1.118223 0.000000 
-0.265318 -1.130700 0.000000 
-0.217198 -1.131500 0.000000 
-0.196633 -1.074203 0.000000 
-0.143120 -1.082912 0.000000 
-0.116563 -1.035643 0.000000 
-0.058945 -1.055289 0.000000 
-0.029568 -1.017169 0.000000 
-0.344206 -1.067544 0.000000 
-0.296791 -1.067537 0.000000 
-0.278030 -1.007594 0.000000 
-0.225992 -1.013461 0.000000 
-0.201664 -0.961344 0.000000 
-0.145749 -0.974818 0.000000 
-0.117890 -0.930475 0.000000 
-0.059328 -0.953181 0.000000 
-0.029759 -0.916115 0.000000 
-0.058559 -1.366738 0.000000 
-0.162226 -1.387580 0.000000 
-0.123292 -1.351962 0.000000 
-0.142917 -1.302979 0.000000 
-0.261851 -1.409737 0.000000 
-0.229092 -1.372709 0.000000 
-0.256854 -1.321478 0.000000 
-0.209613 -1.287365 0.000000 
-0.223062 -1.239791 0.000000 
-0.360414 -1.432037 0.000000 
-0.329787 -1.394914 0.000000 
-0.361761 -1.343112 0.000000 
-0.321587 -1.306703 0.000000 
-0.341985 -1.256469 0.000000 
-0.290702 -1.223670 0.000000 
-0.302189 -1.176935 0.000000 
-0.458977 -1.454337 0.000000 
-0.429420 -1.417262 0.000000 
-0.464588 -1.365220 0.000000 
-0.427556 -1.328193 0.000000 
-0.453135 -1.276678 0.000000 
-0.407738 -1.241363 0.000000 
-0.425037 -1.191935 0.000000 
-0.370772 -1.160306 0.000000 
-0.381315 -1.114078 0.000000 
-0.046960 -1.417553 0.000000 
-0.095301 -1.511599 0.000000 
-0.098873 -1.458951 0.000000 
-0.149405 -1.443754 0.000000 
-0.140093 -1.603303 0.000000 
-0.148617 -1.554604 0.000000 
-0.205981 -1.544367 0.000000 
-0.203197 -1.486164 0.000000 
-0.248777 -1.467017 0.000000 
-0.184111 -1.694266 0.000000 
-0.194039 -1.647175 0.000000 
-0.254475 -1.639876 0.000000 
-0.257893 -1.585766 0.000000 
-0.309886 -1.570393 0.000000 
-0.303554 -1.509848 0.000000 
-0.347255 -1.489690 0.000000 
-0.228129 -1.785230 0.000000 
-0.238687 -1.739006 0.000000 
-0.301302 -1.734054 0.000000 
-0.307162 -1.682015 0.000000 
-0.363386 -1.669894 0.000000 
-0.362692 -1.612382 0.000000 
-0.412122 -1.595089 0.000000 
-0.403017 -1.532942 0.000000 
-0.445733 -1.512364 0.000000 
-0.000000 -1.440168 0.000000 
0.043388 -1.536598 0.000000 
-0.000000 -1.506566 0.000000 
-0.043388 -1.536598 0.000000 
0.087158 -1.628795 0.000000 
0.043769 -1.605096 0.000000 
-0.000000 -1.643562 0.000000 
-0.043769 -1.605096 0.000000 
-0.087158 -1.628795 0.000000 
0.130831 -1.719925 0.000000 
0.087824 -1.698326 0.000000 
0.044436 -1.741026 0.000000 
-0.000000 -1.709960 0.000000 
-0.044436 -1.741026 0.000000 
-0.087824 -1.698326 0.000000 
-0.130831 -1.719925 0.000000 
0.174505 -1.811054 0.000000 
0.131782 -1.790488 0.000000 
0.088871 -1.836355 0.000000 
0.044532 -1.808491 0.000000 
-0.000000 -1.844891 0.000000 
-0.044532 -1.808491 0.000000 
-0.088871 -1.836355 0.000000 
-0.131782 -1.790488 0.000000 
-0.174505 -1.811054 0.000000 
0.046960 -1.417553 0.000000 
0.149405 -1.443754 0.000000 
0.098873 -1.458951 0.000000 
0.095301 -1.511599 0.000000 
0.248777 -1.467017 0.000000 
0.203197 -1.486164 0.000000 
0.205981 -1.544367 0.000000 
0.148617 -1.554604 0.000000 
0.140093 -1.603303 0.000000 
0.347255 -1.489690 0.000000 
0.303554 -1.509848 0.000000 
0.309886 -1.570393 0.000000 
0.257893 -1.585766 0.000000 
0.254475 -1.639876 0.000000 
0.194039 -1.647175 0.000000 
0.184111 -1.694266 0.000000 
0.445733 -1.512364 0.000000 
0.403017 -1.532942 0.000000 
0.412122 -1.595089 0.000000 
0.362692 -1.612382 0.000000 
0.363386 -1.669894 0.000000 
0.307162 -1.682015 0.000000 
0.301302 -1.734054 0.000000 
0.238687 -1.739006 0.000000 
0.228129 -1.785230 0.000000 
0.058559 -1.366738 0.000000 
0.142917 -1.302979 0.000000 
0.123292 -1.351962 0.000000 
0.162226 -1.387580 0.000000 
0.223062 -1.239791 0.000000 
0.209613 -1.287365 0.000000 
0.256854 -1.321478 0.000000 
0.229092 -1.372709 0.000000 
0.261851 -1.409737 0.000000 
0.302189 -1.176935 0.000000 
0.290702 -1.223670 0.000000 
0.341985 -1.256469 0.000000 
0.321587 -1.306703 0.000000 
0.361761 -1.343112 0.000000 
0.329787 -1.394914 0.000000 
0.360414 -1.432037 0.000000 
0.381315 -1.114078 0.000000 
0.370772 -1.160306 0.000000 
0.425037 -1.191935 0.000000 
0.407738 -1.241363 0.000000 
0.453135 -1.276678 0.000000 
0.427556 -1.328193 0.000000 
0.464588 -1.365220 0.000000 
0.429420 -1.417262 0.000000 
0.458977 -1.454337 0.000000 
0.026061 -1.325987 0.000000 
0.028809 -1.220280 0.000000 
0.054870 -1.266164 0.000000 
0.106992 -1.257931 0.000000 
0.029377 -1.118223 0.000000 
0.058186 -1.158400 0.000000 
0.114311 -1.142735 0.000000 
0.137056 -1.196382 0.000000 
0.186430 -1.193856 0.000000 
0.029568 -1.017169 0.000000 
0.058945 -1.055289 0.000000 
0.116563 -1.035643 0.000000 
0.143120 -1.082912 0.000000 
0.196633 -1.074203 0.000000 
0.217198 -1.131500 0.000000 
0.265318 -1.130700 0.000000 
0.029759 -0.916115 0.000000 
0.059328 -0.953181 0.000000 
0.117890 -0.930475 0.000000 
0.145749 -0.974818 0.000000 
0.201664 -0.961344 0.000000 
0.225992 -1.013461 0.000000 
0.278030 -1.007594 0.000000 
0.296791 -1.067537 0.000000 
0.344206 -1.067544 0.000000 
CELLS 175 350 
1 0 
1 1 
1 2 
1 3 
1 4 
1 5 
1 6 
1 7 
1 8 
1 9 
1 10 
1 11 
1 12 
1 13 
1 14 
1 15 
1 16 
1 17 
1 18 
1 19 
1 20 
1 21 
1 22 
1 23 
1 24 
1 25 
1 26 
1 27 
1 28 
1 29 
1 30 
1 31 
1 32 
1 33 
1 34 
1 35 
1 36 
1 37 
1 38 
1 39 
1 40 
1 41 
1 42 
1 43 
1 44 
1 45 
1 46 
1 47 
1 48 
1 49 
1 50 
1 51 
1 52 
1 53 
1 54 
1 55 
1 56 
1 57 
1 58 
1 59 
1 60 
1 61 
1 62 
1 63 
1 64 
1 65 
1 66 
1 67 
1 68 
1 69 
1 70 
1 71 
1 72 
1 73 
1 74 
1 75 
1 76 
1 77 
1 78 
1 79 
1 80 
1 81 
1 82 
1 83 
1 84 
1 85 
1 86 
1 87 
1 88 
1 89 
1 90 
1 91 
1 92 
1 93 
1 94 
1 95 
1 96 
1 97 
1 98 
1 99 
1 100 
1 101 
1 102 
1 103 
1 104 
1 105 
1 106 
1 107 
1 108 
1 109 
1 110 
1 111 
1 112 
1 113 
1 114 
1 115 
1 116 
1 117 
1 118 
1 119 
1 120 
1 121 
1 122 
1 123 
1 124 
1 125 
1 126 
1 127 
1 128 
1 129 
1 130 
1 131 
1 132 
1 133 
1 134 
1 135 
1 136 
1 137 
1 138 
1 139 
1 140 
1 141 
1 142 
1 143 
1 144 
1 145 
1 146 
1 147 
1 148 
1 149 
1 150 
1 151 
1 152 
1 153 
1 154 
1 155 
1 156 
1 157 
1 158 
1 159 
1 160 
1 161 
1 162 
1 163 
1 164 
1 165 
1 166 
1 167 
1 168 
1 169 
1 170 
1 171 
1 172 
1 173 
1 174 
CELL_TYPES 175 
1 
1 
1 
1 
1 
1 
1 
1 
1 
1 
1 
1 
1 
1 
1 
1 
1 
1 
1 
1 
1 
1 
1 
1 
1 
1 
1 
1 
1 
1 
1 
1 
1 
1 
1 
1 
1 
1 
1 
1 
1 
1 
1 
1 
1 
1 
1 
1 
1 
1 
1 
1 
1 
1 
1 
1 
1 
1 
1 
1 
1 
1 
1 
1 
1 
1 
1 
1 
1 
1 
1 
1 
1 
1 
1 
1 
1 
1 
1 
1 
1 
1 
1 
1 
1 
1 
1 
1 
1 
1 
1 
1 
1 
1 
1 
1 
1 
1 
1 
1 
1 
1 
1 
1 
1 
1 
1 
1 
1 
1 
1 
1 
1 
1 
1 
1 
1 
1 
1 
1 
1 
1 
1 
1 
1 
1 
1 
1 
1 
1 
1 
1 
1 
1 
1 
1 
1 
1 
1 
1 
1 
1 
1 
1 
1 
1 
1 
1 
1 
1 
1 
1 
1 
1 
1 
1 
1 
1 
1 
1 
1 
1 
1 
1 
1 
1 
1 
1 
1 
1 
1 
1 
1 
1 
1 
POINT_DATA 175 
VECTORS X_GC float 
-0.026061 -1.325987 0.000000 
-0.106992 -1.257931 0.000000 
-0.054870 -1.266164 0.000000 
-0.028809 -1.220280 0.000000 
-0.186430 -1.193856 0.000000 
-0.137056 -1.196382 0.000000 
-0.114311 -1.142735 0.000000 
-0.058186 -1.158400 0.000000 
-0.029377 -1.118223 0.000000 
-0.265318 -1.130700 0.000000 
-0.217198 -1.131500 0.000000 
-0.196633 -1.074203 0.000000 
-0.143120 -1.082912 0.000000 
-0.116563 -1.035643 0.000000 
-0.058945 -1.055289 0.000000 
-0.029568 -1.017169 0.000000 
-0.344206 -1.067544 0.000000 
-0.296791 -1.067537 0.000000 
-0.278030 -1.007594 0.000000 
-0.225992 -1.013461 0.000000 
-0.201664 -0.961344 0.000000 
-0.145749 -0.974818 0.000000 
-0.117890 -0.930475 0.000000 
-0.059328 -0.953181 0.000000 
-0.029759 -0.916115 0.000000 
-0.058559 -1.366738 0.000000 
-0.162226 -1.387580 0.000000 
-0.123292 -1.351962 0.000000 
-0.142917 -1.302979 0.000000 
-0.261851 -1.409737 0.000000 
-0.229092 -1.372709 0.000000 
-0.256854 -1.321478 0.000000 
-0.209613 -1.287365 0.000000 
-0.223062 -1.239791 0.000000 
-0.360414 -1.432037 0.000000 
-0.329787 -1.394914 0.000000 
-0.361761 -1.343112 0.000000 
-0.321587 -1.306703 0.000000 
-0.341985 -1.256469 0.000000 
-0.290702 -1.223670 0.000000 
-0.302189 -1.176935 0.000000 
-0.458977 -1.454337 0.000000 
-0.429420 -1.417262 0.000000 
-0.464588 -1.365220 0.000000 
-0.427556 -1.328193 0.000000 
-0.453135 -1.276678 0.000000 
-0.407738 -1.241363 0.000000 
-0.425037 -1.191935 0.000000 
-0.370772 -1.160306 0.000000 
-0.381315 -1.114078 0.000000 
-0.046960 -1.417553 0.000000 
-0.095301 -1.511599 0.000000 
-0.098873 -1.458951 0.000000 
-0.149405 -1.443754 0.000000 
-0.140093 -1.603303 0.000000 
-0.148617 -1.554604 0.000000 
-0.205981 -1.544367 0.000000 
-0.203197 -1.486164 0.000000 
-0.248777 -1.467017 0.000000 
-0.184111 -1.694266 0.000000 
-0.194039 -1.647175 0.000000 
-0.254475 -1.639876 0.000000 
-0.257893 -1.585766 0.000000 
-0.309886 -1.570393 0.000000 
-0.303554 -1.509848 0.000000 
-0.347255 -1.489690 0.000000 
-0.228129 -1.785230 0.000000 
-0.238687 -1.739006 0.000000 
-0.301302 -1.734054 0.000000 
-0.307162 -1.682015 0.000000 
-0.363386 -1.669894 0.000000 
-0.362692 -1.612382 0.000000 
-0.412122 -1.595089 0.000000 
-0.403017 -1.532942 0.000000 
-0.445733 -1.512364 0.000000 
-0.000000 -1.440168 0.000000 
0.043388 -1.536598 0.000000 
-0.000000 -1.506566 0.000000 
-0.043388 -1.536598 0.000000 
0.087158 -1.628795 0.000000 
0.043769 -1.605096 0.000000 
-0.000000 -1.643562 0.000000 
-0.043769 -1.605096 0.000000 
-0.087158 -1.628795 0.000000 
0.130831 -1.719925 0.000000 
0.087824 -1.698326 0.000000 
0.044436 -1.741026 0.000000 
-0.000000 -1.709960 0.000000 
-0.044436 -1.741026 0.000000 
-0.087824 -1.698326 0.000000 
-0.130831 -1.719925 0.000000 
0.174505 -1.811054 0.000000 
0.131782 -1.790488 0.000000 
0.088871 -1.836355 0.000000 
0.044532 -1.808491 0.000000 
-0.000000 -1.844891 0.000000 
-0.044532 -1.808491 0.000000 
-0.088871 -1.836355 0.000000 
-0.131782 -1.790488 0.000000 
-0.174505 -1.811054 0.000000 
0.046960 -1.417553 0.000000 
0.149405 -1.443754 0.000000 
0.098873 -1.458951 0.000000 
0.095301 -1.511599 0.000000 
0.248777 -1.467017 0.000000 
0.203197 -1.486164 0.000000 
0.205981 -1.544367 0.000000 
0.148617 -1.554604 0.000000 
0.140093 -1.603303 0.000000 
0.347255 -1.489690 0.000000 
0.303554 -1.509848 0.000000 
0.309886 -1.570393 0.000000 
0.257893 -1.585766 0.000000 
0.254475 -1.639876 0.000000 
0.194039 -1.647175 0.000000 
0.184111 -1.694266 0.000000 
0.445733 -1.512364 0.000000 
0.403017 -1.532942 0.000000 
0.412122 -1.595089 0.000000 
0.362692 -1.612382 0.000000 
0.363386 -1.669894 0.000000 
0.307162 -1.682015 0.000000 
0.301302 -1.734054 0.000000 
0.238687 -1.739006 0.000000 
0.228129 -1.785230 0.000000 
0.058559 -1.366738 0.000000 
0.142917 -1.302979 0.000000 
0.123292 -1.351962 0.000000 
0.162226 -1.387580 0.000000 
0.223062 -1.239791 0.000000 
0.209613 -1.287365 0.000000 
0.256854 -1.321478 0.000000 
0.229092 -1.372709 0.000000 
0.261851 -1.409737 0.000000 
0.302189 -1.176935 0.000000 
0.290702 -1.223670 0.000000 
0.341985 -1.256469 0.000000 
0.321587 -1.306703 0.000000 
0.361761 -1.343112 0.000000 
0.329787 -1.394914 0.000000 
0.360414 -1.432037 0.000000 
0.381315 -1.114078 0.000000 
0.370772 -1.160306 0.000000 
0.425037 -1.191935 0.000000 
0.407738 -1.241363 0.000000 
0.453135 -1.276678 0.000000 
0.427556 -1.328193 0.000000 
0.464588 -1.365220 0.000000 
0.429420 -1.417262 0.000000 
0.458977 -1.454337 0.000000 
0.026061 -1.325987 0.000000 
0.028809 -1.220280 0.000000 
0.054870 -1.266164 0.000000 
0.106992 -1.257931 0.000000 
0.029377 -1.118223 0.000000 
0.058186 -1.158400 0.000000 
0.114311 -1.142735 0.000000 
0.137056 -1.196382 0.000000 
0.186430 -1.193856 0.000000 
0.029568 -1.017169 0.000000 
0.058945 -1.055289 0.000000 
0.116563 -1.035643 0.000000 
0.143120 -1.082912 0.000000 
0.196633 -1.074203 0.000000 
0.217198 -1.131500 0.000000 
0.265318 -1.130700 0.000000 
0.029759 -0.916115 0.000000 
0.059328 -0.953181 0.000000 
0.117890 -0.930475 0.000000 
0.145749 -0.974818 0.000000 
0.201664 -0.961344 0.000000 
0.225992 -1.013461 0.000000 
0.278030 -1.007594 0.000000 
0.296791 -1.067537 0.000000 
0.344206 -1.067544 0.000000 
VECTORS X_EC float 
0.338794 0.400822 0.000000 
-0.609100 -0.517927 0.000000 
0.713312 -0.406786 0.000000 
0.374519 0.973785 0.000000 
0.423588 0.617054 0.000000 
-0.218274 0.651158 0.000000 
-0.513962 -0.073081 0.000000 
0.756418 0.138405 0.000000 
0.381900 -0.403987 0.000000 
-0.550868 -0.235549 0.000000 
0.823577 -0.224753 0.000000 
0.556234 -0.998257 0.000000 
-0.139443 -0.880689 0.000000 
-0.484677 0.481187 0.000000 
0.766286 0.746402 0.000000 
0.384386 0.231782 0.000000 
0.474677 0.911848 0.000000 
-0.141715 0.911751 0.000000 
-0.385608 0.102523 0.000000 
0.937896 0.181719 0.000000 
0.621631 -0.521861 0.000000 
-0.105264 -0.339962 0.000000 
-0.467428 -0.938588 0.000000 
0.771260 -0.632060 0.000000 
0.386873 0.867551 0.000000 
0.761262 0.950956 0.000000 
0.108942 -0.767667 0.000000 
-0.397202 0.751494 0.000000 
-0.142083 0.090218 0.000000 
-0.595936 -0.468556 0.000000 
0.978194 -0.968422 0.000000 
-0.660903 0.339953 0.000000 
0.724964 -0.120567 0.000000 
0.899809 -0.762816 0.000000 
0.685384 -0.167504 0.000000 
0.287229 -0.668663 0.000000 
0.702895 0.632009 0.000000 
0.180633 0.140490 0.000000 
0.445811 -0.537669 0.000000 
-0.220880 -0.980455 0.000000 
-0.071546 0.388619 0.000000 
-0.033296 0.133548 0.000000 
-0.417537 -0.366962 0.000000 
0.039645 0.930476 0.000000 
-0.441768 0.430605 0.000000 
-0.109248 -0.264846 0.000000 
-0.699407 -0.741601 0.000000 
-0.474522 0.591119 0.000000 
0.820030 0.164126 0.000000 
0.957100 -0.459946 0.000000 
0.610485 -0.363037 0.000000 
-0.761092 0.906582 0.000000 
-0.714655 0.195845 0.000000 
-0.057734 -0.009323 0.000000 
-0.178789 0.144586 0.000000 
-0.067979 -0.512840 0.000000 
0.677748 -0.651043 0.000000 
0.641556 0.563212 0.000000 
-0.765897 0.304733 0.000000 
0.393446 -0.627405 0.000000 
0.522510 0.736865 0.000000 
-0.691820 0.638321 0.000000 
-0.647393 -0.092161 0.000000 
0.028512 -0.299688 0.000000 
-0.053800 0.882952 0.000000 
0.514316 0.610821 0.000000 
0.965681 0.600604 0.000000 
-0.897068 -0.023424 0.000000 
-0.083078 -0.090277 0.000000 
-0.006893 -0.792802 0.000000 
0.724017 -0.956435 0.000000 
0.714996 0.267162 0.000000 
-0.642413 0.033704 0.000000 
-0.760780 -0.805276 0.000000 
-0.205471 0.916908 0.000000 
0.000000 -0.057736 0.000000 
-0.564049 -0.755923 0.000000 
0.000000 0.838641 0.000000 
0.564049 -0.755923 0.000000 
0.866949 0.488732 0.000000 
-0.569003 0.168801 0.000000 
0.000000 0.688089 0.000000 
0.569003 0.168801 0.000000 
-0.866949 0.488732 0.000000 
0.299194 -0.281017 0.000000 
0.858290 -0.572601 0.000000 
-0.577662 0.003844 0.000000 
0.000000 -0.415534 0.000000 
0.577662 0.003844 0.000000 
-0.858290 -0.572601 0.000000 
-0.299194 -0.281017 0.000000 
-0.268560 0.949233 0.000000 
0.286830 0.671591 0.000000 
0.844677 -0.709211 0.000000 
-0.578910 0.914627 0.000000 
0.000000 -0.593970 0.000000 
0.578910 0.914627 0.000000 
-0.844677 -0.709211 0.000000 
-0.286830 0.671591 0.000000 
0.268560 0.949233 0.000000 
-0.610485 -0.363037 0.000000 
0.057734 -0.009323 0.000000 
0.714655 0.195845 0.000000 
0.761092 0.906582 0.000000 
0.765897 0.304733 0.000000 
-0.641556 0.563212 0.000000 
-0.677748 -0.651043 0.000000 
0.067979 -0.512840 0.000000 
0.178789 0.144586 0.000000 
-0.514316 0.610821 0.000000 
0.053800 0.882952 0.000000 
-0.028512 -0.299688 0.000000 
0.647393 -0.092161 0.000000 
0.691820 0.638321 0.000000 
-0.522510 0.736865 0.000000 
-0.393446 -0.627405 0.000000 
0.205471 0.916908 0.000000 
0.760780 -0.805276 0.000000 
0.642413 0.033704 0.000000 
-0.714996 0.267162 0.000000 
-0.724017 -0.956435 0.000000 
0.006894 -0.792802 0.000000 
0.083078 -0.090277 0.000000 
0.897068 -0.023424 0.000000 
-0.965681 0.600605 0.000000 
-0.761262 0.950956 0.000000 
0.142083 0.090218 0.000000 
0.397202 0.751494 0.000000 
-0.108942 -0.767667 0.000000 
-0.899809 -0.762816 0.000000 
-0.724964 -0.120567 0.000000 
0.660903 0.339953 0.000000 
-0.978194 -0.968422 0.000000 
0.595936 -0.468556 0.000000 
0.071546 0.388619 0.000000 
0.220880 -0.980455 0.000000 
-0.445811 -0.537669 0.000000 
-0.180633 0.140490 0.000000 
-0.702895 0.632009 0.000000 
-0.287229 -0.668663 0.000000 
-0.685384 -0.167504 0.000000 
-0.957100 -0.459946 0.000000 
-0.820030 0.164126 0.000000 
0.474522 0.591119 0.000000 
0.699407 -0.741601 0.000000 
0.109248 -0.264846 0.000000 
0.441768 0.430605 0.000000 
-0.039645 0.930476 0.000000 
0.417537 -0.366962 0.000000 
0.033296 0.133548 0.000000 
-0.338794 0.400822 0.000000 
-0.374519 0.973785 0.000000 
-0.713312 -0.406786 0.000000 
0.609100 -0.517927 0.000000 
-0.381900 -0.403987 0.000000 
-0.756418 0.138405 0.000000 
0.513962 -0.073081 0.000000 
0.218274 0.651158 0.000000 
-0.423588 0.617054 0.000000 
-0.384386 0.231782 0.000000 
-0.766286 0.746402 0.000000 
0.484677 0.481187 0.000000 
0.139443 -0.880689 0.000000 
-0.556234 -0.998257 0.000000 
-0.823577 -0.224753 0.000000 
0.550868 -0.235549 0.000000 
-0.386873 0.867551 0.000000 
-0.771260 -0.632060 0.000000 
0.467428 -0.938588 0.000000 
0.105264 -0.339962 0.000000 
-0.621631 -0.521861 0.000000 
-0.937896 0.181719 0.000000 
0.385608 0.102523 0.000000 
0.141715 0.911751 0.000000 
-0.474677 0.911848 0.000000 
CELL_DATA 175 
SCALARS MASS float 
LOOKUP_TABLE default 
0.078183 
0.086427 
0.094672 
0.086427 
0.088131 
0.092111 
0.085854 
0.092111 
0.088131 
0.088705 
0.091000 
0.086983 
0.091556 
0.086983 
0.091000 
0.088705 
0.089278 
0.091574 
0.089278 
0.092722 
0.089278 
0.092722 
0.089278 
0.091574 
0.089278 
0.078183 
0.086427 
0.094672 
0.086427 
0.088131 
0.092111 
0.085854 
0.092111 
0.088131 
0.088705 
0.091000 
0.086983 
0.091556 
0.086983 
0.091000 
0.088705 
0.089278 
0.091574 
0.089278 
0.092722 
0.089278 
0.092722 
0.089278 
0.091574 
0.089278 
0.078183 
0.086427 
0.094672 
0.086427 
0.088131 
0.092111 
0.085854 
0.092111 
0.088131 
0.088705 
0.091000 
0.086983 
0.091556 
0.086983 
0.091000 
0.088705 
0.089278 
0.091574 
0.089278 
0.092722 
0.089278 
0.092722 
0.089278 
0.091574 
0.089278 
0.078183 
0.086427 
0.094672 
0.086427 
0.088131 
0.092111 
0.085854 
0.092111 
0.088131 
0.088705 
0.091000 
0.086983 
0.091556 
0.086983 
0.091000 
0.088705 
0.089278 
0.091574 
0.089278 
0.092722 
0.089278 
0.092722 
0.089278 
0.091574 
0.089278 
0.078183 
0.086427 
0.094672 
0.086427 
0.088131 
0.092111 
0.085854 
0.092111 
0.088131 
0.088705 
0.091000 
0.086983 
0.091556 
0.086983 
0.091000 
0.088705 
0.089278 
0.091574 
0.089278 
0.092722 
0.089278 
0.092722 
0.089278 
0.091574 
0.089278 
0.078183 
0.086427 
0.094672 
0.086427 
0.088131 
0.092111 
0.085854 
0.092111 
0.088131 
0.088705 
0.091000 
0.086983 
0.091556 
0.086983 
0.091000 
0.088705 
0.089278 
0.091574 
0.089278 
0.092722 
0.089278 
0.092722 
0.089278 
0.091574 
0.089278 
0.078183 
0.086427 
0.094672 
0.086427 
0.088131 
0.092111 
0.085854 
0.092111 
0.088131 
0.088705 
0.091000 
0.086983 
0.091556 
0.086983 
0.091000 
0.088705 
0.089278 
0.091574 
0.089278 
0.092722 
0.089278 
0.092722 
0.089278 
0.091574 
0.089278 
SCALARS MASS float 
LOOKUP_TABLE default 
0.078183 
0.086427 
0.094672 
0.086427 
0.088131 
0.092111 
0.085854 
0.092111 
0.088131 
0.088705 
0.091000 
0.086983 
0.091556 
0.086983 
0.091000 
0.088705 
0.089278 
0.091574 
0.089278 
0.092722 
0.089278 
0.092722 
0.089278 
0.091574 
0.089278 
0.078183 
0.086427 
0.094672 
0.086427 
0.088131 
0.092111 
0.085854 
0.092111 
0.088131 
0.088705 
0.091000 
0.086983 
0.091556 
0.086983 
0.091000 
0.088705 
0.089278 
0.091574 
0.089278 
0.092722 
0.089278 
0.092722 
0.089278 
0.091574 
0.089278 
0.078183 
0.086427 
0.094672 
0.086427 
0.088131 
0.092111 
0.085854 
0.092111 
0.088131 
0.088705 
0.091000 
0.086983 
0.091556 
0.086983 
0.091000 
0.088705 
0.089278 
0.091574 
0.089278 
0.092722 
0.089278 
0.092722 
0.089278 
0.091574 
0.089278 
0.078183 
0.086427 
0.094672 
0.086427 
0.088131 
0.092111 
0.085854 
0.092111 
0.088131 
0.088705 
0.091000 
0.086983 
0.091556 
0.086983 
0.091000 
0.088705 
0.089278 
0.091574 
0.089278 
0.092722 
0.089278 
0.092722 
0.089278 
0.091574 
0.089278 
0.078183 
0.086427 
0.094672 
0.086427 
0.088131 
0.092111 
0.085854 
0.092111 
0.088131 
0.088705 
0.091000 
0.086983 
0.091556 
0.086983 
0.091000 
0.088705 
0.089278 
0.091574 
0.089278 
0.092722 
0.089278 
0.092722 
0.089278 
0.091574 
0.089278 
0.078183 
0.086427 
0.094672 
0.086427 
0.088131 
0.092111 
0.085854 
0.092111 
0.088131 
0.088705 
0.091000 
0.086983 
0.091556 
0.086983 
0.091000 
0.088705 
0.089278 
0.091574 
0.089278 
0.092722 
0.089278 
0.092722 
0.089278 
0.091574 
0.089278 
0.078183 
0.086427 
0.094672 
0.086427 
0.088131 
0.092111 
0.085854 
0.092111 
0.088131 
0.088705 
0.091000 
0.086983 
0.091556 
0.086983 
0.091000 
0.088705 
0.089278 
0.091574 
0.089278 
0.092722 
0.089278 
0.092722 
0.089278 
0.091574 
0.089278 
SCALARS DENSITY float 
LOOKUP_TABLE default 
20.000000 
20.000000 
20.000000 
20.000000 
20.000000 
20.000000 
20.000000 
20.000000 
20.000000 
20.000000 
20.000000 
20.000000 
20.000000 
20.000000 
20.000000 
20.000000 
20.000000 
20.000000 
20.000000 
20.000000 
20.000000 
20.000000 
20.000000 
20.000000 
20.000000 
20.000000 
20.000000 
20.000000 
20.000000 
20.000000 
20.000000 
20.000000 
20.000000 
20.000000 
20.000000 
20.000000 
20.000000 
20.000000 
20.000000 
20.000000 
20.000000 
20.000000 
20.000000 
20.000000 
20.000000 
20.000000 
20.000000 
20.000000 
20.000000 
20.000000 
20.000000 
20.000000 
20.000000 
20.000000 
20.000000 
20.000000 
20.000000 
20.000000 
20.000000 
20.000000 
20.000000 
20.000000 
20.000000 
20.000000 
20.000000 
20.000000 
20.000000 
20.000000 
20.000000 
20.000000 
20.000000 
20.000000 
20.000000 
20.000000 
20.000000 
20.000000 
20.000000 
20.000000 
20.000000 
20.000000 
20.000000 
20.000000 
20.000000 
20.000000 
20.000000 
20.000000 
20.000000 
20.000000 
20.000000 
20.000000 
20.000000 
20.000000 
20.000000 
20.000000 
20.000000 
20.000000 
20.000000 
20.000000 
20.000000 
20.000000 
20.000000 
20.000000 
20.000000 
20.000000 
20.000000 
20.000000 
20.000000 
20.000000 
20.000000 
20.000000 
20.000000 
20.000000 
20.000000 
20.000000 
20.000000 
20.000000 
20.000000 
20.000000 
20.000000 
20.000000 
20.000000 
20.000000 
20.000000 
20.000000 
20.000000 
20.000000 
20.000000 
20.000000 
20.000000 
20.000000 
20.000000 
20.000000 
20.000000 
20.000000 
20.000000 
20.000000 
20.000000 
20.000000 
20.000000 
20.000000 
20.000000 
20.000000 
20.000000 
20.000000 
20.000000 
20.000000 
20.000000 
20.000000 
20.000000 
20.000000 
20.000000 
20.000000 
20.000000 
20.000000 
20.000000 
20.000000 
20.000000 
20.000000 
20.000000 
20.000000 
20.000000 
20.000000 
20.000000 
20.000000 
20.000000 
20.000000 
20.000000 
20.000000 
20.000000 
20.000000 
20.000000 
20.000000 
20.000000 
20.000000 
20.000000 
SCALARS ELEM_i float 
LOOKUP_TABLE default 
173 
200 
173 
174 
201 
201 
201 
174 
174 
228 
201 
201 
201 
202 
175 
175 
229 
229 
229 
202 
202 
202 
202 
175 
176 
173 
199 
200 
200 
226 
199 
227 
200 
200 
226 
226 
227 
227 
227 
227 
228 
253 
253 
254 
254 
254 
254 
255 
228 
228 
172 
199 
199 
199 
198 
198 
198 
199 
226 
197 
198 
225 
225 
225 
226 
226 
197 
224 
224 
224 
224 
225 
252 
252 
253 
172 
171 
172 
171 
144 
171 
171 
171 
198 
143 
143 
170 
170 
170 
197 
197 
143 
143 
142 
170 
169 
170 
196 
197 
197 
172 
145 
145 
145 
118 
145 
144 
144 
144 
118 
118 
117 
117 
117 
144 
143 
91 
90 
90 
117 
116 
116 
116 
116 
143 
173 
146 
146 
145 
146 
146 
119 
145 
118 
120 
119 
119 
119 
119 
118 
118 
120 
120 
93 
92 
92 
92 
92 
91 
91 
173 
174 
173 
146 
174 
174 
147 
147 
147 
175 
175 
148 
147 
147 
147 
120 
176 
175 
148 
148 
148 
148 
121 
121 
121 
VECTORS VELOCITY float 
0.000000 -5.203224 0.000000 
0.000000 -5.203224 0.000000 
0.000000 -5.203224 0.000000 
0.000000 -5.203224 0.000000 
0.000000 -5.203224 0.000000 
0.000000 -5.203224 0.000000 
0.000000 -5.203224 0.000000 
0.000000 -5.203224 0.000000 
0.000000 -5.203224 0.000000 
0.000000 -5.203224 0.000000 
-0.000000 -5.203224 0.000000 
-0.000000 -5.203224 0.000000 
0.000000 -5.203224 0.000000 
-0.000000 -5.203224 0.000000 
0.000000 -5.203224 0.000000 
0.000000 -5.203224 0.000000 
0.000000 -5.203224 0.000000 
-0.000000 -5.203224 0.000000 
0.000000 -5.203224 0.000000 
0.000000 -5.203224 0.000000 
-0.000000 -5.203224 0.000000 
0.000000 -5.203224 0.000000 
0.000000 -5.203224 0.000000 
-0.000000 -5.203224 0.000000 
-0.000000 -5.203224 0.000000 
-0.000000 -5.203224 0.000000 
-0.000000 -5.203224 0.000000 
-0.000000 -5.203224 0.000000 
-0.000000 -5.203224 0.000000 
0.000000 -5.203224 0.000000 
0.000000 -5.203224 0.000000 
-0.000000 -5.203224 0.000000 
-0.000000 -5.203224 0.000000 
-0.000000 -5.203224 0.000000 
0.000000 -5.203224 0.000000 
0.000000 -5.203224 0.000000 
-0.000000 -5.203224 0.000000 
-0.000000 -5.203224 0.000000 
-0.000000 -5.203224 0.000000 
-0.000000 -5.203224 0.000000 
0.000000 -5.203224 0.000000 
-0.000000 -5.203224 0.000000 
0.000000 -5.203224 0.000000 
0.000000 -5.203224 0.000000 
0.000000 -5.203224 0.000000 
0.000000 -5.203224 0.000000 
-0.000000 -5.203224 0.000000 
-0.000000 -5.203224 0.000000 
0.000000 -5.203224 0.000000 
0.000000 -5.203224 0.000000 
-0.000000 -5.203224 0.000000 
0.000000 -5.203224 0.000000 
-0.000000 -5.203224 0.000000 
0.000000 -5.203224 0.000000 
-0.000000 -5.203224 0.000000 
-0.000000 -5.203224 0.000000 
0.000000 -5.203224 0.000000 
0.000000 -5.203224 0.000000 
0.000000 -5.203224 0.000000 
-0.000000 -5.203224 0.000000 
-0.000000 -5.203224 0.000000 
0.000000 -5.203224 0.000000 
0.000000 -5.203224 0.000000 
0.000000 -5.203224 0.000000 
0.000000 -5.203224 0.000000 
0.000000 -5.203224 0.000000 
-0.000000 -5.203224 0.000000 
-0.000000 -5.203224 0.000000 
-0.000000 -5.203224 0.000000 
0.000000 -5.203224 0.000000 
0.000000 -5.203224 0.000000 
0.000000 -5.203224 0.000000 
-0.000000 -5.203224 0.000000 
0.000000 -5.203224 0.000000 
-0.000000 -5.203224 0.000000 
-0.000000 -5.203224 0.000000 
0.000000 -5.203224 0.000000 
0.000000 -5.203224 0.000000 
0.000000 -5.203224 0.000000 
-0.000000 -5.203224 0.000000 
-0.000000 -5.203224 0.000000 
-0.000000 -5.203224 0.000000 
-0.000000 -5.203224 0.000000 
-0.000000 -5.203224 0.000000 
-0.000000 -5.203224 0.000000 
-0.000000 -5.203224 0.000000 
-0.000000 -5.203224 0.000000 
-0.000000 -5.203224 0.000000 
0.000000 -5.203224 0.000000 
0.000000 -5.203224 0.000000 
-0.000000 -5.203224 0.000000 
0.000000 -5.203224 0.000000 
0.000000 -5.203224 0.000000 
-0.000000 -5.203224 0.000000 
-0.000000 -5.203224 0.000000 
-0.000000 -5.203224 0.000000 
-0.000000 -5.203224 0.000000 
-0.000000 -5.203224 0.000000 
-0.000000 -5.203224 0.000000 
-0.000000 -5.203224 0.000000 
-0.000000 -5.203224 0.000000 
0.000000 -5.203224 0.000000 
0.000000 -5.203224 0.000000 
0.000000 -5.203224 0.000000 
0.000000 -5.203224 0.000000 
0.000000 -5.203224 0.000000 
0.000000 -5.203224 0.000000 
0.000000 -5.203224 0.000000 
0.000000 -5.203224 0.000000 
-0.000000 -5.203224 0.000000 
0.000000 -5.203224 0.000000 
-0.000000 -5.203224 0.000000 
0.000000 -5.203224 0.000000 
0.000000 -5.203224 0.000000 
-0.000000 -5.203224 0.000000 
-0.000000 -5.203224 0.000000 
-0.000000 -5.203224 0.000000 
-0.000000 -5.203224 0.000000 
0.000000 -5.203224 0.000000 
-0.000000 -5.203224 0.000000 
-0.000000 -5.203224 0.000000 
-0.000000 -5.203224 0.000000 
-0.000000 -5.203224 0.000000 
0.000000 -5.203224 0.000000 
-0.000000 -5.203224 0.000000 
0.000000 -5.203224 0.000000 
0.000000 -5.203224 0.000000 
0.000000 -5.203224 0.000000 
0.000000 -5.203224 0.000000 
-0.000000 -5.203224 0.000000 
0.000000 -5.203224 0.000000 
0.000000 -5.203224 0.000000 
0.000000 -5.203224 0.000000 
0.000000 -5.203224 0.000000 
-0.000000 -5.203224 0.000000 
-0.000000 -5.203224 0.000000 
0.000000 -5.203224 0.000000 
0.000000 -5.203224 0.000000 
0.000000 -5.203224 0.000000 
0.000000 -5.203224 0.000000 
-0.000000 -5.203224 0.000000 
-0.000000 -5.203224 0.000000 
-0.000000 -5.203224 0.000000 
0.000000 -5.203224 0.000000 
0.000000 -5.203224 0.000000 
0.000000 -5.203224 0.000000 
0.000000 -5.203224 0.000000 
-0.000000 -5.203224 0.000000 
-0.000000 -5.203224 0.000000 
0.000000 -5.203224 0.000000 
0.000000 -5.203224 0.000000 
0.000000 -5.203224 0.000000 
0.000000 -5.203224 0.000000 
-0.000000 -5.203224 0.000000 
0.000000 -5.203224 0.000000 
-0.000000 -5.203224 0.000000 
-0.000000 -5.203224 0.000000 
-0.000000 -5.203224 0.000000 
-0.000000 -5.203224 0.000000 
0.000000 -5.203224 0.000000 
0.000000 -5.203224 0.000000 
0.000000 -5.203224 0.000000 
-0.000000 -5.203224 0.000000 
-0.000000 -5.203224 0.000000 
-0.000000 -5.203224 0.000000 
-0.000000 -5.203224 0.000000 
-0.000000 -5.203224 0.000000 
0.000000 -5.203224 0.000000 
-0.000000 -5.203224 0.000000 
0.000000 -5.203224 0.000000 
0.000000 -5.203224 0.000000 
0.000000 -5.203224 0.000000 
0.000000 -5.203224 0.000000 
-0.000000 -5.203224 0.000000 
0.000000 -5.203224 0.000000 
TENSORS STRESS float 
-0.000000 0.000000 0.000000 
0.000000 -0.000000 0.000000 
0.000000 0.000000 0.000000 

0.000000 -0.000000 0.000000 
0.000000 0.000000 0.000000 
0.000000 0.000000 0.000000 

-0.000000 0.000000 0.000000 
0.000000 -0.000000 0.000000 
0.000000 0.000000 0.000000 

-0.000000 -0.000000 0.000000 
0.000000 -0.000000 0.000000 
0.000000 0.000000 0.000000 

-0.000000 -0.000000 0.000000 
0.000000 -0.000000 0.000000 
0.000000 0.000000 0.000000 

0.000000 -0.000000 0.000000 
0.000000 0.000000 0.000000 
0.000000 0.000000 0.000000 

-0.000000 -0.000000 0.000000 
0.000000 0.000000 0.000000 
0.000000 0.000000 0.000000 

0.000000 -0.000000 0.000000 
0.000000 -0.000000 0.000000 
0.000000 0.000000 0.000000 

0.000000 -0.000000 0.000000 
0.000000 -0.000000 0.000000 
0.000000 0.000000 0.000000 

0.000000 -0.000000 0.000000 
0.000000 0.000000 0.000000 
0.000000 0.000000 0.000000 

-0.000000 -0.000000 0.000000 
0.000000 -0.000000 0.000000 
0.000000 0.000000 0.000000 

0.000000 -0.000000 0.000000 
0.000000 0.000000 0.000000 
0.000000 0.000000 0.000000 

0.000000 -0.000000 0.000000 
0.000000 0.000000 0.000000 
0.000000 0.000000 0.000000 

0.000000 -0.000000 0.000000 
0.000000 -0.000000 0.000000 
0.000000 0.000000 0.000000 

0.000000 0.000000 0.000000 
0.000000 -0.000000 0.000000 
0.000000 0.000000 0.000000 

0.000000 0.000000 0.000000 
0.000000 0.000000 0.000000 
0.000000 0.000000 0.000000 

-0.000000 -0.000000 0.000000 
0.000000 -0.000000 0.000000 
0.000000 0.000000 0.000000 

-0.000000 -0.000000 0.000000 
0.000000 -0.000000 0.000000 
0.000000 0.000000 0.000000 

-0.000000 -0.000000 0.000000 
0.000000 0.000000 0.000000 
0.000000 0.000000 0.000000 

0.000000 0.000000 0.000000 
0.000000 -0.000000 0.000000 
0.000000 0.000000 0.000000 

0.000000 0.000000 0.000000 
0.000000 0.000000 0.000000 
0.000000 0.000000 0.000000 

0.000000 0.000000 0.000000 
0.000000 -0.000000 0.000000 
0.000000 0.000000 0.000000 

0.000000 -0.000000 0.000000 
0.000000 0.000000 0.000000 
0.000000 0.000000 0.000000 

0.000000 0.000000 0.000000 
0.000000 0.000000 0.000000 
0.000000 0.000000 0.000000 

0.000000 0.000000 0.000000 
0.000000 0.000000 0.000000 
0.000000 0.000000 0.000000 

0.000000 -0.000000 0.000000 
0.000000 -0.000000 0.000000 
0.000000 0.000000 0.000000 

0.000000 -0.000000 0.000000 
0.000000 0.000000 0.000000 
0.000000 0.000000 0.000000 

0.000000 -0.000000 0.000000 
0.000000 0.000000 0.000000 
0.000000 0.000000 0.000000 

-0.000000 -0.000000 0.000000 
0.000000 -0.000000 0.000000 
0.000000 0.000000 0.000000 

-0.000000 -0.000000 0.000000 
0.000000 -0.000000 0.000000 
0.000000 0.000000 0.000000 

0.000000 -0.000000 0.000000 
0.000000 0.000000 0.000000 
0.000000 0.000000 0.000000 

0.000000 0.000000 0.000000 
0.000000 -0.000000 0.000000 
0.000000 0.000000 0.000000 

0.000000 -0.000000 0.000000 
0.000000 -0.000000 0.000000 
0.000000 0.000000 0.000000 

-0.000000 -0.000000 0.000000 
0.000000 -0.000000 0.000000 
0.000000 0.000000 0.000000 

-0.000000 -0.000000 0.000000 
0.000000 -0.000000 0.000000 
0.000000 0.000000 0.000000 

-0.000000 0.000000 0.000000 
0.000000 0.000000 0.000000 
0.000000 0.000000 0.000000 

0.000000 -0.000000 0.000000 
0.000000 0.000000 0.000000 
0.000000 0.000000 0.000000 

0.000000 0.000000 0.000000 
0.000000 0.000000 0.000000 
0.000000 0.000000 0.000000 

0.000000 -0.000000 0.000000 
0.000000 0.000000 0.000000 
0.000000 0.000000 0.000000 

0.000000 -0.000000 0.000000 
0.000000 -0.000000 0.000000 
0.000000 0.000000 0.000000 

0.000000 -0.000000 0.000000 
0.000000 0.000000 0.000000 
0.000000 0.000000 0.000000 

0.000000 0.000000 0.000000 
0.000000 -0.000000 0.000000 
0.000000 0.000000 0.000000 

0.000000 0.000000 0.000000 
0.000000 -0.000000 0.000000 
0.000000 0.000000 0.000000 

0.000000 -0.000000 0.000000 
0.000000 0.000000 0.000000 
0.000000 0.000000 0.000000 

0.000000 0.000000 0.000000 
0.000000 0.000000 0.000000 
0.000000 0.000000 0.000000 

-0.000000 0.000000 0.000000 
0.000000 -0.000000 0.000000 
0.000000 0.000000 0.000000 

0.000000 -0.000000 0.000000 
0.000000 0.000000 0.000000 
0.000000 0.000000 0.000000 

0.000000 0.000000 0.000000 
0.000000 -0.000000 0.000000 
0.000000 0.000000 0.000000 

0.000000 -0.000000 0.000000 
0.000000 0.000000 0.000000 
0.000000 0.000000 0.000000 

-0.000000 -0.000000 0.000000 
0.000000 -0.000000 0.000000 
0.000000 0.000000 0.000000 

0.000000 0.000000 0.000000 
0.000000 0.000000 0.000000 
0.000000 0.000000 0.000000 

-0.000000 0.000000 0.000000 
0.000000 -0.000000 0.000000 
0.000000 0.000000 0.000000 

-0.000000 -0.000000 0.000000 
0.000000 0.000000 0.000000 
0.000000 0.000000 0.000000 

0.000000 0.000000 0.000000 
0.000000 0.000000 0.000000 
0.000000 0.000000 0.000000 

-0.000000 0.000000 0.000000 
0.000000 -0.000000 0.000000 
0.000000 0.000000 0.000000 

-0.000000 -0.000000 0.000000 
0.000000 -0.000000 0.000000 
0.000000 0.000000 0.000000 

-0.000000 0.000000 0.000000 
0.000000 -0.000000 0.000000 
0.000000 0.000000 0.000000 

-0.000000 -0.000000 0.000000 
0.000000 -0.000000 0.000000 
0.000000 0.000000 0.000000 

-0.000000 -0.000000 0.000000 
0.000000 -0.000000 0.000000 
0.000000 0.000000 0.000000 

-0.000000 -0.000000 0.000000 
0.000000 -0.000000 0.000000 
0.000000 0.000000 0.000000 

-0.000000 0.000000 0.000000 
0.000000 -0.000000 0.000000 
0.000000 0.000000 0.000000 

-0.000000 0.000000 0.000000 
0.000000 -0.000000 0.000000 
0.000000 0.000000 0.000000 

-0.000000 0.000000 0.000000 
0.000000 0.000000 0.000000 
0.000000 0.000000 0.000000 

0.000000 0.000000 0.000000 
0.000000 0.000000 0.000000 
0.000000 0.000000 0.000000 

0.000000 -0.000000 0.000000 
0.000000 0.000000 0.000000 
0.000000 0.000000 0.000000 

0.000000 0.000000 0.000000 
0.000000 0.000000 0.000000 
0.000000 0.000000 0.000000 

0.000000 0.000000 0.000000 
0.000000 0.000000 0.000000 
0.000000 0.000000 0.000000 

-0.000000 0.000000 0.000000 
0.000000 -0.000000 0.000000 
0.000000 0.000000 0.000000 

0.000000 0.000000 0.000000 
0.000000 0.000000 0.000000 
0.000000 0.000000 0.000000 

0.000000 -0.000000 0.000000 
0.000000 0.000000 0.000000 
0.000000 0.000000 0.000000 

-0.000000 0.000000 0.000000 
0.000000 -0.000000 0.000000 
0.000000 0.000000 0.000000 

-0.000000 -0.000000 0.000000 
0.000000 -0.000000 0.000000 
0.000000 0.000000 0.000000 

-0.000000 0.000000 0.000000 
0.000000 -0.000000 0.000000 
0.000000 0.000000 0.000000 

0.000000 -0.000000 0.000000 
0.000000 -0.000000 0.000000 
0.000000 0.000000 0.000000 

0.000000 0.000000 0.000000 
0.000000 0.000000 0.000000 
0.000000 0.000000 0.000000 

-0.000000 0.000000 0.000000 
0.000000 -0.000000 0.000000 
0.000000 0.000000 0.000000 

0.000000 0.000000 0.000000 
0.000000 -0.000000 0.000000 
0.000000 0.000000 0.000000 

0.000000 0.000000 0.000000 
0.000000 0.000000 0.000000 
0.000000 0.000000 0.000000 

0.000000 0.000000 0.000000 
0.000000 0.000000 0.000000 
0.000000 0.000000 0.000000 

-0.000000 0.000000 0.000000 
0.000000 -0.000000 0.000000 
0.000000 0.000000 0.000000 

-0.000000 0.000000 0.000000 
0.000000 0.000000 0.000000 
0.000000 0.000000 0.000000 

-0.000000 0.000000 0.000000 
0.000000 -0.000000 0.000000 
0.000000 0.000000 0.000000 

-0.000000 0.000000 0.000000 
0.000000 -0.000000 0.000000 
0.000000 0.000000 0.000000 

0.000000 0.000000 0.000000 
0.000000 0.000000 0.000000 
0.000000 0.000000 0.000000 

-0.000000 0.000000 0.000000 
0.000000 0.000000 0.000000 
0.000000 0.000000 0.000000 

-0.000000 0.000000 0.000000 
0.000000 0.000000 0.000000 
0.000000 0.000000 0.000000 

0.000000 -0.000000 0.000000 
0.000000 0.000000 0.000000 
0.000000 0.000000 0.000000 

-0.000000 -0.000000 0.000000 
0.000000 -0.000000 0.000000 
0.000000 0.000000 0.000000 

0.000000 0.000000 0.000000 
0.000000 0.000000 0.000000 
0.000000 0.000000 0.000000 

-0.000000 0.000000 0.000000 
0.000000 -0.000000 0.000000 
0.000000 0.000000 0.000000 

0.000000 -0.000000 0.000000 
0.000000 0.000000 0.000000 
0.000000 0.000000 0.000000 

-0.000000 -0.000000 0.000000 
0.000000 0.000000 0.000000 
0.000000 0.000000 0.000000 

-0.000000 0.000000 0.000000 
0.000000 0.000000 0.000000 
0.000000 0.000000 0.000000 

0.000000 0.000000 0.000000 
0.000000 0.000000 0.000000 
0.000000 0.000000 0.000000 

-0.000000 0.000000 0.000000 
0.000000 -0.000000 0.000000 
0.000000 0.000000 0.000000 

-0.000000 -0.000000 0.000000 
0.000000 -0.000000 0.000000 
0.000000 0.000000 0.000000 

-0.000000 -0.000000 0.000000 
0.000000 -0.000000 0.000000 
0.000000 0.000000 0.000000 

0.000000 -0.000000 0.000000 
0.000000 0.000000 0.000000 
0.000000 0.000000 0.000000 

0.000000 -0.000000 0.000000 
0.000000 0.000000 0.000000 
0.000000 0.000000 0.000000 

0.000000 0.000000 0.000000 
0.000000 -0.000000 0.000000 
0.000000 0.000000 0.000000 

-0.000000 -0.000000 0.000000 
0.000000 -0.000000 0.000000 
0.000000 0.000000 0.000000 

-0.000000 0.000000 0.000000 
0.000000 -0.000000 0.000000 
0.000000 0.000000 0.000000 

-0.000000 0.000000 0.000000 
0.000000 -0.000000 0.000000 
0.000000 0.000000 0.000000 

-0.000000 -0.000000 0.000000 
0.000000 -0.000000 0.000000 
0.000000 0.000000 0.000000 

-0.000000 0.000000 0.000000 
0.000000 -0.000000 0.000000 
0.000000 0.000000 0.000000 

-0.000000 -0.000000 0.000000 
0.000000 -0.000000 0.000000 
0.000000 0.000000 0.000000 

-0.000000 0.000000 0.000000 
0.000000 0.000000 0.000000 
0.000000 0.000000 0.000000 

-0.000000 0.000000 0.000000 
0.000000 0.000000 0.000000 
0.000000 0.000000 0.000000 

0.000000 -0.000000 0.000000 
0.000000 0.000000 0.000000 
0.000000 0.000000 0.000000 

0.000000 -0.000000 0.000000 
0.000000 0.000000 0.000000 
0.000000 0.000000 0.000000 

0.000000 -0.000000 0.000000 
0.000000 0.000000 0.000000 
0.000000 0.000000 0.000000 

-0.000000 0.000000 0.000000 
0.000000 -0.000000 0.000000 
0.000000 0.000000 0.000000 

-0.000000 0.000000 0.000000 
0.000000 -0.000000 0.000000 
0.000000 0.000000 0.000000 

0.000000 0.000000 0.000000 
0.000000 0.000000 0.000000 
0.000000 0.000000 0.000000 

0.000000 0.000000 0.000000 
0.000000 0.000000 0.000000 
0.000000 0.000000 0.000000 

0.000000 0.000000 0.000000 
0.000000 0.000000 0.000000 
0.000000 0.000000 0.000000 

0.000000 0.000000 0.000000 
0.000000 0.000000 0.000000 
0.000000 0.000000 0.000000 

-0.000000 0.000000 0.000000 
0.000000 0.000000 0.000000 
0.000000 0.000000 0.000000 

0.000000 -0.000000 0.000000 
0.000000 0.000000 0.000000 
0.000000 0.000000 0.000000 

-0.000000 -0.000000 0.000000 
0.000000 -0.000000 0.000000 
0.000000 0.000000 0.000000 

-0.000000 0.000000 0.000000 
0.000000 -0.000000 0.000000 
0.000000 0.000000 0.000000 

0.000000 -0.000000 0.000000 
0.000000 0.000000 0.000000 
0.000000 0.000000 0.000000 

0.000000 -0.000000 0.000000 
0.000000 -0.000000 0.000000 
0.000000 0.000000 0.000000 

0.000000 -0.000000 0.000000 
0.000000 0.000000 0.000000 
0.000000 0.000000 0.000000 

-0.000000 0.000000 0.000000 
0.000000 0.000000 0.000000 
0.000000 0.000000 0.000000 

0.000000 -0.000000 0.000000 
0.000000 0.000000 0.000000 
0.000000 0.000000 0.000000 

-0.000000 0.000000 0.000000 
0.000000 0.000000 0.000000 
0.000000 0.000000 0.000000 

0.000000 -0.000000 0.000000 
0.000000 0.000000 0.000000 
0.000000 0.000000 0.000000 

-0.000000 0.000000 0.000000 
0.000000 -0.000000 0.000000 
0.000000 0.000000 0.000000 

0.000000 0.000000 0.000000 
0.000000 0.000000 0.000000 
0.000000 0.000000 0.000000 

0.000000 0.000000 0.000000 
0.000000 0.000000 0.000000 
0.000000 0.000000 0.000000 

-0.000000 -0.000000 0.000000 
0.000000 -0.000000 0.000000 
0.000000 0.000000 0.000000 

-0.000000 0.000000 0.000000 
0.000000 0.000000 0.000000 
0.000000 0.000000 0.000000 

-0.000000 0.000000 0.000000 
0.000000 0.000000 0.000000 
0.000000 0.000000 0.000000 

0.000000 -0.000000 0.000000 
0.000000 0.000000 0.000000 
0.000000 0.000000 0.000000 

0.000000 -0.000000 0.000000 
0.000000 0.000000 0.000000 
0.000000 0.000000 0.000000 

0.000000 -0.000000 0.000000 
0.000000 0.000000 0.000000 
0.000000 0.000000 0.000000 

0.000000 -0.000000 0.000000 
0.000000 0.000000 0.000000 
0.000000 0.000000 0.000000 

0.000000 0.000000 0.000000 
0.000000 0.000000 0.000000 
0.000000 0.000000 0.000000 

0.000000 0.000000 0.000000 
0.000000 0.000000 0.000000 
0.000000 0.000000 0.000000 

-0.000000 -0.000000 0.000000 
0.000000 -0.000000 0.000000 
0.000000 0.000000 0.000000 

-0.000000 0.000000 0.000000 
0.000000 -0.000000 0.000000 
0.000000 0.000000 0.000000 

0.000000 0.000000 0.000000 
0.000000 0.000000 0.000000 
0.000000 0.000000 0.000000 

-0.000000 -0.000000 0.000000 
0.000000 -0.000000 0.000000 
0.000000 0.000000 0.000000 

-0.000000 -0.000000 0.000000 
0.000000 0.000000 0.000000 
0.000000 0.000000 0.000000 

-0.000000 0.000000 0.000000 
0.000000 0.000000 0.000000 
0.000000 0.000000 0.000000 

-0.000000 -0.000000 0.000000 
0.000000 -0.000000 0.000000 
0.000000 0.000000 0.000000 

-0.000000 -0.000000 0.000000 
0.000000 -0.000000 0.000000 
0.000000 0.000000 0.000000 

0.000000 -0.000000 0.000000 
0.000000 0.000000 0.000000 
0.000000 0.000000 0.000000 

0.000000 -0.000000 0.000000 
0.000000 0.000000 0.000000 
0.000000 0.000000 0.000000 

-0.000000 -0.000000 0.000000 
0.000000 -0.000000 0.000000 
0.000000 0.000000 0.000000 

0.000000 0.000000 0.000000 
0.000000 0.000000 0.000000 
0.000000 0.000000 0.000000 

-0.000000 0.000000 0.000000 
0.000000 -0.000000 0.000000 
0.000000 0.000000 0.000000 

-0.000000 -0.000000 0.000000 
0.000000 -0.000000 0.000000 
0.000000 0.000000 0.000000 

0.000000 0.000000 0.000000 
0.000000 0.000000 0.000000 
0.000000 0.000000 0.000000 

0.000000 0.000000 0.000000 
0.000000 0.000000 0.000000 
0.000000 0.000000 0.000000 

-0.000000 0.000000 0.000000 
0.000000 -0.000000 0.000000 
0.000000 0.000000 0.000000 

-0.000000 0.000000 0.000000 
0.000000 0.000000 0.000000 
0.000000 0.000000 0.000000 

-0.000000 0.000000 0.000000 
0.000000 0.000000 0.000000 
0.000000 0.000000 0.000000 

0.000000 0.000000 0.000000 
0.000000 0.000000 0.000000 
0.000000 0.000000 0.000000 

0.000000 0.000000 0.000000 
0.000000 -0.000000 0.000000 
0.000000 0.000000 0.000000 

-0.000000 0.000000 0.000000 
0.000000 -0.000000 0.000000 
0.000000 0.000000 0.000000 

-0.000000 -0.000000 0.000000 
0.000000 -0.000000 0.000000 
0.000000 0.000000 0.000000 

0.000000 -0.000000 0.000000 
0.000000 0.000000 0.000000 
0.000000 0.000000 0.000000 

-0.000000 -0.000000 0.000000 
0.000000 0.000000 0.000000 
0.000000 0.000000 0.000000 

-0.000000 -0.000000 0.000000 
0.000000 -0.000000 0.000000 
0.000000 0.000000 0.000000 

0.000000 0.000000 0.000000 
0.000000 0.000000 0.000000 
0.000000 0.000000 0.000000 

0.000000 0.000000 0.000000 
0.000000 0.000000 0.000000 
0.000000 0.000000 0.000000 

-0.000000 0.000000 0.000000 
0.000000 0.000000 0.000000 
0.000000 0.000000 0.000000 

-0.000000 0.000000 0.000000 
0.000000 0.000000 0.000000 
0.000000 0.000000 0.000000 

0.000000 -0.000000 0.000000 
0.000000 0.000000 0.000000 
0.000000 0.000000 0.000000 

-0.000000 0.000000 0.000000 
0.000000 -0.000000 0.000000 
0.000000 0.000000 0.000000 

0.000000 0.000000 0.000000 
0.000000 0.000000 0.000000 
0.000000 0.000000 0.000000 

-0.000000 -0.000000 0.000000 
0.000000 0.000000 0.000000 
0.000000 0.000000 0.000000 

-0.000000 0.000000 0.000000 
0.000000 0.000000 0.000000 
0.000000 0.000000 0.000000 

TENSORS STRAIN float 
-0.000000 0.000000 0.000000 
0.000000 -0.000000 0.000000 
0.000000 0.000000 0.000000 

0.000000 -0.000000 0.000000 
0.000000 0.000000 0.000000 
0.000000 0.000000 0.000000 

0.000000 0.000000 0.000000 
0.000000 -0.000000 0.000000 
0.000000 0.000000 0.000000 

-0.000000 -0.000000 0.000000 
0.000000 0.000000 0.000000 
0.000000 0.000000 0.000000 

-0.000000 -0.000000 0.000000 
0.000000 -0.000000 0.000000 
0.000000 0.000000 0.000000 

-0.000000 -0.000000 0.000000 
0.000000 0.000000 0.000000 
0.000000 0.000000 0.000000 

-0.000000 -0.000000 0.000000 
0.000000 0.000000 0.000000 
0.000000 0.000000 0.000000 

0.000000 -0.000000 0.000000 
0.000000 -0.000000 0.000000 
0.000000 0.000000 0.000000 

0.000000 -0.000000 0.000000 
0.000000 -0.000000 0.000000 
0.000000 0.000000 0.000000 

0.000000 -0.000000 0.000000 
0.000000 0.000000 0.000000 
0.000000 0.000000 0.000000 

-0.000000 -0.000000 0.000000 
0.000000 -0.000000 0.000000 
0.000000 0.000000 0.000000 

0.000000 -0.000000 0.000000 
0.000000 0.000000 0.000000 
0.000000 0.000000 0.000000 

0.000000 -0.000000 0.000000 
0.000000 0.000000 0.000000 
0.000000 0.000000 0.000000 

0.000000 -0.000000 0.000000 
0.000000 -0.000000 0.000000 
0.000000 0.000000 0.000000 

0.000000 0.000000 0.000000 
0.000000 -0.000000 0.000000 
0.000000 0.000000 0.000000 

0.000000 0.000000 0.000000 
0.000000 0.000000 0.000000 
0.000000 0.000000 0.000000 

-0.000000 -0.000000 0.000000 
0.000000 -0.000000 0.000000 
0.000000 0.000000 0.000000 

-0.000000 -0.000000 0.000000 
0.000000 -0.000000 0.000000 
0.000000 0.000000 0.000000 

-0.000000 -0.000000 0.000000 
0.000000 0.000000 0.000000 
0.000000 0.000000 0.000000 

0.000000 0.000000 0.000000 
0.000000 -0.000000 0.000000 
0.000000 0.000000 0.000000 

0.000000 0.000000 0.000000 
0.000000 0.000000 0.000000 
0.000000 0.000000 0.000000 

0.000000 0.000000 0.000000 
0.000000 -0.000000 0.000000 
0.000000 0.000000 0.000000 

0.000000 -0.000000 0.000000 
0.000000 0.000000 0.000000 
0.000000 0.000000 0.000000 

0.000000 0.000000 0.000000 
0.000000 0.000000 0.000000 
0.000000 0.000000 0.000000 

0.000000 0.000000 0.000000 
0.000000 0.000000 0.000000 
0.000000 0.000000 0.000000 

0.000000 -0.000000 0.000000 
0.000000 -0.000000 0.000000 
0.000000 0.000000 0.000000 

0.000000 -0.000000 0.000000 
0.000000 0.000000 0.000000 
0.000000 0.000000 0.000000 

0.000000 -0.000000 0.000000 
0.000000 0.000000 0.000000 
0.000000 0.000000 0.000000 

0.000000 -0.000000 0.000000 
0.000000 -0.000000 0.000000 
0.000000 0.000000 0.000000 

-0.000000 -0.000000 0.000000 
0.000000 -0.000000 0.000000 
0.000000 0.000000 0.000000 

0.000000 -0.000000 0.000000 
0.000000 0.000000 0.000000 
0.000000 0.000000 0.000000 

0.000000 0.000000 0.000000 
0.000000 -0.000000 0.000000 
0.000000 0.000000 0.000000 

0.000000 -0.000000 0.000000 
0.000000 -0.000000 0.000000 
0.000000 0.000000 0.000000 

0.000000 -0.000000 0.000000 
0.000000 -0.000000 0.000000 
0.000000 0.000000 0.000000 

-0.000000 -0.000000 0.000000 
0.000000 -0.000000 0.000000 
0.000000 0.000000 0.000000 

-0.000000 0.000000 0.000000 
0.000000 0.000000 0.000000 
0.000000 0.000000 0.000000 

0.000000 -0.000000 0.000000 
0.000000 0.000000 0.000000 
0.000000 0.000000 0.000000 

0.000000 0.000000 0.000000 
0.000000 0.000000 0.000000 
0.000000 0.000000 0.000000 

0.000000 -0.000000 0.000000 
0.000000 0.000000 0.000000 
0.000000 0.000000 0.000000 

0.000000 -0.000000 0.000000 
0.000000 -0.000000 0.000000 
0.000000 0.000000 0.000000 

0.000000 -0.000000 0.000000 
0.000000 0.000000 0.000000 
0.000000 0.000000 0.000000 

0.000000 0.000000 0.000000 
0.000000 -0.000000 0.000000 
0.000000 0.000000 0.000000 

0.000000 0.000000 0.000000 
0.000000 -0.000000 0.000000 
0.000000 0.000000 0.000000 

0.000000 -0.000000 0.000000 
0.000000 -0.000000 0.000000 
0.000000 0.000000 0.000000 

0.000000 0.000000 0.000000 
0.000000 0.000000 0.000000 
0.000000 0.000000 0.000000 

0.000000 0.000000 0.000000 
0.000000 -0.000000 0.000000 
0.000000 0.000000 0.000000 

0.000000 -0.000000 0.000000 
0.000000 0.000000 0.000000 
0.000000 0.000000 0.000000 

0.000000 0.000000 0.000000 
0.000000 -0.000000 0.000000 
0.000000 0.000000 0.000000 

0.000000 -0.000000 0.000000 
0.000000 0.000000 0.000000 
0.000000 0.000000 0.000000 

0.000000 -0.000000 0.000000 
0.000000 -0.000000 0.000000 
0.000000 0.000000 0.000000 

-0.000000 0.000000 0.000000 
0.000000 0.000000 0.000000 
0.000000 0.000000 0.000000 

-0.000000 0.000000 0.000000 
0.000000 0.000000 0.000000 
0.000000 0.000000 0.000000 

-0.000000 -0.000000 0.000000 
0.000000 0.000000 0.000000 
0.000000 0.000000 0.000000 

-0.000000 0.000000 0.000000 
0.000000 0.000000 0.000000 
0.000000 0.000000 0.000000 

-0.000000 0.000000 0.000000 
0.000000 -0.000000 0.000000 
0.000000 0.000000 0.000000 

-0.000000 -0.000000 0.000000 
0.000000 -0.000000 0.000000 
0.000000 0.000000 0.000000 

-0.000000 0.000000 0.000000 
0.000000 -0.000000 0.000000 
0.000000 0.000000 0.000000 

-0.000000 -0.000000 0.000000 
0.000000 -0.000000 0.000000 
0.000000 0.000000 0.000000 

-0.000000 -0.000000 0.000000 
0.000000 -0.000000 0.000000 
0.000000 0.000000 0.000000 

0.000000 -0.000000 0.000000 
0.000000 -0.000000 0.000000 
0.000000 0.000000 0.000000 

-0.000000 0.000000 0.000000 
0.000000 -0.000000 0.000000 
0.000000 0.000000 0.000000 

-0.000000 0.000000 0.000000 
0.000000 -0.000000 0.000000 
0.000000 0.000000 0.000000 

-0.000000 0.000000 0.000000 
0.000000 0.000000 0.000000 
0.000000 0.000000 0.000000 

-0.000000 0.000000 0.000000 
0.000000 0.000000 0.000000 
0.000000 0.000000 0.000000 

0.000000 -0.000000 0.000000 
0.000000 0.000000 0.000000 
0.000000 0.000000 0.000000 

0.000000 0.000000 0.000000 
0.000000 0.000000 0.000000 
0.000000 0.000000 0.000000 

0.000000 0.000000 0.000000 
0.000000 0.000000 0.000000 
0.000000 0.000000 0.000000 

0.000000 0.000000 0.000000 
0.000000 -0.000000 0.000000 
0.000000 0.000000 0.000000 

0.000000 0.000000 0.000000 
0.000000 0.000000 0.000000 
0.000000 0.000000 0.000000 

0.000000 -0.000000 0.000000 
0.000000 0.000000 0.000000 
0.000000 0.000000 0.000000 

-0.000000 0.000000 0.000000 
0.000000 -0.000000 0.000000 
0.000000 0.000000 0.000000 

-0.000000 -0.000000 0.000000 
0.000000 -0.000000 0.000000 
0.000000 0.000000 0.000000 

-0.000000 0.000000 0.000000 
0.000000 -0.000000 0.000000 
0.000000 0.000000 0.000000 

0.000000 -0.000000 0.000000 
0.000000 -0.000000 0.000000 
0.000000 0.000000 0.000000 

0.000000 0.000000 0.000000 
0.000000 -0.000000 0.000000 
0.000000 0.000000 0.000000 

0.000000 0.000000 0.000000 
0.000000 -0.000000 0.000000 
0.000000 0.000000 0.000000 

0.000000 0.000000 0.000000 
0.000000 -0.000000 0.000000 
0.000000 0.000000 0.000000 

0.000000 0.000000 0.000000 
0.000000 -0.000000 0.000000 
0.000000 0.000000 0.000000 

0.000000 0.000000 0.000000 
0.000000 -0.000000 0.000000 
0.000000 0.000000 0.000000 

-0.000000 0.000000 0.000000 
0.000000 -0.000000 0.000000 
0.000000 0.000000 0.000000 

-0.000000 0.000000 0.000000 
0.000000 0.000000 0.000000 
0.000000 0.000000 0.000000 

-0.000000 0.000000 0.000000 
0.000000 -0.000000 0.000000 
0.000000 0.000000 0.000000 

-0.000000 0.000000 0.000000 
0.000000 -0.000000 0.000000 
0.000000 0.000000 0.000000 

-0.000000 0.000000 0.000000 
0.000000 0.000000 0.000000 
0.000000 0.000000 0.000000 

-0.000000 0.000000 0.000000 
0.000000 0.000000 0.000000 
0.000000 0.000000 0.000000 

-0.000000 0.000000 0.000000 
0.000000 0.000000 0.000000 
0.000000 0.000000 0.000000 

-0.000000 -0.000000 0.000000 
0.000000 0.000000 0.000000 
0.000000 0.000000 0.000000 

-0.000000 -0.000000 0.000000 
0.000000 -0.000000 0.000000 
0.000000 0.000000 0.000000 

-0.000000 0.000000 0.000000 
0.000000 0.000000 0.000000 
0.000000 0.000000 0.000000 

0.000000 0.000000 0.000000 
0.000000 -0.000000 0.000000 
0.000000 0.000000 0.000000 

0.000000 -0.000000 0.000000 
0.000000 0.000000 0.000000 
0.000000 0.000000 0.000000 

-0.000000 -0.000000 0.000000 
0.000000 0.000000 0.000000 
0.000000 0.000000 0.000000 

-0.000000 0.000000 0.000000 
0.000000 0.000000 0.000000 
0.000000 0.000000 0.000000 

0.000000 0.000000 0.000000 
0.000000 0.000000 0.000000 
0.000000 0.000000 0.000000 

0.000000 0.000000 0.000000 
0.000000 -0.000000 0.000000 
0.000000 0.000000 0.000000 

-0.000000 -0.000000 0.000000 
0.000000 0.000000 0.000000 
0.000000 0.000000 0.000000 

0.000000 -0.000000 0.000000 
0.000000 -0.000000 0.000000 
0.000000 0.000000 0.000000 

0.000000 -0.000000 0.000000 
0.000000 -0.000000 0.000000 
0.000000 0.000000 0.000000 

0.000000 -0.000000 0.000000 
0.000000 -0.000000 0.000000 
0.000000 0.000000 0.000000 

0.000000 0.000000 0.000000 
0.000000 -0.000000 0.000000 
0.000000 0.000000 0.000000 

-0.000000 -0.000000 0.000000 
0.000000 -0.000000 0.000000 
0.000000 0.000000 0.000000 

-0.000000 0.000000 0.000000 
0.000000 -0.000000 0.000000 
0.000000 0.000000 0.000000 

-0.000000 0.000000 0.000000 
0.000000 0.000000 0.000000 
0.000000 0.000000 0.000000 

-0.000000 -0.000000 0.000000 
0.000000 -0.000000 0.000000 
0.000000 0.000000 0.000000 

-0.000000 0.000000 0.000000 
0.000000 -0.000000 0.000000 
0.000000 0.000000 0.000000 

-0.000000 -0.000000 0.000000 
0.000000 -0.000000 0.000000 
0.000000 0.000000 0.000000 

-0.000000 0.000000 0.000000 
0.000000 0.000000 0.000000 
0.000000 0.000000 0.000000 

-0.000000 0.000000 0.000000 
0.000000 0.000000 0.000000 
0.000000 0.000000 0.000000 

-0.000000 -0.000000 0.000000 
0.000000 0.000000 0.000000 
0.000000 0.000000 0.000000 

-0.000000 -0.000000 0.000000 
0.000000 0.000000 0.000000 
0.000000 0.000000 0.000000 

-0.000000 -0.000000 0.000000 
0.000000 0.000000 0.000000 
0.000000 0.000000 0.000000 

-0.000000 0.000000 0.000000 
0.000000 -0.000000 0.000000 
0.000000 0.000000 0.000000 

-0.000000 0.000000 0.000000 
0.000000 -0.000000 0.000000 
0.000000 0.000000 0.000000 

0.000000 0.000000 0.000000 
0.000000 -0.000000 0.000000 
0.000000 0.000000 0.000000 

-0.000000 0.000000 0.000000 
0.000000 0.000000 0.000000 
0.000000 0.000000 0.000000 

-0.000000 0.000000 0.000000 
0.000000 0.000000 0.000000 
0.000000 0.000000 0.000000 

-0.000000 0.000000 0.000000 
0.000000 0.000000 0.000000 
0.000000 0.000000 0.000000 

-0.000000 0.000000 0.000000 
0.000000 0.000000 0.000000 
0.000000 0.000000 0.000000 

-0.000000 -0.000000 0.000000 
0.000000 0.000000 0.000000 
0.000000 0.000000 0.000000 

-0.000000 -0.000000 0.000000 
0.000000 -0.000000 0.000000 
0.000000 0.000000 0.000000 

0.000000 0.000000 0.000000 
0.000000 -0.000000 0.000000 
0.000000 0.000000 0.000000 

0.000000 -0.000000 0.000000 
0.000000 0.000000 0.000000 
0.000000 0.000000 0.000000 

0.000000 -0.000000 0.000000 
0.000000 -0.000000 0.000000 
0.000000 0.000000 0.000000 

0.000000 -0.000000 0.000000 
0.000000 0.000000 0.000000 
0.000000 0.000000 0.000000 

-0.000000 0.000000 0.000000 
0.000000 0.000000 0.000000 
0.000000 0.000000 0.000000 

0.000000 -0.000000 0.000000 
0.000000 0.000000 0.000000 
0.000000 0.000000 0.000000 

-0.000000 0.000000 0.000000 
0.000000 0.000000 0.000000 
0.000000 0.000000 0.000000 

-0.000000 -0.000000 0.000000 
0.000000 0.000000 0.000000 
0.000000 0.000000 0.000000 

-0.000000 0.000000 0.000000 
0.000000 -0.000000 0.000000 
0.000000 0.000000 0.000000 

-0.000000 0.000000 0.000000 
0.000000 0.000000 0.000000 
0.000000 0.000000 0.000000 

-0.000000 0.000000 0.000000 
0.000000 0.000000 0.000000 
0.000000 0.000000 0.000000 

0.000000 -0.000000 0.000000 
0.000000 -0.000000 0.000000 
0.000000 0.000000 0.000000 

-0.000000 0.000000 0.000000 
0.000000 0.000000 0.000000 
0.000000 0.000000 0.000000 

-0.000000 0.000000 0.000000 
0.000000 0.000000 0.000000 
0.000000 0.000000 0.000000 

0.000000 -0.000000 0.000000 
0.000000 0.000000 0.000000 
0.000000 0.000000 0.000000 

0.000000 -0.000000 0.000000 
0.000000 -0.000000 0.000000 
0.000000 0.000000 0.000000 

0.000000 -0.000000 0.000000 
0.000000 0.000000 0.000000 
0.000000 0.000000 0.000000 

0.000000 -0.000000 0.000000 
0.000000 0.000000 0.000000 
0.000000 0.000000 0.000000 

-0.000000 0.000000 0.000000 
0.000000 0.000000 0.000000 
0.000000 0.000000 0.000000 

-0.000000 0.000000 0.000000 
0.000000 0.000000 0.000000 
0.000000 0.000000 0.000000 

-0.000000 -0.000000 0.000000 
0.000000 -0.000000 0.000000 
0.000000 0.000000 0.000000 

-0.000000 0.000000 0.000000 
0.000000 -0.000000 0.000000 
0.000000 0.000000 0.000000 

-0.000000 0.000000 0.000000 
0.000000 0.000000 0.000000 
0.000000 0.000000 0.000000 

0.000000 -0.000000 0.000000 
0.000000 -0.000000 0.000000 
0.000000 0.000000 0.000000 

-0.000000 -0.000000 0.000000 
0.000000 0.000000 0.000000 
0.000000 0.000000 0.000000 

-0.000000 0.000000 0.000000 
0.000000 0.000000 0.000000 
0.000000 0.000000 0.000000 

-0.000000 -0.000000 0.000000 
0.000000 0.000000 0.000000 
0.000000 0.000000 0.000000 

-0.000000 -0.000000 0.000000 
0.000000 -0.000000 0.000000 
0.000000 0.000000 0.000000 

0.000000 -0.000000 0.000000 
0.000000 0.000000 0.000000 
0.000000 0.000000 0.000000 

0.000000 -0.000000 0.000000 
0.000000 0.000000 0.000000 
0.000000 0.000000 0.000000 

-0.000000 -0.000000 0.000000 
0.000000 -0.000000 0.000000 
0.000000 0.000000 0.000000 

-0.000000 0.000000 0.000000 
0.000000 0.000000 0.000000 
0.000000 0.000000 0.000000 

0.000000 0.000000 0.000000 
0.000000 -0.000000 0.000000 
0.000000 0.000000 0.000000 

-0.000000 -0.000000 0.000000 
0.000000 -0.000000 0.000000 
0.000000 0.000000 0.000000 

0.000000 0.000000 0.000000 
0.000000 0.000000 0.000000 
0.000000 0.000000 0.000000 

0.000000 0.000000 0.000000 
0.000000 0.000000 0.000000 
0.000000 0.000000 0.000000 

-0.000000 0.000000 0.000000 
0.000000 0.000000 0.000000 
0.000000 0.000000 0.000000 

-0.000000 0.000000 0.000000 
0.000000 0.000000 0.000000 
0.000000 0.000000 0.000000 

-0.000000 0.000000 0.000000 
0.000000 0.000000 0.000000 
0.000000 0.000000 0.000000 

0.000000 0.000000 0.000000 
0.000000 0.000000 0.000000 
0.000000 0.000000 0.000000 

0.000000 0.000000 0.000000 
0.000000 -0.000000 0.000000 
0.000000 0.000000 0.000000 

-0.000000 0.000000 0.000000 
0.000000 -0.000000 0.000000 
0.000000 0.000000 0.000000 

-0.000000 -0.000000 0.000000 
0.000000 0.000000 0.000000 
0.000000 0.000000 0.000000 

-0.000000 -0.000000 0.000000 
0.000000 0.000000 0.000000 
0.000000 0.000000 0.000000 

-0.000000 -0.000000 0.000000 
0.000000 0.000000 0.000000 
0.000000 0.000000 0.000000 

-0.000000 -0.000000 0.000000 
0.000000 -0.000000 0.000000 
0.000000 0.000000 0.000000 

0.000000 0.000000 0.000000 
0.000000 0.000000 0.000000 
0.000000 0.000000 0.000000 

0.000000 0.000000 0.000000 
0.000000 0.000000 0.000000 
0.000000 0.000000 0.000000 

-0.000000 0.000000 0.000000 
0.000000 0.000000 0.000000 
0.000000 0.000000 0.000000 

-0.000000 0.000000 0.000000 
0.000000 0.000000 0.000000 
0.000000 0.000000 0.000000 

-0.000000 -0.000000 0.000000 
0.000000 0.000000 0.000000 
0.000000 0.000000 0.000000 

-0.000000 0.000000 0.000000 
0.000000 0.000000 0.000000 
0.000000 0.000000 0.000000 

0.000000 0.000000 0.000000 
0.000000 0.000000 0.000000 
0.000000 0.000000 0.000000 

-0.000000 -0.000000 0.000000 
0.000000 0.000000 0.000000 
0.000000 0.000000 0.000000 

-0.000000 0.000000 0.000000 
0.000000 0.000000 0.000000 
0.000000 0.000000 0.000000 

