# vtk DataFile Version 3.0 
vtk output 
ASCII 
DATASET UNSTRUCTURED_GRID 
POINTS 175 float 
-0.026061 -0.665694 0.000000 
-0.106992 -0.597638 0.000000 
-0.054870 -0.605871 0.000000 
-0.028809 -0.559987 0.000000 
-0.186430 -0.533563 0.000000 
-0.137056 -0.536089 0.000000 
-0.114311 -0.482442 0.000000 
-0.058186 -0.498107 0.000000 
-0.029377 -0.457930 0.000000 
-0.265318 -0.470407 0.000000 
-0.217198 -0.471207 0.000000 
-0.196633 -0.413910 0.000000 
-0.143120 -0.422619 0.000000 
-0.116563 -0.375350 0.000000 
-0.058945 -0.394996 0.000000 
-0.029568 -0.356876 0.000000 
-0.344206 -0.407251 0.000000 
-0.296791 -0.407244 0.000000 
-0.278030 -0.347301 0.000000 
-0.225992 -0.353168 0.000000 
-0.201664 -0.301051 0.000000 
-0.145749 -0.314525 0.000000 
-0.117890 -0.270182 0.000000 
-0.059328 -0.292888 0.000000 
-0.029759 -0.255822 0.000000 
-0.058559 -0.706445 0.000000 
-0.162226 -0.727287 0.000000 
-0.123292 -0.691670 0.000000 
-0.142917 -0.642686 0.000000 
-0.261851 -0.749444 0.000000 
-0.229092 -0.712416 0.000000 
-0.256854 -0.661185 0.000000 
-0.209613 -0.627072 0.000000 
-0.223062 -0.579498 0.000000 
-0.360414 -0.771744 0.000000 
-0.329787 -0.734621 0.000000 
-0.361761 -0.682819 0.000000 
-0.321587 -0.646410 0.000000 
-0.341985 -0.596176 0.000000 
-0.290702 -0.563377 0.000000 
-0.302189 -0.516642 0.000000 
-0.458977 -0.794044 0.000000 
-0.429420 -0.756969 0.000000 
-0.464588 -0.704927 0.000000 
-0.427556 -0.667900 0.000000 
-0.453135 -0.616385 0.000000 
-0.407738 -0.581070 0.000000 
-0.425037 -0.531642 0.000000 
-0.370772 -0.500013 0.000000 
-0.381315 -0.453785 0.000000 
-0.046960 -0.757260 0.000000 
-0.095301 -0.851306 0.000000 
-0.098873 -0.798658 0.000000 
-0.149405 -0.783461 0.000000 
-0.140093 -0.943010 0.000000 
-0.148617 -0.894311 0.000000 
-0.205981 -0.884074 0.000000 
-0.203197 -0.825871 0.000000 
-0.248777 -0.806724 0.000000 
-0.184111 -1.033973 0.000000 
-0.194039 -0.986882 0.000000 
-0.254475 -0.979583 0.000000 
-0.257893 -0.925473 0.000000 
-0.309886 -0.910100 0.000000 
-0.303554 -0.849555 0.000000 
-0.347255 -0.829397 0.000000 
-0.228129 -1.124937 0.000000 
-0.238687 -1.078713 0.000000 
-0.301302 -1.073761 0.000000 
-0.307162 -1.021722 0.000000 
-0.363386 -1.009601 0.000000 
-0.362692 -0.952089 0.000000 
-0.412122 -0.934796 0.000000 
-0.403017 -0.872650 0.000000 
-0.445733 -0.852071 0.000000 
-0.000000 -0.779875 0.000000 
0.043388 -0.876305 0.000000 
-0.000000 -0.846273 0.000000 
-0.043388 -0.876305 0.000000 
0.087158 -0.968502 0.000000 
0.043769 -0.944803 0.000000 
-0.000000 -0.983269 0.000000 
-0.043769 -0.944803 0.000000 
-0.087158 -0.968502 0.000000 
0.130831 -1.059632 0.000000 
0.087824 -1.038033 0.000000 
0.044436 -1.080733 0.000000 
-0.000000 -1.049667 0.000000 
-0.044436 -1.080733 0.000000 
-0.087824 -1.038033 0.000000 
-0.130831 -1.059632 0.000000 
0.174505 -1.150761 0.000000 
0.131782 -1.130195 0.000000 
0.088871 -1.176062 0.000000 
0.044532 -1.148198 0.000000 
-0.000000 -1.184598 0.000000 
-0.044532 -1.148198 0.000000 
-0.088871 -1.176062 0.000000 
-0.131782 -1.130195 0.000000 
-0.174505 -1.150761 0.000000 
0.046960 -0.757260 0.000000 
0.149405 -0.783461 0.000000 
0.098873 -0.798658 0.000000 
0.095301 -0.851306 0.000000 
0.248777 -0.806724 0.000000 
0.203197 -0.825871 0.000000 
0.205981 -0.884074 0.000000 
0.148617 -0.894311 0.000000 
0.140093 -0.943010 0.000000 
0.347255 -0.829397 0.000000 
0.303554 -0.849555 0.000000 
0.309886 -0.910100 0.000000 
0.257893 -0.925473 0.000000 
0.254475 -0.979583 0.000000 
0.194039 -0.986882 0.000000 
0.184111 -1.033973 0.000000 
0.445733 -0.852071 0.000000 
0.403017 -0.872650 0.000000 
0.412122 -0.934796 0.000000 
0.362692 -0.952089 0.000000 
0.363386 -1.009601 0.000000 
0.307162 -1.021722 0.000000 
0.301302 -1.073761 0.000000 
0.238687 -1.078713 0.000000 
0.228129 -1.124937 0.000000 
0.058559 -0.706445 0.000000 
0.142917 -0.642686 0.000000 
0.123292 -0.691670 0.000000 
0.162226 -0.727287 0.000000 
0.223062 -0.579498 0.000000 
0.209613 -0.627072 0.000000 
0.256854 -0.661185 0.000000 
0.229092 -0.712416 0.000000 
0.261851 -0.749444 0.000000 
0.302189 -0.516642 0.000000 
0.290702 -0.563377 0.000000 
0.341985 -0.596176 0.000000 
0.321587 -0.646410 0.000000 
0.361761 -0.682819 0.000000 
0.329787 -0.734621 0.000000 
0.360414 -0.771744 0.000000 
0.381315 -0.453785 0.000000 
0.370772 -0.500013 0.000000 
0.425037 -0.531642 0.000000 
0.407738 -0.581070 0.000000 
0.453135 -0.616385 0.000000 
0.427556 -0.667900 0.000000 
0.464588 -0.704927 0.000000 
0.429420 -0.756969 0.000000 
0.458977 -0.794044 0.000000 
0.026061 -0.665694 0.000000 
0.028809 -0.559987 0.000000 
0.054870 -0.605871 0.000000 
0.106992 -0.597638 0.000000 
0.029377 -0.457930 0.000000 
0.058186 -0.498107 0.000000 
0.114311 -0.482442 0.000000 
0.137056 -0.536089 0.000000 
0.186430 -0.533563 0.000000 
0.029568 -0.356876 0.000000 
0.058945 -0.394996 0.000000 
0.116563 -0.375350 0.000000 
0.143120 -0.422619 0.000000 
0.196633 -0.413910 0.000000 
0.217198 -0.471207 0.000000 
0.265318 -0.470407 0.000000 
0.029759 -0.255822 0.000000 
0.059328 -0.292888 0.000000 
0.117890 -0.270182 0.000000 
0.145749 -0.314525 0.000000 
0.201664 -0.301051 0.000000 
0.225992 -0.353168 0.000000 
0.278030 -0.347301 0.000000 
0.296791 -0.407244 0.000000 
0.344206 -0.407251 0.000000 
CELLS 175 350 
1 0 
1 1 
1 2 
1 3 
1 4 
1 5 
1 6 
1 7 
1 8 
1 9 
1 10 
1 11 
1 12 
1 13 
1 14 
1 15 
1 16 
1 17 
1 18 
1 19 
1 20 
1 21 
1 22 
1 23 
1 24 
1 25 
1 26 
1 27 
1 28 
1 29 
1 30 
1 31 
1 32 
1 33 
1 34 
1 35 
1 36 
1 37 
1 38 
1 39 
1 40 
1 41 
1 42 
1 43 
1 44 
1 45 
1 46 
1 47 
1 48 
1 49 
1 50 
1 51 
1 52 
1 53 
1 54 
1 55 
1 56 
1 57 
1 58 
1 59 
1 60 
1 61 
1 62 
1 63 
1 64 
1 65 
1 66 
1 67 
1 68 
1 69 
1 70 
1 71 
1 72 
1 73 
1 74 
1 75 
1 76 
1 77 
1 78 
1 79 
1 80 
1 81 
1 82 
1 83 
1 84 
1 85 
1 86 
1 87 
1 88 
1 89 
1 90 
1 91 
1 92 
1 93 
1 94 
1 95 
1 96 
1 97 
1 98 
1 99 
1 100 
1 101 
1 102 
1 103 
1 104 
1 105 
1 106 
1 107 
1 108 
1 109 
1 110 
1 111 
1 112 
1 113 
1 114 
1 115 
1 116 
1 117 
1 118 
1 119 
1 120 
1 121 
1 122 
1 123 
1 124 
1 125 
1 126 
1 127 
1 128 
1 129 
1 130 
1 131 
1 132 
1 133 
1 134 
1 135 
1 136 
1 137 
1 138 
1 139 
1 140 
1 141 
1 142 
1 143 
1 144 
1 145 
1 146 
1 147 
1 148 
1 149 
1 150 
1 151 
1 152 
1 153 
1 154 
1 155 
1 156 
1 157 
1 158 
1 159 
1 160 
1 161 
1 162 
1 163 
1 164 
1 165 
1 166 
1 167 
1 168 
1 169 
1 170 
1 171 
1 172 
1 173 
1 174 
CELL_TYPES 175 
1 
1 
1 
1 
1 
1 
1 
1 
1 
1 
1 
1 
1 
1 
1 
1 
1 
1 
1 
1 
1 
1 
1 
1 
1 
1 
1 
1 
1 
1 
1 
1 
1 
1 
1 
1 
1 
1 
1 
1 
1 
1 
1 
1 
1 
1 
1 
1 
1 
1 
1 
1 
1 
1 
1 
1 
1 
1 
1 
1 
1 
1 
1 
1 
1 
1 
1 
1 
1 
1 
1 
1 
1 
1 
1 
1 
1 
1 
1 
1 
1 
1 
1 
1 
1 
1 
1 
1 
1 
1 
1 
1 
1 
1 
1 
1 
1 
1 
1 
1 
1 
1 
1 
1 
1 
1 
1 
1 
1 
1 
1 
1 
1 
1 
1 
1 
1 
1 
1 
1 
1 
1 
1 
1 
1 
1 
1 
1 
1 
1 
1 
1 
1 
1 
1 
1 
1 
1 
1 
1 
1 
1 
1 
1 
1 
1 
1 
1 
1 
1 
1 
1 
1 
1 
1 
1 
1 
1 
1 
1 
1 
1 
1 
1 
1 
1 
1 
1 
1 
1 
1 
1 
1 
1 
1 
POINT_DATA 175 
VECTORS X_GC float 
-0.026061 -0.665694 0.000000 
-0.106992 -0.597638 0.000000 
-0.054870 -0.605871 0.000000 
-0.028809 -0.559987 0.000000 
-0.186430 -0.533563 0.000000 
-0.137056 -0.536089 0.000000 
-0.114311 -0.482442 0.000000 
-0.058186 -0.498107 0.000000 
-0.029377 -0.457930 0.000000 
-0.265318 -0.470407 0.000000 
-0.217198 -0.471207 0.000000 
-0.196633 -0.413910 0.000000 
-0.143120 -0.422619 0.000000 
-0.116563 -0.375350 0.000000 
-0.058945 -0.394996 0.000000 
-0.029568 -0.356876 0.000000 
-0.344206 -0.407251 0.000000 
-0.296791 -0.407244 0.000000 
-0.278030 -0.347301 0.000000 
-0.225992 -0.353168 0.000000 
-0.201664 -0.301051 0.000000 
-0.145749 -0.314525 0.000000 
-0.117890 -0.270182 0.000000 
-0.059328 -0.292888 0.000000 
-0.029759 -0.255822 0.000000 
-0.058559 -0.706445 0.000000 
-0.162226 -0.727287 0.000000 
-0.123292 -0.691670 0.000000 
-0.142917 -0.642686 0.000000 
-0.261851 -0.749444 0.000000 
-0.229092 -0.712416 0.000000 
-0.256854 -0.661185 0.000000 
-0.209613 -0.627072 0.000000 
-0.223062 -0.579498 0.000000 
-0.360414 -0.771744 0.000000 
-0.329787 -0.734621 0.000000 
-0.361761 -0.682819 0.000000 
-0.321587 -0.646410 0.000000 
-0.341985 -0.596176 0.000000 
-0.290702 -0.563377 0.000000 
-0.302189 -0.516642 0.000000 
-0.458977 -0.794044 0.000000 
-0.429420 -0.756969 0.000000 
-0.464588 -0.704927 0.000000 
-0.427556 -0.667900 0.000000 
-0.453135 -0.616385 0.000000 
-0.407738 -0.581070 0.000000 
-0.425037 -0.531642 0.000000 
-0.370772 -0.500013 0.000000 
-0.381315 -0.453785 0.000000 
-0.046960 -0.757260 0.000000 
-0.095301 -0.851306 0.000000 
-0.098873 -0.798658 0.000000 
-0.149405 -0.783461 0.000000 
-0.140093 -0.943010 0.000000 
-0.148617 -0.894311 0.000000 
-0.205981 -0.884074 0.000000 
-0.203197 -0.825871 0.000000 
-0.248777 -0.806724 0.000000 
-0.184111 -1.033973 0.000000 
-0.194039 -0.986882 0.000000 
-0.254475 -0.979583 0.000000 
-0.257893 -0.925473 0.000000 
-0.309886 -0.910100 0.000000 
-0.303554 -0.849555 0.000000 
-0.347255 -0.829397 0.000000 
-0.228129 -1.124937 0.000000 
-0.238687 -1.078713 0.000000 
-0.301302 -1.073761 0.000000 
-0.307162 -1.021722 0.000000 
-0.363386 -1.009601 0.000000 
-0.362692 -0.952089 0.000000 
-0.412122 -0.934796 0.000000 
-0.403017 -0.872650 0.000000 
-0.445733 -0.852071 0.000000 
-0.000000 -0.779875 0.000000 
0.043388 -0.876305 0.000000 
-0.000000 -0.846273 0.000000 
-0.043388 -0.876305 0.000000 
0.087158 -0.968502 0.000000 
0.043769 -0.944803 0.000000 
-0.000000 -0.983269 0.000000 
-0.043769 -0.944803 0.000000 
-0.087158 -0.968502 0.000000 
0.130831 -1.059632 0.000000 
0.087824 -1.038033 0.000000 
0.044436 -1.080733 0.000000 
-0.000000 -1.049667 0.000000 
-0.044436 -1.080733 0.000000 
-0.087824 -1.038033 0.000000 
-0.130831 -1.059632 0.000000 
0.174505 -1.150761 0.000000 
0.131782 -1.130195 0.000000 
0.088871 -1.176062 0.000000 
0.044532 -1.148198 0.000000 
-0.000000 -1.184598 0.000000 
-0.044532 -1.148198 0.000000 
-0.088871 -1.176062 0.000000 
-0.131782 -1.130195 0.000000 
-0.174505 -1.150761 0.000000 
0.046960 -0.757260 0.000000 
0.149405 -0.783461 0.000000 
0.098873 -0.798658 0.000000 
0.095301 -0.851306 0.000000 
0.248777 -0.806724 0.000000 
0.203197 -0.825871 0.000000 
0.205981 -0.884074 0.000000 
0.148617 -0.894311 0.000000 
0.140093 -0.943010 0.000000 
0.347255 -0.829397 0.000000 
0.303554 -0.849555 0.000000 
0.309886 -0.910100 0.000000 
0.257893 -0.925473 0.000000 
0.254475 -0.979583 0.000000 
0.194039 -0.986882 0.000000 
0.184111 -1.033973 0.000000 
0.445733 -0.852071 0.000000 
0.403017 -0.872650 0.000000 
0.412122 -0.934796 0.000000 
0.362692 -0.952089 0.000000 
0.363386 -1.009601 0.000000 
0.307162 -1.021722 0.000000 
0.301302 -1.073761 0.000000 
0.238687 -1.078713 0.000000 
0.228129 -1.124937 0.000000 
0.058559 -0.706445 0.000000 
0.142917 -0.642686 0.000000 
0.123292 -0.691670 0.000000 
0.162226 -0.727287 0.000000 
0.223062 -0.579498 0.000000 
0.209613 -0.627072 0.000000 
0.256854 -0.661185 0.000000 
0.229092 -0.712416 0.000000 
0.261851 -0.749444 0.000000 
0.302189 -0.516642 0.000000 
0.290702 -0.563377 0.000000 
0.341985 -0.596176 0.000000 
0.321587 -0.646410 0.000000 
0.361761 -0.682819 0.000000 
0.329787 -0.734621 0.000000 
0.360414 -0.771744 0.000000 
0.381315 -0.453785 0.000000 
0.370772 -0.500013 0.000000 
0.425037 -0.531642 0.000000 
0.407738 -0.581070 0.000000 
0.453135 -0.616385 0.000000 
0.427556 -0.667900 0.000000 
0.464588 -0.704927 0.000000 
0.429420 -0.756969 0.000000 
0.458977 -0.794044 0.000000 
0.026061 -0.665694 0.000000 
0.028809 -0.559987 0.000000 
0.054870 -0.605871 0.000000 
0.106992 -0.597638 0.000000 
0.029377 -0.457930 0.000000 
0.058186 -0.498107 0.000000 
0.114311 -0.482442 0.000000 
0.137056 -0.536089 0.000000 
0.186430 -0.533563 0.000000 
0.029568 -0.356876 0.000000 
0.058945 -0.394996 0.000000 
0.116563 -0.375350 0.000000 
0.143120 -0.422619 0.000000 
0.196633 -0.413910 0.000000 
0.217198 -0.471207 0.000000 
0.265318 -0.470407 0.000000 
0.029759 -0.255822 0.000000 
0.059328 -0.292888 0.000000 
0.117890 -0.270182 0.000000 
0.145749 -0.314525 0.000000 
0.201664 -0.301051 0.000000 
0.225992 -0.353168 0.000000 
0.278030 -0.347301 0.000000 
0.296791 -0.407244 0.000000 
0.344206 -0.407251 0.000000 
VECTORS X_EC float 
0.338794 -0.513133 0.000000 
-0.609100 0.568118 0.000000 
0.713312 0.679259 0.000000 
0.374519 0.059829 0.000000 
0.423588 -0.296901 0.000000 
-0.218274 -0.262798 0.000000 
-0.513962 -0.987036 0.000000 
0.756418 -0.775550 0.000000 
0.381900 0.682057 0.000000 
-0.550868 0.850496 0.000000 
0.823577 0.861291 0.000000 
0.556234 0.087787 0.000000 
-0.139443 0.205356 0.000000 
-0.484677 -0.432769 0.000000 
0.766286 -0.167553 0.000000 
0.384386 -0.682174 0.000000 
0.474677 -0.002108 0.000000 
-0.141715 -0.002204 0.000000 
-0.385608 -0.811432 0.000000 
0.937896 -0.732237 0.000000 
0.621631 0.564183 0.000000 
-0.105264 0.746083 0.000000 
-0.467428 0.147456 0.000000 
0.771260 0.453985 0.000000 
0.386873 -0.046405 0.000000 
0.761262 0.037001 0.000000 
0.108942 0.318378 0.000000 
-0.397202 -0.162462 0.000000 
-0.142083 -0.823737 0.000000 
-0.595936 0.617488 0.000000 
0.978194 0.117622 0.000000 
-0.660903 -0.574003 0.000000 
0.724964 0.965477 0.000000 
0.899809 0.323229 0.000000 
0.685384 0.918540 0.000000 
0.287229 0.417382 0.000000 
0.702895 -0.281946 0.000000 
0.180633 -0.773465 0.000000 
0.445811 0.548375 0.000000 
-0.220880 0.105589 0.000000 
-0.071546 -0.525336 0.000000 
-0.033296 -0.780407 0.000000 
-0.417537 0.719083 0.000000 
0.039645 0.016521 0.000000 
-0.441768 -0.483351 0.000000 
-0.109248 0.821199 0.000000 
-0.699407 0.344443 0.000000 
-0.474522 -0.322836 0.000000 
0.820030 -0.749829 0.000000 
0.957100 0.626099 0.000000 
0.610485 0.723007 0.000000 
-0.761092 -0.007373 0.000000 
-0.714655 -0.718111 0.000000 
-0.057734 -0.923278 0.000000 
-0.178789 -0.769369 0.000000 
-0.067979 0.573205 0.000000 
0.677748 0.435001 0.000000 
0.641556 -0.350744 0.000000 
-0.765897 -0.609222 0.000000 
0.393446 0.458640 0.000000 
0.522510 -0.177090 0.000000 
-0.691820 -0.275634 0.000000 
-0.647393 0.993883 0.000000 
0.028512 0.786357 0.000000 
-0.053800 -0.031004 0.000000 
0.514316 -0.303135 0.000000 
0.965681 -0.313351 0.000000 
-0.897068 -0.937380 0.000000 
-0.083078 0.995767 0.000000 
-0.006893 0.293243 0.000000 
0.724017 0.129610 0.000000 
0.714996 -0.646794 0.000000 
-0.642413 -0.880251 0.000000 
-0.760780 0.280768 0.000000 
-0.205471 0.002953 0.000000 
0.000000 -0.971691 0.000000 
-0.564049 0.330122 0.000000 
0.000000 -0.075314 0.000000 
0.564049 0.330122 0.000000 
0.866949 -0.425223 0.000000 
-0.569003 -0.745154 0.000000 
0.000000 -0.225866 0.000000 
0.569003 -0.745154 0.000000 
-0.866949 -0.425223 0.000000 
0.299194 0.805027 0.000000 
0.858290 0.513443 0.000000 
-0.577662 -0.910111 0.000000 
0.000000 0.670511 0.000000 
0.577662 -0.910111 0.000000 
-0.858290 0.513443 0.000000 
-0.299194 0.805027 0.000000 
-0.268560 0.035277 0.000000 
0.286830 -0.242364 0.000000 
0.844677 0.376834 0.000000 
-0.578910 0.000671 0.000000 
0.000000 0.492075 0.000000 
0.578910 0.000671 0.000000 
-0.844677 0.376834 0.000000 
-0.286830 -0.242364 0.000000 
0.268560 0.035277 0.000000 
-0.610485 0.723007 0.000000 
0.057734 -0.923278 0.000000 
0.714655 -0.718111 0.000000 
0.761092 -0.007373 0.000000 
0.765897 -0.609222 0.000000 
-0.641556 -0.350744 0.000000 
-0.677748 0.435001 0.000000 
0.067979 0.573205 0.000000 
0.178789 -0.769369 0.000000 
-0.514316 -0.303135 0.000000 
0.053800 -0.031004 0.000000 
-0.028512 0.786357 0.000000 
0.647393 0.993883 0.000000 
0.691820 -0.275634 0.000000 
-0.522510 -0.177090 0.000000 
-0.393446 0.458640 0.000000 
0.205471 0.002953 0.000000 
0.760780 0.280768 0.000000 
0.642413 -0.880251 0.000000 
-0.714996 -0.646794 0.000000 
-0.724017 0.129610 0.000000 
0.006894 0.293243 0.000000 
0.083078 0.995767 0.000000 
0.897068 -0.937380 0.000000 
-0.965681 -0.313351 0.000000 
-0.761262 0.037001 0.000000 
0.142083 -0.823737 0.000000 
0.397202 -0.162462 0.000000 
-0.108942 0.318378 0.000000 
-0.899809 0.323229 0.000000 
-0.724964 0.965477 0.000000 
0.660903 -0.574003 0.000000 
-0.978194 0.117622 0.000000 
0.595936 0.617488 0.000000 
0.071546 -0.525336 0.000000 
0.220880 0.105589 0.000000 
-0.445811 0.548375 0.000000 
-0.180633 -0.773465 0.000000 
-0.702895 -0.281946 0.000000 
-0.287229 0.417382 0.000000 
-0.685384 0.918540 0.000000 
-0.957100 0.626099 0.000000 
-0.820030 -0.749829 0.000000 
0.474522 -0.322836 0.000000 
0.699407 0.344443 0.000000 
0.109248 0.821199 0.000000 
0.441768 -0.483351 0.000000 
-0.039645 0.016521 0.000000 
0.417537 0.719083 0.000000 
0.033296 -0.780407 0.000000 
-0.338794 -0.513133 0.000000 
-0.374519 0.059829 0.000000 
-0.713312 0.679259 0.000000 
0.609100 0.568118 0.000000 
-0.381900 0.682057 0.000000 
-0.756418 -0.775550 0.000000 
0.513962 -0.987036 0.000000 
0.218274 -0.262798 0.000000 
-0.423588 -0.296901 0.000000 
-0.384386 -0.682174 0.000000 
-0.766286 -0.167553 0.000000 
0.484677 -0.432769 0.000000 
0.139443 0.205356 0.000000 
-0.556234 0.087787 0.000000 
-0.823577 0.861291 0.000000 
0.550868 0.850496 0.000000 
-0.386873 -0.046405 0.000000 
-0.771260 0.453985 0.000000 
0.467428 0.147456 0.000000 
0.105264 0.746083 0.000000 
-0.621631 0.564183 0.000000 
-0.937896 -0.732237 0.000000 
0.385608 -0.811432 0.000000 
0.141715 -0.002204 0.000000 
-0.474677 -0.002107 0.000000 
CELL_DATA 175 
SCALARS MASS float 
LOOKUP_TABLE default 
0.078183 
0.086427 
0.094672 
0.086427 
0.088131 
0.092111 
0.085854 
0.092111 
0.088131 
0.088705 
0.091000 
0.086983 
0.091556 
0.086983 
0.091000 
0.088705 
0.089278 
0.091574 
0.089278 
0.092722 
0.089278 
0.092722 
0.089278 
0.091574 
0.089278 
0.078183 
0.086427 
0.094672 
0.086427 
0.088131 
0.092111 
0.085854 
0.092111 
0.088131 
0.088705 
0.091000 
0.086983 
0.091556 
0.086983 
0.091000 
0.088705 
0.089278 
0.091574 
0.089278 
0.092722 
0.089278 
0.092722 
0.089278 
0.091574 
0.089278 
0.078183 
0.086427 
0.094672 
0.086427 
0.088131 
0.092111 
0.085854 
0.092111 
0.088131 
0.088705 
0.091000 
0.086983 
0.091556 
0.086983 
0.091000 
0.088705 
0.089278 
0.091574 
0.089278 
0.092722 
0.089278 
0.092722 
0.089278 
0.091574 
0.089278 
0.078183 
0.086427 
0.094672 
0.086427 
0.088131 
0.092111 
0.085854 
0.092111 
0.088131 
0.088705 
0.091000 
0.086983 
0.091556 
0.086983 
0.091000 
0.088705 
0.089278 
0.091574 
0.089278 
0.092722 
0.089278 
0.092722 
0.089278 
0.091574 
0.089278 
0.078183 
0.086427 
0.094672 
0.086427 
0.088131 
0.092111 
0.085854 
0.092111 
0.088131 
0.088705 
0.091000 
0.086983 
0.091556 
0.086983 
0.091000 
0.088705 
0.089278 
0.091574 
0.089278 
0.092722 
0.089278 
0.092722 
0.089278 
0.091574 
0.089278 
0.078183 
0.086427 
0.094672 
0.086427 
0.088131 
0.092111 
0.085854 
0.092111 
0.088131 
0.088705 
0.091000 
0.086983 
0.091556 
0.086983 
0.091000 
0.088705 
0.089278 
0.091574 
0.089278 
0.092722 
0.089278 
0.092722 
0.089278 
0.091574 
0.089278 
0.078183 
0.086427 
0.094672 
0.086427 
0.088131 
0.092111 
0.085854 
0.092111 
0.088131 
0.088705 
0.091000 
0.086983 
0.091556 
0.086983 
0.091000 
0.088705 
0.089278 
0.091574 
0.089278 
0.092722 
0.089278 
0.092722 
0.089278 
0.091574 
0.089278 
SCALARS MASS float 
LOOKUP_TABLE default 
0.078183 
0.086427 
0.094672 
0.086427 
0.088131 
0.092111 
0.085854 
0.092111 
0.088131 
0.088705 
0.091000 
0.086983 
0.091556 
0.086983 
0.091000 
0.088705 
0.089278 
0.091574 
0.089278 
0.092722 
0.089278 
0.092722 
0.089278 
0.091574 
0.089278 
0.078183 
0.086427 
0.094672 
0.086427 
0.088131 
0.092111 
0.085854 
0.092111 
0.088131 
0.088705 
0.091000 
0.086983 
0.091556 
0.086983 
0.091000 
0.088705 
0.089278 
0.091574 
0.089278 
0.092722 
0.089278 
0.092722 
0.089278 
0.091574 
0.089278 
0.078183 
0.086427 
0.094672 
0.086427 
0.088131 
0.092111 
0.085854 
0.092111 
0.088131 
0.088705 
0.091000 
0.086983 
0.091556 
0.086983 
0.091000 
0.088705 
0.089278 
0.091574 
0.089278 
0.092722 
0.089278 
0.092722 
0.089278 
0.091574 
0.089278 
0.078183 
0.086427 
0.094672 
0.086427 
0.088131 
0.092111 
0.085854 
0.092111 
0.088131 
0.088705 
0.091000 
0.086983 
0.091556 
0.086983 
0.091000 
0.088705 
0.089278 
0.091574 
0.089278 
0.092722 
0.089278 
0.092722 
0.089278 
0.091574 
0.089278 
0.078183 
0.086427 
0.094672 
0.086427 
0.088131 
0.092111 
0.085854 
0.092111 
0.088131 
0.088705 
0.091000 
0.086983 
0.091556 
0.086983 
0.091000 
0.088705 
0.089278 
0.091574 
0.089278 
0.092722 
0.089278 
0.092722 
0.089278 
0.091574 
0.089278 
0.078183 
0.086427 
0.094672 
0.086427 
0.088131 
0.092111 
0.085854 
0.092111 
0.088131 
0.088705 
0.091000 
0.086983 
0.091556 
0.086983 
0.091000 
0.088705 
0.089278 
0.091574 
0.089278 
0.092722 
0.089278 
0.092722 
0.089278 
0.091574 
0.089278 
0.078183 
0.086427 
0.094672 
0.086427 
0.088131 
0.092111 
0.085854 
0.092111 
0.088131 
0.088705 
0.091000 
0.086983 
0.091556 
0.086983 
0.091000 
0.088705 
0.089278 
0.091574 
0.089278 
0.092722 
0.089278 
0.092722 
0.089278 
0.091574 
0.089278 
SCALARS DENSITY float 
LOOKUP_TABLE default 
20.000000 
20.000000 
20.000000 
20.000000 
20.000000 
20.000000 
20.000000 
20.000000 
20.000000 
20.000000 
20.000000 
20.000000 
20.000000 
20.000000 
20.000000 
20.000000 
20.000000 
20.000000 
20.000000 
20.000000 
20.000000 
20.000000 
20.000000 
20.000000 
20.000000 
20.000000 
20.000000 
20.000000 
20.000000 
20.000000 
20.000000 
20.000000 
20.000000 
20.000000 
20.000000 
20.000000 
20.000000 
20.000000 
20.000000 
20.000000 
20.000000 
20.000000 
20.000000 
20.000000 
20.000000 
20.000000 
20.000000 
20.000000 
20.000000 
20.000000 
20.000000 
20.000000 
20.000000 
20.000000 
20.000000 
20.000000 
20.000000 
20.000000 
20.000000 
20.000000 
20.000000 
20.000000 
20.000000 
20.000000 
20.000000 
20.000000 
20.000000 
20.000000 
20.000000 
20.000000 
20.000000 
20.000000 
20.000000 
20.000000 
20.000000 
20.000000 
20.000000 
20.000000 
20.000000 
20.000000 
20.000000 
20.000000 
20.000000 
20.000000 
20.000000 
20.000000 
20.000000 
20.000000 
20.000000 
20.000000 
20.000000 
20.000000 
20.000000 
20.000000 
20.000000 
20.000000 
20.000000 
20.000000 
20.000000 
20.000000 
20.000000 
20.000000 
20.000000 
20.000000 
20.000000 
20.000000 
20.000000 
20.000000 
20.000000 
20.000000 
20.000000 
20.000000 
20.000000 
20.000000 
20.000000 
20.000000 
20.000000 
20.000000 
20.000000 
20.000000 
20.000000 
20.000000 
20.000000 
20.000000 
20.000000 
20.000000 
20.000000 
20.000000 
20.000000 
20.000000 
20.000000 
20.000000 
20.000000 
20.000000 
20.000000 
20.000000 
20.000000 
20.000000 
20.000000 
20.000000 
20.000000 
20.000000 
20.000000 
20.000000 
20.000000 
20.000000 
20.000000 
20.000000 
20.000000 
20.000000 
20.000000 
20.000000 
20.000000 
20.000000 
20.000000 
20.000000 
20.000000 
20.000000 
20.000000 
20.000000 
20.000000 
20.000000 
20.000000 
20.000000 
20.000000 
20.000000 
20.000000 
20.000000 
20.000000 
20.000000 
20.000000 
20.000000 
20.000000 
20.000000 
20.000000 
SCALARS ELEM_i float 
LOOKUP_TABLE default 
177 
205 
178 
178 
205 
205 
205 
178 
179 
233 
206 
206 
206 
206 
179 
179 
233 
233 
233 
206 
207 
207 
207 
180 
180 
177 
204 
204 
204 
231 
204 
231 
205 
205 
231 
231 
231 
231 
232 
232 
232 
257 
258 
258 
258 
259 
259 
259 
232 
233 
177 
203 
203 
203 
202 
203 
203 
203 
230 
202 
202 
229 
230 
230 
230 
230 
201 
228 
229 
229 
229 
229 
256 
257 
257 
176 
176 
176 
176 
148 
175 
175 
175 
202 
148 
148 
174 
175 
174 
202 
202 
147 
147 
147 
174 
174 
174 
201 
201 
201 
177 
149 
149 
149 
122 
149 
149 
149 
148 
122 
122 
122 
122 
121 
148 
148 
95 
95 
94 
121 
121 
121 
121 
120 
147 
177 
150 
150 
150 
151 
151 
123 
150 
123 
124 
124 
124 
123 
123 
123 
123 
125 
124 
97 
97 
97 
96 
96 
96 
95 
177 
178 
178 
151 
179 
178 
151 
151 
151 
179 
179 
152 
152 
152 
152 
125 
180 
180 
153 
153 
153 
152 
125 
125 
125 
VECTORS VELOCITY float 
-0.000000 -3.757622 0.000000 
0.000000 -3.757622 0.000000 
0.000000 -3.757622 0.000000 
0.000000 -3.757622 0.000000 
0.000000 -3.757622 0.000000 
0.000000 -3.757622 0.000000 
-0.000000 -3.757622 0.000000 
-0.000000 -3.757622 0.000000 
-0.000000 -3.757622 0.000000 
0.000000 -3.757622 0.000000 
0.000000 -3.757622 0.000000 
0.000000 -3.757622 0.000000 
-0.000000 -3.757622 0.000000 
-0.000000 -3.757622 0.000000 
-0.000000 -3.757622 0.000000 
0.000000 -3.757622 0.000000 
0.000000 -3.757622 0.000000 
0.000000 -3.757622 0.000000 
0.000000 -3.757622 0.000000 
-0.000000 -3.757622 0.000000 
-0.000000 -3.757622 0.000000 
0.000000 -3.757622 0.000000 
-0.000000 -3.757622 0.000000 
0.000000 -3.757622 0.000000 
-0.000000 -3.757622 0.000000 
-0.000000 -3.757622 0.000000 
0.000000 -3.757622 0.000000 
0.000000 -3.757622 0.000000 
0.000000 -3.757622 0.000000 
0.000000 -3.757622 0.000000 
0.000000 -3.757622 0.000000 
0.000000 -3.757622 0.000000 
0.000000 -3.757622 0.000000 
0.000000 -3.757622 0.000000 
-0.000000 -3.757622 0.000000 
0.000000 -3.757622 0.000000 
-0.000000 -3.757622 0.000000 
0.000000 -3.757622 0.000000 
-0.000000 -3.757622 0.000000 
-0.000000 -3.757622 0.000000 
-0.000000 -3.757622 0.000000 
0.000000 -3.757622 0.000000 
0.000000 -3.757622 0.000000 
0.000000 -3.757622 0.000000 
0.000000 -3.757622 0.000000 
0.000000 -3.757622 0.000000 
-0.000000 -3.757622 0.000000 
-0.000000 -3.757622 0.000000 
-0.000000 -3.757622 0.000000 
0.000000 -3.757622 0.000000 
-0.000000 -3.757622 0.000000 
-0.000000 -3.757622 0.000000 
-0.000000 -3.757622 0.000000 
0.000000 -3.757622 0.000000 
-0.000000 -3.757622 0.000000 
-0.000000 -3.757622 0.000000 
-0.000000 -3.757622 0.000000 
-0.000000 -3.757622 0.000000 
0.000000 -3.757622 0.000000 
0.000000 -3.757622 0.000000 
0.000000 -3.757622 0.000000 
0.000000 -3.757622 0.000000 
0.000000 -3.757622 0.000000 
0.000000 -3.757622 0.000000 
-0.000000 -3.757622 0.000000 
-0.000000 -3.757622 0.000000 
0.000000 -3.757622 0.000000 
-0.000000 -3.757622 0.000000 
-0.000000 -3.757622 0.000000 
0.000000 -3.757622 0.000000 
0.000000 -3.757622 0.000000 
0.000000 -3.757622 0.000000 
0.000000 -3.757622 0.000000 
0.000000 -3.757622 0.000000 
0.000000 -3.757622 0.000000 
-0.000000 -3.757622 0.000000 
-0.000000 -3.757622 0.000000 
-0.000000 -3.757622 0.000000 
-0.000000 -3.757622 0.000000 
-0.000000 -3.757622 0.000000 
-0.000000 -3.757622 0.000000 
-0.000000 -3.757622 0.000000 
-0.000000 -3.757622 0.000000 
-0.000000 -3.757622 0.000000 
-0.000000 -3.757622 0.000000 
-0.000000 -3.757622 0.000000 
-0.000000 -3.757622 0.000000 
0.000000 -3.757622 0.000000 
0.000000 -3.757622 0.000000 
0.000000 -3.757622 0.000000 
0.000000 -3.757622 0.000000 
0.000000 -3.757622 0.000000 
0.000000 -3.757622 0.000000 
-0.000000 -3.757622 0.000000 
0.000000 -3.757622 0.000000 
0.000000 -3.757622 0.000000 
0.000000 -3.757622 0.000000 
0.000000 -3.757622 0.000000 
-0.000000 -3.757622 0.000000 
0.000000 -3.757622 0.000000 
-0.000000 -3.757622 0.000000 
0.000000 -3.757622 0.000000 
-0.000000 -3.757622 0.000000 
-0.000000 -3.757622 0.000000 
0.000000 -3.757622 0.000000 
0.000000 -3.757622 0.000000 
0.000000 -3.757622 0.000000 
0.000000 -3.757622 0.000000 
0.000000 -3.757622 0.000000 
0.000000 -3.757622 0.000000 
0.000000 -3.757622 0.000000 
0.000000 -3.757622 0.000000 
0.000000 -3.757622 0.000000 
-0.000000 -3.757622 0.000000 
-0.000000 -3.757622 0.000000 
-0.000000 -3.757622 0.000000 
-0.000000 -3.757622 0.000000 
0.000000 -3.757622 0.000000 
-0.000000 -3.757622 0.000000 
-0.000000 -3.757622 0.000000 
0.000000 -3.757622 0.000000 
-0.000000 -3.757622 0.000000 
-0.000000 -3.757622 0.000000 
-0.000000 -3.757622 0.000000 
-0.000000 -3.757622 0.000000 
-0.000000 -3.757622 0.000000 
-0.000000 -3.757622 0.000000 
-0.000000 -3.757622 0.000000 
0.000000 -3.757622 0.000000 
0.000000 -3.757622 0.000000 
0.000000 -3.757622 0.000000 
0.000000 -3.757622 0.000000 
0.000000 -3.757622 0.000000 
-0.000000 -3.757622 0.000000 
0.000000 -3.757622 0.000000 
-0.000000 -3.757622 0.000000 
-0.000000 -3.757622 0.000000 
-0.000000 -3.757622 0.000000 
-0.000000 -3.757622 0.000000 
-0.000000 -3.757622 0.000000 
-0.000000 -3.757622 0.000000 
0.000000 -3.757622 0.000000 
0.000000 -3.757622 0.000000 
-0.000000 -3.757622 0.000000 
-0.000000 -3.757622 0.000000 
0.000000 -3.757622 0.000000 
-0.000000 -3.757622 0.000000 
0.000000 -3.757622 0.000000 
-0.000000 -3.757622 0.000000 
0.000000 -3.757622 0.000000 
-0.000000 -3.757622 0.000000 
0.000000 -3.757622 0.000000 
-0.000000 -3.757622 0.000000 
-0.000000 -3.757622 0.000000 
0.000000 -3.757622 0.000000 
0.000000 -3.757622 0.000000 
0.000000 -3.757622 0.000000 
0.000000 -3.757622 0.000000 
0.000000 -3.757622 0.000000 
-0.000000 -3.757622 0.000000 
-0.000000 -3.757622 0.000000 
-0.000000 -3.757622 0.000000 
0.000000 -3.757622 0.000000 
0.000000 -3.757622 0.000000 
0.000000 -3.757622 0.000000 
0.000000 -3.757622 0.000000 
-0.000000 -3.757622 0.000000 
0.000000 -3.757622 0.000000 
0.000000 -3.757622 0.000000 
-0.000000 -3.757622 0.000000 
-0.000000 -3.757622 0.000000 
-0.000000 -3.757622 0.000000 
-0.000000 -3.757622 0.000000 
0.000000 -3.757622 0.000000 
-0.000000 -3.757622 0.000000 
TENSORS STRESS float 
0.000000 0.000000 0.000000 
0.000000 0.000000 0.000000 
0.000000 0.000000 0.000000 

0.000000 0.000000 0.000000 
0.000000 0.000000 0.000000 
0.000000 0.000000 0.000000 

-0.000000 -0.000000 0.000000 
0.000000 -0.000000 0.000000 
0.000000 0.000000 0.000000 

-0.000000 0.000000 0.000000 
0.000000 -0.000000 0.000000 
0.000000 0.000000 0.000000 

0.000000 0.000000 0.000000 
0.000000 0.000000 0.000000 
0.000000 0.000000 0.000000 

0.000000 0.000000 0.000000 
0.000000 0.000000 0.000000 
0.000000 0.000000 0.000000 

-0.000000 0.000000 0.000000 
0.000000 -0.000000 0.000000 
0.000000 0.000000 0.000000 

-0.000000 -0.000000 0.000000 
0.000000 0.000000 0.000000 
0.000000 0.000000 0.000000 

-0.000000 -0.000000 0.000000 
0.000000 -0.000000 0.000000 
0.000000 0.000000 0.000000 

-0.000000 0.000000 0.000000 
0.000000 0.000000 0.000000 
0.000000 0.000000 0.000000 

-0.000000 -0.000000 0.000000 
0.000000 -0.000000 0.000000 
0.000000 0.000000 0.000000 

-0.000000 0.000000 0.000000 
0.000000 -0.000000 0.000000 
0.000000 0.000000 0.000000 

-0.000000 -0.000000 0.000000 
0.000000 0.000000 0.000000 
0.000000 0.000000 0.000000 

-0.000000 -0.000000 0.000000 
0.000000 0.000000 0.000000 
0.000000 0.000000 0.000000 

0.000000 -0.000000 0.000000 
0.000000 -0.000000 0.000000 
0.000000 0.000000 0.000000 

0.000000 0.000000 0.000000 
0.000000 0.000000 0.000000 
0.000000 0.000000 0.000000 

0.000000 -0.000000 0.000000 
0.000000 0.000000 0.000000 
0.000000 0.000000 0.000000 

0.000000 -0.000000 0.000000 
0.000000 0.000000 0.000000 
0.000000 0.000000 0.000000 

-0.000000 0.000000 0.000000 
0.000000 -0.000000 0.000000 
0.000000 0.000000 0.000000 

0.000000 -0.000000 0.000000 
0.000000 0.000000 0.000000 
0.000000 0.000000 0.000000 

-0.000000 -0.000000 0.000000 
0.000000 -0.000000 0.000000 
0.000000 0.000000 0.000000 

0.000000 -0.000000 0.000000 
0.000000 0.000000 0.000000 
0.000000 0.000000 0.000000 

0.000000 -0.000000 0.000000 
0.000000 -0.000000 0.000000 
0.000000 0.000000 0.000000 

0.000000 -0.000000 0.000000 
0.000000 -0.000000 0.000000 
0.000000 0.000000 0.000000 

-0.000000 0.000000 0.000000 
0.000000 -0.000000 0.000000 
0.000000 0.000000 0.000000 

0.000000 0.000000 0.000000 
0.000000 0.000000 0.000000 
0.000000 0.000000 0.000000 

0.000000 0.000000 0.000000 
0.000000 0.000000 0.000000 
0.000000 0.000000 0.000000 

0.000000 0.000000 0.000000 
0.000000 0.000000 0.000000 
0.000000 0.000000 0.000000 

0.000000 0.000000 0.000000 
0.000000 -0.000000 0.000000 
0.000000 0.000000 0.000000 

-0.000000 0.000000 0.000000 
0.000000 0.000000 0.000000 
0.000000 0.000000 0.000000 

0.000000 0.000000 0.000000 
0.000000 0.000000 0.000000 
0.000000 0.000000 0.000000 

-0.000000 -0.000000 0.000000 
0.000000 -0.000000 0.000000 
0.000000 0.000000 0.000000 

0.000000 -0.000000 0.000000 
0.000000 0.000000 0.000000 
0.000000 0.000000 0.000000 

0.000000 0.000000 0.000000 
0.000000 0.000000 0.000000 
0.000000 0.000000 0.000000 

-0.000000 -0.000000 0.000000 
0.000000 -0.000000 0.000000 
0.000000 0.000000 0.000000 

-0.000000 0.000000 0.000000 
0.000000 0.000000 0.000000 
0.000000 0.000000 0.000000 

-0.000000 -0.000000 0.000000 
0.000000 -0.000000 0.000000 
0.000000 0.000000 0.000000 

-0.000000 0.000000 0.000000 
0.000000 -0.000000 0.000000 
0.000000 0.000000 0.000000 

-0.000000 -0.000000 0.000000 
0.000000 -0.000000 0.000000 
0.000000 0.000000 0.000000 

-0.000000 0.000000 0.000000 
0.000000 0.000000 0.000000 
0.000000 0.000000 0.000000 

-0.000000 0.000000 0.000000 
0.000000 0.000000 0.000000 
0.000000 0.000000 0.000000 

0.000000 0.000000 0.000000 
0.000000 0.000000 0.000000 
0.000000 0.000000 0.000000 

-0.000000 0.000000 0.000000 
0.000000 0.000000 0.000000 
0.000000 0.000000 0.000000 

-0.000000 -0.000000 0.000000 
0.000000 -0.000000 0.000000 
0.000000 0.000000 0.000000 

0.000000 0.000000 0.000000 
0.000000 0.000000 0.000000 
0.000000 0.000000 0.000000 

0.000000 -0.000000 0.000000 
0.000000 0.000000 0.000000 
0.000000 0.000000 0.000000 

0.000000 0.000000 0.000000 
0.000000 0.000000 0.000000 
0.000000 0.000000 0.000000 

0.000000 0.000000 0.000000 
0.000000 0.000000 0.000000 
0.000000 0.000000 0.000000 

0.000000 -0.000000 0.000000 
0.000000 0.000000 0.000000 
0.000000 0.000000 0.000000 

-0.000000 -0.000000 0.000000 
0.000000 0.000000 0.000000 
0.000000 0.000000 0.000000 

0.000000 -0.000000 0.000000 
0.000000 0.000000 0.000000 
0.000000 0.000000 0.000000 

0.000000 -0.000000 0.000000 
0.000000 -0.000000 0.000000 
0.000000 0.000000 0.000000 

0.000000 -0.000000 0.000000 
0.000000 0.000000 0.000000 
0.000000 0.000000 0.000000 

0.000000 0.000000 0.000000 
0.000000 0.000000 0.000000 
0.000000 0.000000 0.000000 

-0.000000 0.000000 0.000000 
0.000000 -0.000000 0.000000 
0.000000 0.000000 0.000000 

0.000000 -0.000000 0.000000 
0.000000 -0.000000 0.000000 
0.000000 0.000000 0.000000 

0.000000 0.000000 0.000000 
0.000000 0.000000 0.000000 
0.000000 0.000000 0.000000 

0.000000 0.000000 0.000000 
0.000000 0.000000 0.000000 
0.000000 0.000000 0.000000 

-0.000000 0.000000 0.000000 
0.000000 0.000000 0.000000 
0.000000 0.000000 0.000000 

0.000000 0.000000 0.000000 
0.000000 0.000000 0.000000 
0.000000 0.000000 0.000000 

0.000000 -0.000000 0.000000 
0.000000 0.000000 0.000000 
0.000000 0.000000 0.000000 

0.000000 -0.000000 0.000000 
0.000000 0.000000 0.000000 
0.000000 0.000000 0.000000 

-0.000000 0.000000 0.000000 
0.000000 -0.000000 0.000000 
0.000000 0.000000 0.000000 

0.000000 -0.000000 0.000000 
0.000000 0.000000 0.000000 
0.000000 0.000000 0.000000 

0.000000 -0.000000 0.000000 
0.000000 0.000000 0.000000 
0.000000 0.000000 0.000000 

0.000000 0.000000 0.000000 
0.000000 0.000000 0.000000 
0.000000 0.000000 0.000000 

-0.000000 0.000000 0.000000 
0.000000 -0.000000 0.000000 
0.000000 0.000000 0.000000 

-0.000000 0.000000 0.000000 
0.000000 0.000000 0.000000 
0.000000 0.000000 0.000000 

0.000000 -0.000000 0.000000 
0.000000 0.000000 0.000000 
0.000000 0.000000 0.000000 

0.000000 -0.000000 0.000000 
0.000000 0.000000 0.000000 
0.000000 0.000000 0.000000 

0.000000 0.000000 0.000000 
0.000000 0.000000 0.000000 
0.000000 0.000000 0.000000 

-0.000000 -0.000000 0.000000 
0.000000 -0.000000 0.000000 
0.000000 0.000000 0.000000 

-0.000000 -0.000000 0.000000 
0.000000 -0.000000 0.000000 
0.000000 0.000000 0.000000 

-0.000000 -0.000000 0.000000 
0.000000 -0.000000 0.000000 
0.000000 0.000000 0.000000 

0.000000 -0.000000 0.000000 
0.000000 0.000000 0.000000 
0.000000 0.000000 0.000000 

-0.000000 -0.000000 0.000000 
0.000000 -0.000000 0.000000 
0.000000 0.000000 0.000000 

-0.000000 -0.000000 0.000000 
0.000000 -0.000000 0.000000 
0.000000 0.000000 0.000000 

-0.000000 -0.000000 0.000000 
0.000000 -0.000000 0.000000 
0.000000 0.000000 0.000000 

0.000000 -0.000000 0.000000 
0.000000 0.000000 0.000000 
0.000000 0.000000 0.000000 

-0.000000 -0.000000 0.000000 
0.000000 -0.000000 0.000000 
0.000000 0.000000 0.000000 

0.000000 0.000000 0.000000 
0.000000 0.000000 0.000000 
0.000000 0.000000 0.000000 

-0.000000 0.000000 0.000000 
0.000000 -0.000000 0.000000 
0.000000 0.000000 0.000000 

-0.000000 0.000000 0.000000 
0.000000 0.000000 0.000000 
0.000000 0.000000 0.000000 

-0.000000 -0.000000 0.000000 
0.000000 -0.000000 0.000000 
0.000000 0.000000 0.000000 

-0.000000 -0.000000 0.000000 
0.000000 -0.000000 0.000000 
0.000000 0.000000 0.000000 

-0.000000 0.000000 0.000000 
0.000000 -0.000000 0.000000 
0.000000 0.000000 0.000000 

0.000000 -0.000000 0.000000 
0.000000 0.000000 0.000000 
0.000000 0.000000 0.000000 

-0.000000 -0.000000 0.000000 
0.000000 -0.000000 0.000000 
0.000000 0.000000 0.000000 

0.000000 0.000000 0.000000 
0.000000 0.000000 0.000000 
0.000000 0.000000 0.000000 

-0.000000 0.000000 0.000000 
0.000000 -0.000000 0.000000 
0.000000 0.000000 0.000000 

-0.000000 0.000000 0.000000 
0.000000 -0.000000 0.000000 
0.000000 0.000000 0.000000 

-0.000000 0.000000 0.000000 
0.000000 -0.000000 0.000000 
0.000000 0.000000 0.000000 

-0.000000 0.000000 0.000000 
0.000000 -0.000000 0.000000 
0.000000 0.000000 0.000000 

-0.000000 0.000000 0.000000 
0.000000 0.000000 0.000000 
0.000000 0.000000 0.000000 

0.000000 0.000000 0.000000 
0.000000 0.000000 0.000000 
0.000000 0.000000 0.000000 

0.000000 -0.000000 0.000000 
0.000000 -0.000000 0.000000 
0.000000 0.000000 0.000000 

0.000000 -0.000000 0.000000 
0.000000 -0.000000 0.000000 
0.000000 0.000000 0.000000 

0.000000 -0.000000 0.000000 
0.000000 0.000000 0.000000 
0.000000 0.000000 0.000000 

0.000000 -0.000000 0.000000 
0.000000 0.000000 0.000000 
0.000000 0.000000 0.000000 

0.000000 -0.000000 0.000000 
0.000000 -0.000000 0.000000 
0.000000 0.000000 0.000000 

0.000000 -0.000000 0.000000 
0.000000 0.000000 0.000000 
0.000000 0.000000 0.000000 

0.000000 0.000000 0.000000 
0.000000 0.000000 0.000000 
0.000000 0.000000 0.000000 

0.000000 0.000000 0.000000 
0.000000 -0.000000 0.000000 
0.000000 0.000000 0.000000 

0.000000 0.000000 0.000000 
0.000000 0.000000 0.000000 
0.000000 0.000000 0.000000 

-0.000000 0.000000 0.000000 
0.000000 -0.000000 0.000000 
0.000000 0.000000 0.000000 

0.000000 0.000000 0.000000 
0.000000 0.000000 0.000000 
0.000000 0.000000 0.000000 

-0.000000 -0.000000 0.000000 
0.000000 -0.000000 0.000000 
0.000000 0.000000 0.000000 

-0.000000 -0.000000 0.000000 
0.000000 -0.000000 0.000000 
0.000000 0.000000 0.000000 

0.000000 -0.000000 0.000000 
0.000000 0.000000 0.000000 
0.000000 0.000000 0.000000 

-0.000000 0.000000 0.000000 
0.000000 -0.000000 0.000000 
0.000000 0.000000 0.000000 

0.000000 0.000000 0.000000 
0.000000 -0.000000 0.000000 
0.000000 0.000000 0.000000 

0.000000 0.000000 0.000000 
0.000000 -0.000000 0.000000 
0.000000 0.000000 0.000000 

-0.000000 -0.000000 0.000000 
0.000000 -0.000000 0.000000 
0.000000 0.000000 0.000000 

-0.000000 -0.000000 0.000000 
0.000000 -0.000000 0.000000 
0.000000 0.000000 0.000000 

0.000000 0.000000 0.000000 
0.000000 0.000000 0.000000 
0.000000 0.000000 0.000000 

-0.000000 -0.000000 0.000000 
0.000000 -0.000000 0.000000 
0.000000 0.000000 0.000000 

-0.000000 -0.000000 0.000000 
0.000000 -0.000000 0.000000 
0.000000 0.000000 0.000000 

0.000000 0.000000 0.000000 
0.000000 0.000000 0.000000 
0.000000 0.000000 0.000000 

0.000000 -0.000000 0.000000 
0.000000 0.000000 0.000000 
0.000000 0.000000 0.000000 

-0.000000 -0.000000 0.000000 
0.000000 -0.000000 0.000000 
0.000000 0.000000 0.000000 

0.000000 0.000000 0.000000 
0.000000 -0.000000 0.000000 
0.000000 0.000000 0.000000 

0.000000 -0.000000 0.000000 
0.000000 0.000000 0.000000 
0.000000 0.000000 0.000000 

-0.000000 -0.000000 0.000000 
0.000000 -0.000000 0.000000 
0.000000 0.000000 0.000000 

0.000000 -0.000000 0.000000 
0.000000 0.000000 0.000000 
0.000000 0.000000 0.000000 

-0.000000 -0.000000 0.000000 
0.000000 -0.000000 0.000000 
0.000000 0.000000 0.000000 

-0.000000 -0.000000 0.000000 
0.000000 -0.000000 0.000000 
0.000000 0.000000 0.000000 

-0.000000 -0.000000 0.000000 
0.000000 -0.000000 0.000000 
0.000000 0.000000 0.000000 

0.000000 -0.000000 0.000000 
0.000000 0.000000 0.000000 
0.000000 0.000000 0.000000 

0.000000 0.000000 0.000000 
0.000000 0.000000 0.000000 
0.000000 0.000000 0.000000 

-0.000000 0.000000 0.000000 
0.000000 -0.000000 0.000000 
0.000000 0.000000 0.000000 

0.000000 -0.000000 0.000000 
0.000000 0.000000 0.000000 
0.000000 0.000000 0.000000 

-0.000000 0.000000 0.000000 
0.000000 -0.000000 0.000000 
0.000000 0.000000 0.000000 

0.000000 -0.000000 0.000000 
0.000000 0.000000 0.000000 
0.000000 0.000000 0.000000 

-0.000000 0.000000 0.000000 
0.000000 -0.000000 0.000000 
0.000000 0.000000 0.000000 

-0.000000 -0.000000 0.000000 
0.000000 -0.000000 0.000000 
0.000000 0.000000 0.000000 

0.000000 -0.000000 0.000000 
0.000000 -0.000000 0.000000 
0.000000 0.000000 0.000000 

0.000000 -0.000000 0.000000 
0.000000 -0.000000 0.000000 
0.000000 0.000000 0.000000 

0.000000 0.000000 0.000000 
0.000000 0.000000 0.000000 
0.000000 0.000000 0.000000 

-0.000000 0.000000 0.000000 
0.000000 -0.000000 0.000000 
0.000000 0.000000 0.000000 

-0.000000 0.000000 0.000000 
0.000000 -0.000000 0.000000 
0.000000 0.000000 0.000000 

-0.000000 -0.000000 0.000000 
0.000000 0.000000 0.000000 
0.000000 0.000000 0.000000 

-0.000000 0.000000 0.000000 
0.000000 -0.000000 0.000000 
0.000000 0.000000 0.000000 

-0.000000 -0.000000 0.000000 
0.000000 -0.000000 0.000000 
0.000000 0.000000 0.000000 

-0.000000 -0.000000 0.000000 
0.000000 0.000000 0.000000 
0.000000 0.000000 0.000000 

0.000000 -0.000000 0.000000 
0.000000 0.000000 0.000000 
0.000000 0.000000 0.000000 

-0.000000 0.000000 0.000000 
0.000000 -0.000000 0.000000 
0.000000 0.000000 0.000000 

-0.000000 0.000000 0.000000 
0.000000 -0.000000 0.000000 
0.000000 0.000000 0.000000 

0.000000 -0.000000 0.000000 
0.000000 0.000000 0.000000 
0.000000 0.000000 0.000000 

-0.000000 -0.000000 0.000000 
0.000000 0.000000 0.000000 
0.000000 0.000000 0.000000 

-0.000000 -0.000000 0.000000 
0.000000 -0.000000 0.000000 
0.000000 0.000000 0.000000 

0.000000 0.000000 0.000000 
0.000000 0.000000 0.000000 
0.000000 0.000000 0.000000 

0.000000 0.000000 0.000000 
0.000000 0.000000 0.000000 
0.000000 0.000000 0.000000 

0.000000 0.000000 0.000000 
0.000000 0.000000 0.000000 
0.000000 0.000000 0.000000 

0.000000 0.000000 0.000000 
0.000000 0.000000 0.000000 
0.000000 0.000000 0.000000 

-0.000000 -0.000000 0.000000 
0.000000 -0.000000 0.000000 
0.000000 0.000000 0.000000 

-0.000000 0.000000 0.000000 
0.000000 -0.000000 0.000000 
0.000000 0.000000 0.000000 

-0.000000 0.000000 0.000000 
0.000000 -0.000000 0.000000 
0.000000 0.000000 0.000000 

0.000000 0.000000 0.000000 
0.000000 -0.000000 0.000000 
0.000000 0.000000 0.000000 

0.000000 0.000000 0.000000 
0.000000 0.000000 0.000000 
0.000000 0.000000 0.000000 

0.000000 0.000000 0.000000 
0.000000 -0.000000 0.000000 
0.000000 0.000000 0.000000 

0.000000 0.000000 0.000000 
0.000000 0.000000 0.000000 
0.000000 0.000000 0.000000 

0.000000 -0.000000 0.000000 
0.000000 0.000000 0.000000 
0.000000 0.000000 0.000000 

-0.000000 -0.000000 0.000000 
0.000000 -0.000000 0.000000 
0.000000 0.000000 0.000000 

-0.000000 0.000000 0.000000 
0.000000 -0.000000 0.000000 
0.000000 0.000000 0.000000 

0.000000 -0.000000 0.000000 
0.000000 0.000000 0.000000 
0.000000 0.000000 0.000000 

-0.000000 -0.000000 0.000000 
0.000000 -0.000000 0.000000 
0.000000 0.000000 0.000000 

-0.000000 0.000000 0.000000 
0.000000 -0.000000 0.000000 
0.000000 0.000000 0.000000 

-0.000000 -0.000000 0.000000 
0.000000 -0.000000 0.000000 
0.000000 0.000000 0.000000 

-0.000000 0.000000 0.000000 
0.000000 -0.000000 0.000000 
0.000000 0.000000 0.000000 

-0.000000 0.000000 0.000000 
0.000000 -0.000000 0.000000 
0.000000 0.000000 0.000000 

-0.000000 -0.000000 0.000000 
0.000000 -0.000000 0.000000 
0.000000 0.000000 0.000000 

0.000000 0.000000 0.000000 
0.000000 0.000000 0.000000 
0.000000 0.000000 0.000000 

-0.000000 0.000000 0.000000 
0.000000 -0.000000 0.000000 
0.000000 0.000000 0.000000 

-0.000000 0.000000 0.000000 
0.000000 0.000000 0.000000 
0.000000 0.000000 0.000000 

0.000000 -0.000000 0.000000 
0.000000 0.000000 0.000000 
0.000000 0.000000 0.000000 

TENSORS STRAIN float 
0.000000 0.000000 0.000000 
0.000000 0.000000 0.000000 
0.000000 0.000000 0.000000 

0.000000 0.000000 0.000000 
0.000000 0.000000 0.000000 
0.000000 0.000000 0.000000 

-0.000000 -0.000000 0.000000 
0.000000 -0.000000 0.000000 
0.000000 0.000000 0.000000 

-0.000000 0.000000 0.000000 
0.000000 -0.000000 0.000000 
0.000000 0.000000 0.000000 

0.000000 0.000000 0.000000 
0.000000 0.000000 0.000000 
0.000000 0.000000 0.000000 

0.000000 0.000000 0.000000 
0.000000 0.000000 0.000000 
0.000000 0.000000 0.000000 

-0.000000 0.000000 0.000000 
0.000000 -0.000000 0.000000 
0.000000 0.000000 0.000000 

-0.000000 -0.000000 0.000000 
0.000000 0.000000 0.000000 
0.000000 0.000000 0.000000 

-0.000000 -0.000000 0.000000 
0.000000 -0.000000 0.000000 
0.000000 0.000000 0.000000 

-0.000000 0.000000 0.000000 
0.000000 0.000000 0.000000 
0.000000 0.000000 0.000000 

-0.000000 -0.000000 0.000000 
0.000000 -0.000000 0.000000 
0.000000 0.000000 0.000000 

-0.000000 0.000000 0.000000 
0.000000 0.000000 0.000000 
0.000000 0.000000 0.000000 

-0.000000 -0.000000 0.000000 
0.000000 0.000000 0.000000 
0.000000 0.000000 0.000000 

-0.000000 -0.000000 0.000000 
0.000000 0.000000 0.000000 
0.000000 0.000000 0.000000 

0.000000 -0.000000 0.000000 
0.000000 -0.000000 0.000000 
0.000000 0.000000 0.000000 

0.000000 0.000000 0.000000 
0.000000 0.000000 0.000000 
0.000000 0.000000 0.000000 

0.000000 -0.000000 0.000000 
0.000000 0.000000 0.000000 
0.000000 0.000000 0.000000 

0.000000 -0.000000 0.000000 
0.000000 0.000000 0.000000 
0.000000 0.000000 0.000000 

-0.000000 0.000000 0.000000 
0.000000 0.000000 0.000000 
0.000000 0.000000 0.000000 

-0.000000 -0.000000 0.000000 
0.000000 0.000000 0.000000 
0.000000 0.000000 0.000000 

0.000000 -0.000000 0.000000 
0.000000 -0.000000 0.000000 
0.000000 0.000000 0.000000 

-0.000000 -0.000000 0.000000 
0.000000 0.000000 0.000000 
0.000000 0.000000 0.000000 

0.000000 -0.000000 0.000000 
0.000000 -0.000000 0.000000 
0.000000 0.000000 0.000000 

0.000000 -0.000000 0.000000 
0.000000 -0.000000 0.000000 
0.000000 0.000000 0.000000 

0.000000 0.000000 0.000000 
0.000000 -0.000000 0.000000 
0.000000 0.000000 0.000000 

0.000000 0.000000 0.000000 
0.000000 0.000000 0.000000 
0.000000 0.000000 0.000000 

0.000000 0.000000 0.000000 
0.000000 0.000000 0.000000 
0.000000 0.000000 0.000000 

0.000000 0.000000 0.000000 
0.000000 0.000000 0.000000 
0.000000 0.000000 0.000000 

0.000000 0.000000 0.000000 
0.000000 -0.000000 0.000000 
0.000000 0.000000 0.000000 

-0.000000 0.000000 0.000000 
0.000000 0.000000 0.000000 
0.000000 0.000000 0.000000 

0.000000 0.000000 0.000000 
0.000000 -0.000000 0.000000 
0.000000 0.000000 0.000000 

-0.000000 -0.000000 0.000000 
0.000000 -0.000000 0.000000 
0.000000 0.000000 0.000000 

0.000000 -0.000000 0.000000 
0.000000 0.000000 0.000000 
0.000000 0.000000 0.000000 

0.000000 0.000000 0.000000 
0.000000 0.000000 0.000000 
0.000000 0.000000 0.000000 

-0.000000 -0.000000 0.000000 
0.000000 0.000000 0.000000 
0.000000 0.000000 0.000000 

-0.000000 0.000000 0.000000 
0.000000 0.000000 0.000000 
0.000000 0.000000 0.000000 

-0.000000 -0.000000 0.000000 
0.000000 -0.000000 0.000000 
0.000000 0.000000 0.000000 

-0.000000 0.000000 0.000000 
0.000000 -0.000000 0.000000 
0.000000 0.000000 0.000000 

-0.000000 -0.000000 0.000000 
0.000000 0.000000 0.000000 
0.000000 0.000000 0.000000 

-0.000000 0.000000 0.000000 
0.000000 0.000000 0.000000 
0.000000 0.000000 0.000000 

-0.000000 0.000000 0.000000 
0.000000 0.000000 0.000000 
0.000000 0.000000 0.000000 

-0.000000 0.000000 0.000000 
0.000000 0.000000 0.000000 
0.000000 0.000000 0.000000 

-0.000000 0.000000 0.000000 
0.000000 0.000000 0.000000 
0.000000 0.000000 0.000000 

-0.000000 -0.000000 0.000000 
0.000000 -0.000000 0.000000 
0.000000 0.000000 0.000000 

-0.000000 0.000000 0.000000 
0.000000 0.000000 0.000000 
0.000000 0.000000 0.000000 

0.000000 -0.000000 0.000000 
0.000000 0.000000 0.000000 
0.000000 0.000000 0.000000 

0.000000 0.000000 0.000000 
0.000000 -0.000000 0.000000 
0.000000 0.000000 0.000000 

-0.000000 0.000000 0.000000 
0.000000 0.000000 0.000000 
0.000000 0.000000 0.000000 

-0.000000 -0.000000 0.000000 
0.000000 0.000000 0.000000 
0.000000 0.000000 0.000000 

-0.000000 -0.000000 0.000000 
0.000000 0.000000 0.000000 
0.000000 0.000000 0.000000 

-0.000000 -0.000000 0.000000 
0.000000 0.000000 0.000000 
0.000000 0.000000 0.000000 

0.000000 -0.000000 0.000000 
0.000000 -0.000000 0.000000 
0.000000 0.000000 0.000000 

0.000000 -0.000000 0.000000 
0.000000 -0.000000 0.000000 
0.000000 0.000000 0.000000 

0.000000 0.000000 0.000000 
0.000000 -0.000000 0.000000 
0.000000 0.000000 0.000000 

0.000000 0.000000 0.000000 
0.000000 -0.000000 0.000000 
0.000000 0.000000 0.000000 

0.000000 -0.000000 0.000000 
0.000000 -0.000000 0.000000 
0.000000 0.000000 0.000000 

0.000000 0.000000 0.000000 
0.000000 0.000000 0.000000 
0.000000 0.000000 0.000000 

0.000000 0.000000 0.000000 
0.000000 -0.000000 0.000000 
0.000000 0.000000 0.000000 

-0.000000 0.000000 0.000000 
0.000000 0.000000 0.000000 
0.000000 0.000000 0.000000 

-0.000000 0.000000 0.000000 
0.000000 0.000000 0.000000 
0.000000 0.000000 0.000000 

-0.000000 -0.000000 0.000000 
0.000000 0.000000 0.000000 
0.000000 0.000000 0.000000 

0.000000 -0.000000 0.000000 
0.000000 0.000000 0.000000 
0.000000 0.000000 0.000000 

0.000000 0.000000 0.000000 
0.000000 -0.000000 0.000000 
0.000000 0.000000 0.000000 

0.000000 -0.000000 0.000000 
0.000000 0.000000 0.000000 
0.000000 0.000000 0.000000 

-0.000000 -0.000000 0.000000 
0.000000 0.000000 0.000000 
0.000000 0.000000 0.000000 

-0.000000 0.000000 0.000000 
0.000000 0.000000 0.000000 
0.000000 0.000000 0.000000 

0.000000 0.000000 0.000000 
0.000000 -0.000000 0.000000 
0.000000 0.000000 0.000000 

-0.000000 0.000000 0.000000 
0.000000 0.000000 0.000000 
0.000000 0.000000 0.000000 

-0.000000 -0.000000 0.000000 
0.000000 0.000000 0.000000 
0.000000 0.000000 0.000000 

0.000000 -0.000000 0.000000 
0.000000 0.000000 0.000000 
0.000000 0.000000 0.000000 

0.000000 0.000000 0.000000 
0.000000 0.000000 0.000000 
0.000000 0.000000 0.000000 

0.000000 -0.000000 0.000000 
0.000000 -0.000000 0.000000 
0.000000 0.000000 0.000000 

0.000000 -0.000000 0.000000 
0.000000 -0.000000 0.000000 
0.000000 0.000000 0.000000 

-0.000000 -0.000000 0.000000 
0.000000 -0.000000 0.000000 
0.000000 0.000000 0.000000 

-0.000000 -0.000000 0.000000 
0.000000 0.000000 0.000000 
0.000000 0.000000 0.000000 

0.000000 -0.000000 0.000000 
0.000000 -0.000000 0.000000 
0.000000 0.000000 0.000000 

-0.000000 -0.000000 0.000000 
0.000000 -0.000000 0.000000 
0.000000 0.000000 0.000000 

-0.000000 -0.000000 0.000000 
0.000000 0.000000 0.000000 
0.000000 0.000000 0.000000 

-0.000000 -0.000000 0.000000 
0.000000 0.000000 0.000000 
0.000000 0.000000 0.000000 

-0.000000 -0.000000 0.000000 
0.000000 -0.000000 0.000000 
0.000000 0.000000 0.000000 

-0.000000 0.000000 0.000000 
0.000000 0.000000 0.000000 
0.000000 0.000000 0.000000 

-0.000000 0.000000 0.000000 
0.000000 -0.000000 0.000000 
0.000000 0.000000 0.000000 

-0.000000 0.000000 0.000000 
0.000000 0.000000 0.000000 
0.000000 0.000000 0.000000 

-0.000000 -0.000000 0.000000 
0.000000 -0.000000 0.000000 
0.000000 0.000000 0.000000 

-0.000000 -0.000000 0.000000 
0.000000 0.000000 0.000000 
0.000000 0.000000 0.000000 

-0.000000 0.000000 0.000000 
0.000000 0.000000 0.000000 
0.000000 0.000000 0.000000 

0.000000 -0.000000 0.000000 
0.000000 0.000000 0.000000 
0.000000 0.000000 0.000000 

-0.000000 -0.000000 0.000000 
0.000000 0.000000 0.000000 
0.000000 0.000000 0.000000 

0.000000 0.000000 0.000000 
0.000000 0.000000 0.000000 
0.000000 0.000000 0.000000 

-0.000000 0.000000 0.000000 
0.000000 -0.000000 0.000000 
0.000000 0.000000 0.000000 

0.000000 0.000000 0.000000 
0.000000 -0.000000 0.000000 
0.000000 0.000000 0.000000 

-0.000000 0.000000 0.000000 
0.000000 -0.000000 0.000000 
0.000000 0.000000 0.000000 

-0.000000 0.000000 0.000000 
0.000000 0.000000 0.000000 
0.000000 0.000000 0.000000 

-0.000000 0.000000 0.000000 
0.000000 0.000000 0.000000 
0.000000 0.000000 0.000000 

0.000000 0.000000 0.000000 
0.000000 0.000000 0.000000 
0.000000 0.000000 0.000000 

0.000000 -0.000000 0.000000 
0.000000 -0.000000 0.000000 
0.000000 0.000000 0.000000 

0.000000 -0.000000 0.000000 
0.000000 -0.000000 0.000000 
0.000000 0.000000 0.000000 

0.000000 -0.000000 0.000000 
0.000000 0.000000 0.000000 
0.000000 0.000000 0.000000 

0.000000 -0.000000 0.000000 
0.000000 -0.000000 0.000000 
0.000000 0.000000 0.000000 

0.000000 -0.000000 0.000000 
0.000000 -0.000000 0.000000 
0.000000 0.000000 0.000000 

-0.000000 -0.000000 0.000000 
0.000000 0.000000 0.000000 
0.000000 0.000000 0.000000 

0.000000 0.000000 0.000000 
0.000000 -0.000000 0.000000 
0.000000 0.000000 0.000000 

0.000000 0.000000 0.000000 
0.000000 -0.000000 0.000000 
0.000000 0.000000 0.000000 

0.000000 0.000000 0.000000 
0.000000 0.000000 0.000000 
0.000000 0.000000 0.000000 

0.000000 0.000000 0.000000 
0.000000 -0.000000 0.000000 
0.000000 0.000000 0.000000 

0.000000 0.000000 0.000000 
0.000000 0.000000 0.000000 
0.000000 0.000000 0.000000 

-0.000000 -0.000000 0.000000 
0.000000 -0.000000 0.000000 
0.000000 0.000000 0.000000 

-0.000000 -0.000000 0.000000 
0.000000 -0.000000 0.000000 
0.000000 0.000000 0.000000 

-0.000000 -0.000000 0.000000 
0.000000 0.000000 0.000000 
0.000000 0.000000 0.000000 

0.000000 0.000000 0.000000 
0.000000 -0.000000 0.000000 
0.000000 0.000000 0.000000 

0.000000 0.000000 0.000000 
0.000000 -0.000000 0.000000 
0.000000 0.000000 0.000000 

0.000000 0.000000 0.000000 
0.000000 -0.000000 0.000000 
0.000000 0.000000 0.000000 

0.000000 -0.000000 0.000000 
0.000000 -0.000000 0.000000 
0.000000 0.000000 0.000000 

0.000000 -0.000000 0.000000 
0.000000 -0.000000 0.000000 
0.000000 0.000000 0.000000 

-0.000000 0.000000 0.000000 
0.000000 0.000000 0.000000 
0.000000 0.000000 0.000000 

-0.000000 -0.000000 0.000000 
0.000000 -0.000000 0.000000 
0.000000 0.000000 0.000000 

-0.000000 -0.000000 0.000000 
0.000000 -0.000000 0.000000 
0.000000 0.000000 0.000000 

0.000000 0.000000 0.000000 
0.000000 0.000000 0.000000 
0.000000 0.000000 0.000000 

0.000000 -0.000000 0.000000 
0.000000 -0.000000 0.000000 
0.000000 0.000000 0.000000 

-0.000000 -0.000000 0.000000 
0.000000 -0.000000 0.000000 
0.000000 0.000000 0.000000 

0.000000 0.000000 0.000000 
0.000000 -0.000000 0.000000 
0.000000 0.000000 0.000000 

0.000000 -0.000000 0.000000 
0.000000 0.000000 0.000000 
0.000000 0.000000 0.000000 

0.000000 -0.000000 0.000000 
0.000000 -0.000000 0.000000 
0.000000 0.000000 0.000000 

0.000000 -0.000000 0.000000 
0.000000 0.000000 0.000000 
0.000000 0.000000 0.000000 

-0.000000 -0.000000 0.000000 
0.000000 0.000000 0.000000 
0.000000 0.000000 0.000000 

0.000000 -0.000000 0.000000 
0.000000 -0.000000 0.000000 
0.000000 0.000000 0.000000 

-0.000000 -0.000000 0.000000 
0.000000 -0.000000 0.000000 
0.000000 0.000000 0.000000 

0.000000 -0.000000 0.000000 
0.000000 0.000000 0.000000 
0.000000 0.000000 0.000000 

0.000000 0.000000 0.000000 
0.000000 0.000000 0.000000 
0.000000 0.000000 0.000000 

0.000000 0.000000 0.000000 
0.000000 -0.000000 0.000000 
0.000000 0.000000 0.000000 

0.000000 -0.000000 0.000000 
0.000000 0.000000 0.000000 
0.000000 0.000000 0.000000 

-0.000000 0.000000 0.000000 
0.000000 -0.000000 0.000000 
0.000000 0.000000 0.000000 

-0.000000 -0.000000 0.000000 
0.000000 0.000000 0.000000 
0.000000 0.000000 0.000000 

-0.000000 0.000000 0.000000 
0.000000 -0.000000 0.000000 
0.000000 0.000000 0.000000 

0.000000 -0.000000 0.000000 
0.000000 -0.000000 0.000000 
0.000000 0.000000 0.000000 

0.000000 -0.000000 0.000000 
0.000000 -0.000000 0.000000 
0.000000 0.000000 0.000000 

0.000000 -0.000000 0.000000 
0.000000 -0.000000 0.000000 
0.000000 0.000000 0.000000 

0.000000 0.000000 0.000000 
0.000000 0.000000 0.000000 
0.000000 0.000000 0.000000 

-0.000000 0.000000 0.000000 
0.000000 -0.000000 0.000000 
0.000000 0.000000 0.000000 

-0.000000 0.000000 0.000000 
0.000000 -0.000000 0.000000 
0.000000 0.000000 0.000000 

-0.000000 -0.000000 0.000000 
0.000000 0.000000 0.000000 
0.000000 0.000000 0.000000 

-0.000000 0.000000 0.000000 
0.000000 -0.000000 0.000000 
0.000000 0.000000 0.000000 

0.000000 -0.000000 0.000000 
0.000000 -0.000000 0.000000 
0.000000 0.000000 0.000000 

-0.000000 -0.000000 0.000000 
0.000000 0.000000 0.000000 
0.000000 0.000000 0.000000 

0.000000 -0.000000 0.000000 
0.000000 0.000000 0.000000 
0.000000 0.000000 0.000000 

-0.000000 0.000000 0.000000 
0.000000 -0.000000 0.000000 
0.000000 0.000000 0.000000 

-0.000000 0.000000 0.000000 
0.000000 -0.000000 0.000000 
0.000000 0.000000 0.000000 

-0.000000 -0.000000 0.000000 
0.000000 0.000000 0.000000 
0.000000 0.000000 0.000000 

-0.000000 -0.000000 0.000000 
0.000000 0.000000 0.000000 
0.000000 0.000000 0.000000 

-0.000000 -0.000000 0.000000 
0.000000 0.000000 0.000000 
0.000000 0.000000 0.000000 

0.000000 0.000000 0.000000 
0.000000 0.000000 0.000000 
0.000000 0.000000 0.000000 

-0.000000 0.000000 0.000000 
0.000000 0.000000 0.000000 
0.000000 0.000000 0.000000 

-0.000000 0.000000 0.000000 
0.000000 0.000000 0.000000 
0.000000 0.000000 0.000000 

0.000000 0.000000 0.000000 
0.000000 0.000000 0.000000 
0.000000 0.000000 0.000000 

-0.000000 -0.000000 0.000000 
0.000000 -0.000000 0.000000 
0.000000 0.000000 0.000000 

-0.000000 0.000000 0.000000 
0.000000 0.000000 0.000000 
0.000000 0.000000 0.000000 

0.000000 0.000000 0.000000 
0.000000 -0.000000 0.000000 
0.000000 0.000000 0.000000 

0.000000 0.000000 0.000000 
0.000000 -0.000000 0.000000 
0.000000 0.000000 0.000000 

0.000000 0.000000 0.000000 
0.000000 0.000000 0.000000 
0.000000 0.000000 0.000000 

0.000000 0.000000 0.000000 
0.000000 -0.000000 0.000000 
0.000000 0.000000 0.000000 

0.000000 0.000000 0.000000 
0.000000 0.000000 0.000000 
0.000000 0.000000 0.000000 

-0.000000 -0.000000 0.000000 
0.000000 0.000000 0.000000 
0.000000 0.000000 0.000000 

-0.000000 -0.000000 0.000000 
0.000000 -0.000000 0.000000 
0.000000 0.000000 0.000000 

-0.000000 0.000000 0.000000 
0.000000 -0.000000 0.000000 
0.000000 0.000000 0.000000 

0.000000 -0.000000 0.000000 
0.000000 0.000000 0.000000 
0.000000 0.000000 0.000000 

-0.000000 -0.000000 0.000000 
0.000000 -0.000000 0.000000 
0.000000 0.000000 0.000000 

0.000000 0.000000 0.000000 
0.000000 -0.000000 0.000000 
0.000000 0.000000 0.000000 

0.000000 -0.000000 0.000000 
0.000000 -0.000000 0.000000 
0.000000 0.000000 0.000000 

-0.000000 0.000000 0.000000 
0.000000 -0.000000 0.000000 
0.000000 0.000000 0.000000 

-0.000000 0.000000 0.000000 
0.000000 -0.000000 0.000000 
0.000000 0.000000 0.000000 

-0.000000 -0.000000 0.000000 
0.000000 -0.000000 0.000000 
0.000000 0.000000 0.000000 

-0.000000 0.000000 0.000000 
0.000000 0.000000 0.000000 
0.000000 0.000000 0.000000 

-0.000000 0.000000 0.000000 
0.000000 0.000000 0.000000 
0.000000 0.000000 0.000000 

-0.000000 0.000000 0.000000 
0.000000 0.000000 0.000000 
0.000000 0.000000 0.000000 

-0.000000 -0.000000 0.000000 
0.000000 0.000000 0.000000 
0.000000 0.000000 0.000000 

