# vtk DataFile Version 3.0 
vtk output 
ASCII 
DATASET UNSTRUCTURED_GRID 
POINTS 175 float 
-0.026061 -0.867557 0.000000 
-0.106992 -0.799502 0.000000 
-0.054870 -0.807734 0.000000 
-0.028809 -0.761851 0.000000 
-0.186430 -0.735426 0.000000 
-0.137056 -0.737953 0.000000 
-0.114311 -0.684305 0.000000 
-0.058186 -0.699971 0.000000 
-0.029377 -0.659794 0.000000 
-0.265318 -0.672271 0.000000 
-0.217198 -0.673070 0.000000 
-0.196633 -0.615774 0.000000 
-0.143120 -0.624482 0.000000 
-0.116563 -0.577214 0.000000 
-0.058945 -0.596859 0.000000 
-0.029568 -0.558739 0.000000 
-0.344206 -0.609115 0.000000 
-0.296791 -0.609108 0.000000 
-0.278030 -0.549165 0.000000 
-0.225992 -0.555031 0.000000 
-0.201664 -0.502914 0.000000 
-0.145749 -0.516388 0.000000 
-0.117890 -0.472045 0.000000 
-0.059328 -0.494751 0.000000 
-0.029759 -0.457685 0.000000 
-0.058559 -0.908308 0.000000 
-0.162226 -0.929151 0.000000 
-0.123292 -0.893533 0.000000 
-0.142917 -0.844550 0.000000 
-0.261851 -0.951307 0.000000 
-0.229092 -0.914280 0.000000 
-0.256854 -0.863048 0.000000 
-0.209613 -0.828936 0.000000 
-0.223062 -0.781362 0.000000 
-0.360414 -0.973607 0.000000 
-0.329787 -0.936484 0.000000 
-0.361761 -0.884682 0.000000 
-0.321587 -0.848273 0.000000 
-0.341985 -0.798039 0.000000 
-0.290702 -0.765240 0.000000 
-0.302189 -0.718505 0.000000 
-0.458977 -0.995907 0.000000 
-0.429420 -0.958833 0.000000 
-0.464588 -0.906791 0.000000 
-0.427556 -0.869763 0.000000 
-0.453135 -0.818249 0.000000 
-0.407738 -0.782933 0.000000 
-0.425037 -0.733505 0.000000 
-0.370772 -0.701876 0.000000 
-0.381315 -0.655649 0.000000 
-0.046960 -0.959123 0.000000 
-0.095301 -1.053169 0.000000 
-0.098873 -1.000522 0.000000 
-0.149405 -0.985324 0.000000 
-0.140093 -1.144873 0.000000 
-0.148617 -1.096175 0.000000 
-0.205981 -1.085938 0.000000 
-0.203197 -1.027734 0.000000 
-0.248777 -1.008588 0.000000 
-0.184111 -1.235837 0.000000 
-0.194039 -1.188746 0.000000 
-0.254475 -1.181446 0.000000 
-0.257893 -1.127336 0.000000 
-0.309886 -1.111964 0.000000 
-0.303554 -1.051419 0.000000 
-0.347255 -1.031261 0.000000 
-0.228129 -1.326800 0.000000 
-0.238687 -1.280576 0.000000 
-0.301302 -1.275624 0.000000 
-0.307162 -1.223585 0.000000 
-0.363386 -1.211464 0.000000 
-0.362692 -1.153953 0.000000 
-0.412122 -1.136660 0.000000 
-0.403017 -1.074513 0.000000 
-0.445733 -1.053934 0.000000 
-0.000000 -0.981738 0.000000 
0.043388 -1.078169 0.000000 
-0.000000 -1.048136 0.000000 
-0.043388 -1.078169 0.000000 
0.087158 -1.170365 0.000000 
0.043769 -1.146667 0.000000 
-0.000000 -1.185133 0.000000 
-0.043769 -1.146667 0.000000 
-0.087158 -1.170365 0.000000 
0.130831 -1.261495 0.000000 
0.087824 -1.239896 0.000000 
0.044436 -1.282596 0.000000 
-0.000000 -1.251531 0.000000 
-0.044436 -1.282596 0.000000 
-0.087824 -1.239896 0.000000 
-0.130831 -1.261495 0.000000 
0.174505 -1.352625 0.000000 
0.131782 -1.332059 0.000000 
0.088871 -1.377925 0.000000 
0.044532 -1.350061 0.000000 
-0.000000 -1.386462 0.000000 
-0.044532 -1.350061 0.000000 
-0.088871 -1.377925 0.000000 
-0.131782 -1.332059 0.000000 
-0.174505 -1.352625 0.000000 
0.046960 -0.959123 0.000000 
0.149405 -0.985324 0.000000 
0.098873 -1.000522 0.000000 
0.095301 -1.053169 0.000000 
0.248777 -1.008588 0.000000 
0.203197 -1.027734 0.000000 
0.205981 -1.085938 0.000000 
0.148617 -1.096175 0.000000 
0.140093 -1.144873 0.000000 
0.347255 -1.031261 0.000000 
0.303554 -1.051419 0.000000 
0.309886 -1.111964 0.000000 
0.257893 -1.127336 0.000000 
0.254475 -1.181446 0.000000 
0.194039 -1.188746 0.000000 
0.184111 -1.235837 0.000000 
0.445733 -1.053934 0.000000 
0.403017 -1.074513 0.000000 
0.412122 -1.136660 0.000000 
0.362692 -1.153953 0.000000 
0.363386 -1.211464 0.000000 
0.307162 -1.223585 0.000000 
0.301302 -1.275624 0.000000 
0.238687 -1.280576 0.000000 
0.228129 -1.326800 0.000000 
0.058559 -0.908308 0.000000 
0.142917 -0.844550 0.000000 
0.123292 -0.893533 0.000000 
0.162226 -0.929151 0.000000 
0.223062 -0.781362 0.000000 
0.209613 -0.828936 0.000000 
0.256854 -0.863048 0.000000 
0.229092 -0.914280 0.000000 
0.261851 -0.951307 0.000000 
0.302189 -0.718505 0.000000 
0.290702 -0.765240 0.000000 
0.341985 -0.798039 0.000000 
0.321587 -0.848273 0.000000 
0.361761 -0.884682 0.000000 
0.329787 -0.936484 0.000000 
0.360414 -0.973607 0.000000 
0.381315 -0.655649 0.000000 
0.370772 -0.701876 0.000000 
0.425037 -0.733505 0.000000 
0.407738 -0.782933 0.000000 
0.453135 -0.818249 0.000000 
0.427556 -0.869763 0.000000 
0.464588 -0.906791 0.000000 
0.429420 -0.958833 0.000000 
0.458977 -0.995907 0.000000 
0.026061 -0.867557 0.000000 
0.028809 -0.761851 0.000000 
0.054870 -0.807734 0.000000 
0.106992 -0.799502 0.000000 
0.029377 -0.659794 0.000000 
0.058186 -0.699971 0.000000 
0.114311 -0.684305 0.000000 
0.137056 -0.737953 0.000000 
0.186430 -0.735426 0.000000 
0.029568 -0.558739 0.000000 
0.058945 -0.596859 0.000000 
0.116563 -0.577214 0.000000 
0.143120 -0.624482 0.000000 
0.196633 -0.615774 0.000000 
0.217198 -0.673070 0.000000 
0.265318 -0.672271 0.000000 
0.029759 -0.457685 0.000000 
0.059328 -0.494751 0.000000 
0.117890 -0.472045 0.000000 
0.145749 -0.516388 0.000000 
0.201664 -0.502914 0.000000 
0.225992 -0.555031 0.000000 
0.278030 -0.549165 0.000000 
0.296791 -0.609108 0.000000 
0.344206 -0.609115 0.000000 
CELLS 175 350 
1 0 
1 1 
1 2 
1 3 
1 4 
1 5 
1 6 
1 7 
1 8 
1 9 
1 10 
1 11 
1 12 
1 13 
1 14 
1 15 
1 16 
1 17 
1 18 
1 19 
1 20 
1 21 
1 22 
1 23 
1 24 
1 25 
1 26 
1 27 
1 28 
1 29 
1 30 
1 31 
1 32 
1 33 
1 34 
1 35 
1 36 
1 37 
1 38 
1 39 
1 40 
1 41 
1 42 
1 43 
1 44 
1 45 
1 46 
1 47 
1 48 
1 49 
1 50 
1 51 
1 52 
1 53 
1 54 
1 55 
1 56 
1 57 
1 58 
1 59 
1 60 
1 61 
1 62 
1 63 
1 64 
1 65 
1 66 
1 67 
1 68 
1 69 
1 70 
1 71 
1 72 
1 73 
1 74 
1 75 
1 76 
1 77 
1 78 
1 79 
1 80 
1 81 
1 82 
1 83 
1 84 
1 85 
1 86 
1 87 
1 88 
1 89 
1 90 
1 91 
1 92 
1 93 
1 94 
1 95 
1 96 
1 97 
1 98 
1 99 
1 100 
1 101 
1 102 
1 103 
1 104 
1 105 
1 106 
1 107 
1 108 
1 109 
1 110 
1 111 
1 112 
1 113 
1 114 
1 115 
1 116 
1 117 
1 118 
1 119 
1 120 
1 121 
1 122 
1 123 
1 124 
1 125 
1 126 
1 127 
1 128 
1 129 
1 130 
1 131 
1 132 
1 133 
1 134 
1 135 
1 136 
1 137 
1 138 
1 139 
1 140 
1 141 
1 142 
1 143 
1 144 
1 145 
1 146 
1 147 
1 148 
1 149 
1 150 
1 151 
1 152 
1 153 
1 154 
1 155 
1 156 
1 157 
1 158 
1 159 
1 160 
1 161 
1 162 
1 163 
1 164 
1 165 
1 166 
1 167 
1 168 
1 169 
1 170 
1 171 
1 172 
1 173 
1 174 
CELL_TYPES 175 
1 
1 
1 
1 
1 
1 
1 
1 
1 
1 
1 
1 
1 
1 
1 
1 
1 
1 
1 
1 
1 
1 
1 
1 
1 
1 
1 
1 
1 
1 
1 
1 
1 
1 
1 
1 
1 
1 
1 
1 
1 
1 
1 
1 
1 
1 
1 
1 
1 
1 
1 
1 
1 
1 
1 
1 
1 
1 
1 
1 
1 
1 
1 
1 
1 
1 
1 
1 
1 
1 
1 
1 
1 
1 
1 
1 
1 
1 
1 
1 
1 
1 
1 
1 
1 
1 
1 
1 
1 
1 
1 
1 
1 
1 
1 
1 
1 
1 
1 
1 
1 
1 
1 
1 
1 
1 
1 
1 
1 
1 
1 
1 
1 
1 
1 
1 
1 
1 
1 
1 
1 
1 
1 
1 
1 
1 
1 
1 
1 
1 
1 
1 
1 
1 
1 
1 
1 
1 
1 
1 
1 
1 
1 
1 
1 
1 
1 
1 
1 
1 
1 
1 
1 
1 
1 
1 
1 
1 
1 
1 
1 
1 
1 
1 
1 
1 
1 
1 
1 
1 
1 
1 
1 
1 
1 
POINT_DATA 175 
VECTORS X_GC float 
-0.026061 -0.867557 0.000000 
-0.106992 -0.799502 0.000000 
-0.054870 -0.807734 0.000000 
-0.028809 -0.761851 0.000000 
-0.186430 -0.735426 0.000000 
-0.137056 -0.737953 0.000000 
-0.114311 -0.684305 0.000000 
-0.058186 -0.699971 0.000000 
-0.029377 -0.659794 0.000000 
-0.265318 -0.672271 0.000000 
-0.217198 -0.673070 0.000000 
-0.196633 -0.615774 0.000000 
-0.143120 -0.624482 0.000000 
-0.116563 -0.577214 0.000000 
-0.058945 -0.596859 0.000000 
-0.029568 -0.558739 0.000000 
-0.344206 -0.609115 0.000000 
-0.296791 -0.609108 0.000000 
-0.278030 -0.549165 0.000000 
-0.225992 -0.555031 0.000000 
-0.201664 -0.502914 0.000000 
-0.145749 -0.516388 0.000000 
-0.117890 -0.472045 0.000000 
-0.059328 -0.494751 0.000000 
-0.029759 -0.457685 0.000000 
-0.058559 -0.908308 0.000000 
-0.162226 -0.929151 0.000000 
-0.123292 -0.893533 0.000000 
-0.142917 -0.844550 0.000000 
-0.261851 -0.951307 0.000000 
-0.229092 -0.914280 0.000000 
-0.256854 -0.863048 0.000000 
-0.209613 -0.828936 0.000000 
-0.223062 -0.781362 0.000000 
-0.360414 -0.973607 0.000000 
-0.329787 -0.936484 0.000000 
-0.361761 -0.884682 0.000000 
-0.321587 -0.848273 0.000000 
-0.341985 -0.798039 0.000000 
-0.290702 -0.765240 0.000000 
-0.302189 -0.718505 0.000000 
-0.458977 -0.995907 0.000000 
-0.429420 -0.958833 0.000000 
-0.464588 -0.906791 0.000000 
-0.427556 -0.869763 0.000000 
-0.453135 -0.818249 0.000000 
-0.407738 -0.782933 0.000000 
-0.425037 -0.733505 0.000000 
-0.370772 -0.701876 0.000000 
-0.381315 -0.655649 0.000000 
-0.046960 -0.959123 0.000000 
-0.095301 -1.053169 0.000000 
-0.098873 -1.000522 0.000000 
-0.149405 -0.985324 0.000000 
-0.140093 -1.144873 0.000000 
-0.148617 -1.096175 0.000000 
-0.205981 -1.085938 0.000000 
-0.203197 -1.027734 0.000000 
-0.248777 -1.008588 0.000000 
-0.184111 -1.235837 0.000000 
-0.194039 -1.188746 0.000000 
-0.254475 -1.181446 0.000000 
-0.257893 -1.127336 0.000000 
-0.309886 -1.111964 0.000000 
-0.303554 -1.051419 0.000000 
-0.347255 -1.031261 0.000000 
-0.228129 -1.326800 0.000000 
-0.238687 -1.280576 0.000000 
-0.301302 -1.275624 0.000000 
-0.307162 -1.223585 0.000000 
-0.363386 -1.211464 0.000000 
-0.362692 -1.153953 0.000000 
-0.412122 -1.136660 0.000000 
-0.403017 -1.074513 0.000000 
-0.445733 -1.053934 0.000000 
-0.000000 -0.981738 0.000000 
0.043388 -1.078169 0.000000 
-0.000000 -1.048136 0.000000 
-0.043388 -1.078169 0.000000 
0.087158 -1.170365 0.000000 
0.043769 -1.146667 0.000000 
-0.000000 -1.185133 0.000000 
-0.043769 -1.146667 0.000000 
-0.087158 -1.170365 0.000000 
0.130831 -1.261495 0.000000 
0.087824 -1.239896 0.000000 
0.044436 -1.282596 0.000000 
-0.000000 -1.251531 0.000000 
-0.044436 -1.282596 0.000000 
-0.087824 -1.239896 0.000000 
-0.130831 -1.261495 0.000000 
0.174505 -1.352625 0.000000 
0.131782 -1.332059 0.000000 
0.088871 -1.377925 0.000000 
0.044532 -1.350061 0.000000 
-0.000000 -1.386462 0.000000 
-0.044532 -1.350061 0.000000 
-0.088871 -1.377925 0.000000 
-0.131782 -1.332059 0.000000 
-0.174505 -1.352625 0.000000 
0.046960 -0.959123 0.000000 
0.149405 -0.985324 0.000000 
0.098873 -1.000522 0.000000 
0.095301 -1.053169 0.000000 
0.248777 -1.008588 0.000000 
0.203197 -1.027734 0.000000 
0.205981 -1.085938 0.000000 
0.148617 -1.096175 0.000000 
0.140093 -1.144873 0.000000 
0.347255 -1.031261 0.000000 
0.303554 -1.051419 0.000000 
0.309886 -1.111964 0.000000 
0.257893 -1.127336 0.000000 
0.254475 -1.181446 0.000000 
0.194039 -1.188746 0.000000 
0.184111 -1.235837 0.000000 
0.445733 -1.053934 0.000000 
0.403017 -1.074513 0.000000 
0.412122 -1.136660 0.000000 
0.362692 -1.153953 0.000000 
0.363386 -1.211464 0.000000 
0.307162 -1.223585 0.000000 
0.301302 -1.275624 0.000000 
0.238687 -1.280576 0.000000 
0.228129 -1.326800 0.000000 
0.058559 -0.908308 0.000000 
0.142917 -0.844550 0.000000 
0.123292 -0.893533 0.000000 
0.162226 -0.929151 0.000000 
0.223062 -0.781362 0.000000 
0.209613 -0.828936 0.000000 
0.256854 -0.863048 0.000000 
0.229092 -0.914280 0.000000 
0.261851 -0.951307 0.000000 
0.302189 -0.718505 0.000000 
0.290702 -0.765240 0.000000 
0.341985 -0.798039 0.000000 
0.321587 -0.848273 0.000000 
0.361761 -0.884682 0.000000 
0.329787 -0.936484 0.000000 
0.360414 -0.973607 0.000000 
0.381315 -0.655649 0.000000 
0.370772 -0.701876 0.000000 
0.425037 -0.733505 0.000000 
0.407738 -0.782933 0.000000 
0.453135 -0.818249 0.000000 
0.427556 -0.869763 0.000000 
0.464588 -0.906791 0.000000 
0.429420 -0.958833 0.000000 
0.458977 -0.995907 0.000000 
0.026061 -0.867557 0.000000 
0.028809 -0.761851 0.000000 
0.054870 -0.807734 0.000000 
0.106992 -0.799502 0.000000 
0.029377 -0.659794 0.000000 
0.058186 -0.699971 0.000000 
0.114311 -0.684305 0.000000 
0.137056 -0.737953 0.000000 
0.186430 -0.735426 0.000000 
0.029568 -0.558739 0.000000 
0.058945 -0.596859 0.000000 
0.116563 -0.577214 0.000000 
0.143120 -0.624482 0.000000 
0.196633 -0.615774 0.000000 
0.217198 -0.673070 0.000000 
0.265318 -0.672271 0.000000 
0.029759 -0.457685 0.000000 
0.059328 -0.494751 0.000000 
0.117890 -0.472045 0.000000 
0.145749 -0.516388 0.000000 
0.201664 -0.502914 0.000000 
0.225992 -0.555031 0.000000 
0.278030 -0.549165 0.000000 
0.296791 -0.609108 0.000000 
0.344206 -0.609115 0.000000 
VECTORS X_EC float 
0.338794 0.212023 0.000000 
-0.609100 -0.706726 0.000000 
0.713312 -0.595585 0.000000 
0.374519 0.784986 0.000000 
0.423588 0.428255 0.000000 
-0.218274 0.462359 0.000000 
-0.513962 -0.261880 0.000000 
0.756418 -0.050394 0.000000 
0.381900 -0.592786 0.000000 
-0.550868 -0.424348 0.000000 
0.823577 -0.413552 0.000000 
0.556234 0.812943 0.000000 
-0.139443 0.930512 0.000000 
-0.484677 0.292388 0.000000 
0.766286 0.557603 0.000000 
0.384386 0.042983 0.000000 
0.474677 0.723049 0.000000 
-0.141715 0.722952 0.000000 
-0.385608 -0.086276 0.000000 
0.937896 -0.007080 0.000000 
0.621631 -0.710660 0.000000 
-0.105264 -0.528761 0.000000 
-0.467428 0.872613 0.000000 
0.771260 -0.820859 0.000000 
0.386873 0.678752 0.000000 
0.761262 0.762157 0.000000 
0.108942 -0.956466 0.000000 
-0.397202 0.562695 0.000000 
-0.142083 -0.098581 0.000000 
-0.595936 -0.657355 0.000000 
0.978194 0.842779 0.000000 
-0.660903 0.151154 0.000000 
0.724964 -0.309366 0.000000 
0.899809 -0.951615 0.000000 
0.685384 -0.356303 0.000000 
0.287229 -0.857462 0.000000 
0.702895 0.443210 0.000000 
0.180633 -0.048309 0.000000 
0.445811 -0.726468 0.000000 
-0.220880 0.830746 0.000000 
-0.071546 0.199820 0.000000 
-0.033296 -0.055251 0.000000 
-0.417537 -0.555761 0.000000 
0.039645 0.741677 0.000000 
-0.441768 0.241806 0.000000 
-0.109248 -0.453645 0.000000 
-0.699407 -0.930401 0.000000 
-0.474522 0.402320 0.000000 
0.820030 -0.024673 0.000000 
0.957100 -0.648745 0.000000 
0.610485 -0.551836 0.000000 
-0.761092 0.717783 0.000000 
-0.714655 0.007046 0.000000 
-0.057734 -0.198122 0.000000 
-0.178789 -0.044213 0.000000 
-0.067979 -0.701639 0.000000 
0.677748 -0.839842 0.000000 
0.641556 0.374413 0.000000 
-0.765897 0.115934 0.000000 
0.393446 -0.816204 0.000000 
0.522510 0.548066 0.000000 
-0.691820 0.449522 0.000000 
-0.647393 -0.280960 0.000000 
0.028512 -0.488487 0.000000 
-0.053800 0.694153 0.000000 
0.514316 0.422022 0.000000 
0.965681 0.411805 0.000000 
-0.897068 -0.212223 0.000000 
-0.083078 -0.279076 0.000000 
-0.006893 -0.981601 0.000000 
0.724017 0.854766 0.000000 
0.714996 0.078363 0.000000 
-0.642413 -0.155095 0.000000 
-0.760780 -0.994075 0.000000 
-0.205471 0.728109 0.000000 
0.000000 -0.246535 0.000000 
-0.564049 -0.944722 0.000000 
0.000000 0.649842 0.000000 
0.564049 -0.944722 0.000000 
0.866949 0.299933 0.000000 
-0.569003 -0.019998 0.000000 
0.000000 0.499291 0.000000 
0.569003 -0.019998 0.000000 
-0.866949 0.299933 0.000000 
0.299194 -0.469816 0.000000 
0.858290 -0.761400 0.000000 
-0.577662 -0.184955 0.000000 
0.000000 -0.604333 0.000000 
0.577662 -0.184955 0.000000 
-0.858290 -0.761400 0.000000 
-0.299194 -0.469816 0.000000 
-0.268560 0.760434 0.000000 
0.286830 0.482792 0.000000 
0.844677 -0.898010 0.000000 
-0.578910 0.725827 0.000000 
0.000000 -0.782769 0.000000 
0.578910 0.725827 0.000000 
-0.844677 -0.898010 0.000000 
-0.286830 0.482792 0.000000 
0.268560 0.760434 0.000000 
-0.610485 -0.551836 0.000000 
0.057734 -0.198122 0.000000 
0.714655 0.007046 0.000000 
0.761092 0.717783 0.000000 
0.765897 0.115934 0.000000 
-0.641556 0.374413 0.000000 
-0.677748 -0.839842 0.000000 
0.067979 -0.701639 0.000000 
0.178789 -0.044213 0.000000 
-0.514316 0.422022 0.000000 
0.053800 0.694153 0.000000 
-0.028512 -0.488487 0.000000 
0.647393 -0.280960 0.000000 
0.691820 0.449522 0.000000 
-0.522510 0.548066 0.000000 
-0.393446 -0.816204 0.000000 
0.205471 0.728109 0.000000 
0.760780 -0.994075 0.000000 
0.642413 -0.155095 0.000000 
-0.714996 0.078363 0.000000 
-0.724017 0.854766 0.000000 
0.006894 -0.981601 0.000000 
0.083078 -0.279076 0.000000 
0.897068 -0.212223 0.000000 
-0.965681 0.411805 0.000000 
-0.761262 0.762157 0.000000 
0.142083 -0.098581 0.000000 
0.397202 0.562695 0.000000 
-0.108942 -0.956466 0.000000 
-0.899809 -0.951615 0.000000 
-0.724964 -0.309366 0.000000 
0.660903 0.151154 0.000000 
-0.978194 0.842779 0.000000 
0.595936 -0.657355 0.000000 
0.071546 0.199820 0.000000 
0.220880 0.830746 0.000000 
-0.445811 -0.726468 0.000000 
-0.180633 -0.048309 0.000000 
-0.702895 0.443210 0.000000 
-0.287229 -0.857462 0.000000 
-0.685384 -0.356303 0.000000 
-0.957100 -0.648745 0.000000 
-0.820030 -0.024673 0.000000 
0.474522 0.402320 0.000000 
0.699407 -0.930401 0.000000 
0.109248 -0.453645 0.000000 
0.441768 0.241806 0.000000 
-0.039645 0.741677 0.000000 
0.417537 -0.555761 0.000000 
0.033296 -0.055251 0.000000 
-0.338794 0.212023 0.000000 
-0.374519 0.784986 0.000000 
-0.713312 -0.595585 0.000000 
0.609100 -0.706726 0.000000 
-0.381900 -0.592786 0.000000 
-0.756418 -0.050394 0.000000 
0.513962 -0.261880 0.000000 
0.218274 0.462359 0.000000 
-0.423588 0.428255 0.000000 
-0.384386 0.042983 0.000000 
-0.766286 0.557603 0.000000 
0.484677 0.292388 0.000000 
0.139443 0.930512 0.000000 
-0.556234 0.812943 0.000000 
-0.823577 -0.413552 0.000000 
0.550868 -0.424348 0.000000 
-0.386873 0.678752 0.000000 
-0.771260 -0.820859 0.000000 
0.467428 0.872613 0.000000 
0.105264 -0.528761 0.000000 
-0.621631 -0.710660 0.000000 
-0.937896 -0.007080 0.000000 
0.385608 -0.086276 0.000000 
0.141715 0.722952 0.000000 
-0.474677 0.723049 0.000000 
CELL_DATA 175 
SCALARS MASS float 
LOOKUP_TABLE default 
0.078183 
0.086427 
0.094672 
0.086427 
0.088131 
0.092111 
0.085854 
0.092111 
0.088131 
0.088705 
0.091000 
0.086983 
0.091556 
0.086983 
0.091000 
0.088705 
0.089278 
0.091574 
0.089278 
0.092722 
0.089278 
0.092722 
0.089278 
0.091574 
0.089278 
0.078183 
0.086427 
0.094672 
0.086427 
0.088131 
0.092111 
0.085854 
0.092111 
0.088131 
0.088705 
0.091000 
0.086983 
0.091556 
0.086983 
0.091000 
0.088705 
0.089278 
0.091574 
0.089278 
0.092722 
0.089278 
0.092722 
0.089278 
0.091574 
0.089278 
0.078183 
0.086427 
0.094672 
0.086427 
0.088131 
0.092111 
0.085854 
0.092111 
0.088131 
0.088705 
0.091000 
0.086983 
0.091556 
0.086983 
0.091000 
0.088705 
0.089278 
0.091574 
0.089278 
0.092722 
0.089278 
0.092722 
0.089278 
0.091574 
0.089278 
0.078183 
0.086427 
0.094672 
0.086427 
0.088131 
0.092111 
0.085854 
0.092111 
0.088131 
0.088705 
0.091000 
0.086983 
0.091556 
0.086983 
0.091000 
0.088705 
0.089278 
0.091574 
0.089278 
0.092722 
0.089278 
0.092722 
0.089278 
0.091574 
0.089278 
0.078183 
0.086427 
0.094672 
0.086427 
0.088131 
0.092111 
0.085854 
0.092111 
0.088131 
0.088705 
0.091000 
0.086983 
0.091556 
0.086983 
0.091000 
0.088705 
0.089278 
0.091574 
0.089278 
0.092722 
0.089278 
0.092722 
0.089278 
0.091574 
0.089278 
0.078183 
0.086427 
0.094672 
0.086427 
0.088131 
0.092111 
0.085854 
0.092111 
0.088131 
0.088705 
0.091000 
0.086983 
0.091556 
0.086983 
0.091000 
0.088705 
0.089278 
0.091574 
0.089278 
0.092722 
0.089278 
0.092722 
0.089278 
0.091574 
0.089278 
0.078183 
0.086427 
0.094672 
0.086427 
0.088131 
0.092111 
0.085854 
0.092111 
0.088131 
0.088705 
0.091000 
0.086983 
0.091556 
0.086983 
0.091000 
0.088705 
0.089278 
0.091574 
0.089278 
0.092722 
0.089278 
0.092722 
0.089278 
0.091574 
0.089278 
SCALARS MASS float 
LOOKUP_TABLE default 
0.078183 
0.086427 
0.094672 
0.086427 
0.088131 
0.092111 
0.085854 
0.092111 
0.088131 
0.088705 
0.091000 
0.086983 
0.091556 
0.086983 
0.091000 
0.088705 
0.089278 
0.091574 
0.089278 
0.092722 
0.089278 
0.092722 
0.089278 
0.091574 
0.089278 
0.078183 
0.086427 
0.094672 
0.086427 
0.088131 
0.092111 
0.085854 
0.092111 
0.088131 
0.088705 
0.091000 
0.086983 
0.091556 
0.086983 
0.091000 
0.088705 
0.089278 
0.091574 
0.089278 
0.092722 
0.089278 
0.092722 
0.089278 
0.091574 
0.089278 
0.078183 
0.086427 
0.094672 
0.086427 
0.088131 
0.092111 
0.085854 
0.092111 
0.088131 
0.088705 
0.091000 
0.086983 
0.091556 
0.086983 
0.091000 
0.088705 
0.089278 
0.091574 
0.089278 
0.092722 
0.089278 
0.092722 
0.089278 
0.091574 
0.089278 
0.078183 
0.086427 
0.094672 
0.086427 
0.088131 
0.092111 
0.085854 
0.092111 
0.088131 
0.088705 
0.091000 
0.086983 
0.091556 
0.086983 
0.091000 
0.088705 
0.089278 
0.091574 
0.089278 
0.092722 
0.089278 
0.092722 
0.089278 
0.091574 
0.089278 
0.078183 
0.086427 
0.094672 
0.086427 
0.088131 
0.092111 
0.085854 
0.092111 
0.088131 
0.088705 
0.091000 
0.086983 
0.091556 
0.086983 
0.091000 
0.088705 
0.089278 
0.091574 
0.089278 
0.092722 
0.089278 
0.092722 
0.089278 
0.091574 
0.089278 
0.078183 
0.086427 
0.094672 
0.086427 
0.088131 
0.092111 
0.085854 
0.092111 
0.088131 
0.088705 
0.091000 
0.086983 
0.091556 
0.086983 
0.091000 
0.088705 
0.089278 
0.091574 
0.089278 
0.092722 
0.089278 
0.092722 
0.089278 
0.091574 
0.089278 
0.078183 
0.086427 
0.094672 
0.086427 
0.088131 
0.092111 
0.085854 
0.092111 
0.088131 
0.088705 
0.091000 
0.086983 
0.091556 
0.086983 
0.091000 
0.088705 
0.089278 
0.091574 
0.089278 
0.092722 
0.089278 
0.092722 
0.089278 
0.091574 
0.089278 
SCALARS DENSITY float 
LOOKUP_TABLE default 
20.000000 
20.000000 
20.000000 
20.000000 
20.000000 
20.000000 
20.000000 
20.000000 
20.000000 
20.000000 
20.000000 
20.000000 
20.000000 
20.000000 
20.000000 
20.000000 
20.000000 
20.000000 
20.000000 
20.000000 
20.000000 
20.000000 
20.000000 
20.000000 
20.000000 
20.000000 
20.000000 
20.000000 
20.000000 
20.000000 
20.000000 
20.000000 
20.000000 
20.000000 
20.000000 
20.000000 
20.000000 
20.000000 
20.000000 
20.000000 
20.000000 
20.000000 
20.000000 
20.000000 
20.000000 
20.000000 
20.000000 
20.000000 
20.000000 
20.000000 
20.000000 
20.000000 
20.000000 
20.000000 
20.000000 
20.000000 
20.000000 
20.000000 
20.000000 
20.000000 
20.000000 
20.000000 
20.000000 
20.000000 
20.000000 
20.000000 
20.000000 
20.000000 
20.000000 
20.000000 
20.000000 
20.000000 
20.000000 
20.000000 
20.000000 
20.000000 
20.000000 
20.000000 
20.000000 
20.000000 
20.000000 
20.000000 
20.000000 
20.000000 
20.000000 
20.000000 
20.000000 
20.000000 
20.000000 
20.000000 
20.000000 
20.000000 
20.000000 
20.000000 
20.000000 
20.000000 
20.000000 
20.000000 
20.000000 
20.000000 
20.000000 
20.000000 
20.000000 
20.000000 
20.000000 
20.000000 
20.000000 
20.000000 
20.000000 
20.000000 
20.000000 
20.000000 
20.000000 
20.000000 
20.000000 
20.000000 
20.000000 
20.000000 
20.000000 
20.000000 
20.000000 
20.000000 
20.000000 
20.000000 
20.000000 
20.000000 
20.000000 
20.000000 
20.000000 
20.000000 
20.000000 
20.000000 
20.000000 
20.000000 
20.000000 
20.000000 
20.000000 
20.000000 
20.000000 
20.000000 
20.000000 
20.000000 
20.000000 
20.000000 
20.000000 
20.000000 
20.000000 
20.000000 
20.000000 
20.000000 
20.000000 
20.000000 
20.000000 
20.000000 
20.000000 
20.000000 
20.000000 
20.000000 
20.000000 
20.000000 
20.000000 
20.000000 
20.000000 
20.000000 
20.000000 
20.000000 
20.000000 
20.000000 
20.000000 
20.000000 
20.000000 
20.000000 
20.000000 
20.000000 
20.000000 
SCALARS ELEM_i float 
LOOKUP_TABLE default 
176 
203 
176 
177 
204 
204 
204 
177 
177 
231 
204 
205 
205 
205 
178 
178 
232 
232 
232 
205 
205 
205 
206 
178 
179 
176 
202 
203 
203 
229 
203 
230 
203 
203 
229 
229 
230 
230 
230 
231 
231 
256 
256 
257 
257 
257 
257 
258 
231 
231 
175 
202 
202 
202 
201 
201 
201 
202 
229 
200 
201 
228 
228 
228 
229 
229 
200 
227 
227 
227 
228 
228 
255 
255 
256 
175 
174 
175 
174 
147 
174 
174 
174 
201 
146 
146 
173 
173 
173 
200 
200 
146 
146 
145 
173 
172 
173 
199 
200 
200 
175 
148 
148 
148 
121 
148 
147 
147 
147 
121 
121 
120 
120 
120 
147 
146 
94 
93 
93 
120 
120 
119 
119 
119 
146 
176 
149 
149 
148 
149 
149 
122 
149 
121 
123 
123 
122 
122 
122 
121 
121 
123 
123 
96 
95 
95 
95 
95 
94 
94 
176 
177 
176 
149 
177 
177 
150 
150 
150 
178 
178 
151 
151 
151 
150 
123 
179 
178 
152 
151 
151 
151 
124 
124 
124 
VECTORS VELOCITY float 
-0.000000 -4.252046 0.000000 
-0.000000 -4.252046 0.000000 
-0.000000 -4.252046 0.000000 
0.000000 -4.252046 0.000000 
0.000000 -4.252046 0.000000 
0.000000 -4.252046 0.000000 
0.000000 -4.252046 0.000000 
0.000000 -4.252046 0.000000 
0.000000 -4.252046 0.000000 
-0.000000 -4.252046 0.000000 
-0.000000 -4.252046 0.000000 
-0.000000 -4.252046 0.000000 
-0.000000 -4.252046 0.000000 
-0.000000 -4.252046 0.000000 
-0.000000 -4.252046 0.000000 
-0.000000 -4.252046 0.000000 
0.000000 -4.252046 0.000000 
0.000000 -4.252046 0.000000 
0.000000 -4.252046 0.000000 
0.000000 -4.252046 0.000000 
0.000000 -4.252046 0.000000 
-0.000000 -4.252046 0.000000 
-0.000000 -4.252046 0.000000 
0.000000 -4.252046 0.000000 
0.000000 -4.252046 0.000000 
-0.000000 -4.252046 0.000000 
-0.000000 -4.252046 0.000000 
-0.000000 -4.252046 0.000000 
-0.000000 -4.252046 0.000000 
0.000000 -4.252046 0.000000 
0.000000 -4.252046 0.000000 
0.000000 -4.252046 0.000000 
-0.000000 -4.252046 0.000000 
0.000000 -4.252046 0.000000 
-0.000000 -4.252046 0.000000 
0.000000 -4.252046 0.000000 
0.000000 -4.252046 0.000000 
0.000000 -4.252046 0.000000 
-0.000000 -4.252046 0.000000 
-0.000000 -4.252046 0.000000 
-0.000000 -4.252046 0.000000 
-0.000000 -4.252046 0.000000 
0.000000 -4.252046 0.000000 
0.000000 -4.252046 0.000000 
0.000000 -4.252046 0.000000 
-0.000000 -4.252046 0.000000 
-0.000000 -4.252046 0.000000 
0.000000 -4.252046 0.000000 
-0.000000 -4.252046 0.000000 
0.000000 -4.252046 0.000000 
-0.000000 -4.252046 0.000000 
-0.000000 -4.252046 0.000000 
-0.000000 -4.252046 0.000000 
-0.000000 -4.252046 0.000000 
-0.000000 -4.252046 0.000000 
-0.000000 -4.252046 0.000000 
0.000000 -4.252046 0.000000 
0.000000 -4.252046 0.000000 
0.000000 -4.252046 0.000000 
0.000000 -4.252046 0.000000 
-0.000000 -4.252046 0.000000 
-0.000000 -4.252046 0.000000 
-0.000000 -4.252046 0.000000 
-0.000000 -4.252046 0.000000 
0.000000 -4.252046 0.000000 
-0.000000 -4.252046 0.000000 
0.000000 -4.252046 0.000000 
0.000000 -4.252046 0.000000 
-0.000000 -4.252046 0.000000 
-0.000000 -4.252046 0.000000 
-0.000000 -4.252046 0.000000 
-0.000000 -4.252046 0.000000 
-0.000000 -4.252046 0.000000 
-0.000000 -4.252046 0.000000 
-0.000000 -4.252046 0.000000 
-0.000000 -4.252046 0.000000 
-0.000000 -4.252046 0.000000 
-0.000000 -4.252046 0.000000 
-0.000000 -4.252046 0.000000 
-0.000000 -4.252046 0.000000 
-0.000000 -4.252046 0.000000 
0.000000 -4.252046 0.000000 
0.000000 -4.252046 0.000000 
0.000000 -4.252046 0.000000 
-0.000000 -4.252046 0.000000 
-0.000000 -4.252046 0.000000 
-0.000000 -4.252046 0.000000 
0.000000 -4.252046 0.000000 
0.000000 -4.252046 0.000000 
0.000000 -4.252046 0.000000 
0.000000 -4.252046 0.000000 
-0.000000 -4.252046 0.000000 
-0.000000 -4.252046 0.000000 
-0.000000 -4.252046 0.000000 
-0.000000 -4.252046 0.000000 
0.000000 -4.252046 0.000000 
0.000000 -4.252046 0.000000 
0.000000 -4.252046 0.000000 
-0.000000 -4.252046 0.000000 
-0.000000 -4.252046 0.000000 
0.000000 -4.252046 0.000000 
0.000000 -4.252046 0.000000 
0.000000 -4.252046 0.000000 
-0.000000 -4.252046 0.000000 
0.000000 -4.252046 0.000000 
0.000000 -4.252046 0.000000 
0.000000 -4.252046 0.000000 
-0.000000 -4.252046 0.000000 
-0.000000 -4.252046 0.000000 
-0.000000 -4.252046 0.000000 
0.000000 -4.252046 0.000000 
0.000000 -4.252046 0.000000 
0.000000 -4.252046 0.000000 
-0.000000 -4.252046 0.000000 
-0.000000 -4.252046 0.000000 
-0.000000 -4.252046 0.000000 
0.000000 -4.252046 0.000000 
0.000000 -4.252046 0.000000 
-0.000000 -4.252046 0.000000 
-0.000000 -4.252046 0.000000 
-0.000000 -4.252046 0.000000 
-0.000000 -4.252046 0.000000 
0.000000 -4.252046 0.000000 
-0.000000 -4.252046 0.000000 
-0.000000 -4.252046 0.000000 
0.000000 -4.252046 0.000000 
-0.000000 -4.252046 0.000000 
0.000000 -4.252046 0.000000 
0.000000 -4.252046 0.000000 
0.000000 -4.252046 0.000000 
0.000000 -4.252046 0.000000 
0.000000 -4.252046 0.000000 
-0.000000 -4.252046 0.000000 
-0.000000 -4.252046 0.000000 
0.000000 -4.252046 0.000000 
0.000000 -4.252046 0.000000 
0.000000 -4.252046 0.000000 
0.000000 -4.252046 0.000000 
-0.000000 -4.252046 0.000000 
-0.000000 -4.252046 0.000000 
-0.000000 -4.252046 0.000000 
-0.000000 -4.252046 0.000000 
0.000000 -4.252046 0.000000 
0.000000 -4.252046 0.000000 
0.000000 -4.252046 0.000000 
0.000000 -4.252046 0.000000 
0.000000 -4.252046 0.000000 
0.000000 -4.252046 0.000000 
-0.000000 -4.252046 0.000000 
0.000000 -4.252046 0.000000 
-0.000000 -4.252046 0.000000 
-0.000000 -4.252046 0.000000 
-0.000000 -4.252046 0.000000 
-0.000000 -4.252046 0.000000 
0.000000 -4.252046 0.000000 
0.000000 -4.252046 0.000000 
0.000000 -4.252046 0.000000 
0.000000 -4.252046 0.000000 
0.000000 -4.252046 0.000000 
-0.000000 -4.252046 0.000000 
-0.000000 -4.252046 0.000000 
0.000000 -4.252046 0.000000 
0.000000 -4.252046 0.000000 
0.000000 -4.252046 0.000000 
-0.000000 -4.252046 0.000000 
0.000000 -4.252046 0.000000 
-0.000000 -4.252046 0.000000 
0.000000 -4.252046 0.000000 
-0.000000 -4.252046 0.000000 
0.000000 -4.252046 0.000000 
0.000000 -4.252046 0.000000 
0.000000 -4.252046 0.000000 
0.000000 -4.252046 0.000000 
0.000000 -4.252046 0.000000 
-0.000000 -4.252046 0.000000 
TENSORS STRESS float 
-0.000000 0.000000 0.000000 
0.000000 -0.000000 0.000000 
0.000000 0.000000 0.000000 

0.000000 -0.000000 0.000000 
0.000000 0.000000 0.000000 
0.000000 0.000000 0.000000 

0.000000 -0.000000 0.000000 
0.000000 0.000000 0.000000 
0.000000 0.000000 0.000000 

-0.000000 0.000000 0.000000 
0.000000 -0.000000 0.000000 
0.000000 0.000000 0.000000 

-0.000000 -0.000000 0.000000 
0.000000 -0.000000 0.000000 
0.000000 0.000000 0.000000 

0.000000 0.000000 0.000000 
0.000000 0.000000 0.000000 
0.000000 0.000000 0.000000 

-0.000000 -0.000000 0.000000 
0.000000 -0.000000 0.000000 
0.000000 0.000000 0.000000 

-0.000000 -0.000000 0.000000 
0.000000 -0.000000 0.000000 
0.000000 0.000000 0.000000 

-0.000000 0.000000 0.000000 
0.000000 -0.000000 0.000000 
0.000000 0.000000 0.000000 

0.000000 0.000000 0.000000 
0.000000 0.000000 0.000000 
0.000000 0.000000 0.000000 

-0.000000 -0.000000 0.000000 
0.000000 -0.000000 0.000000 
0.000000 0.000000 0.000000 

-0.000000 -0.000000 0.000000 
0.000000 -0.000000 0.000000 
0.000000 0.000000 0.000000 

0.000000 -0.000000 0.000000 
0.000000 0.000000 0.000000 
0.000000 0.000000 0.000000 

-0.000000 -0.000000 0.000000 
0.000000 -0.000000 0.000000 
0.000000 0.000000 0.000000 

-0.000000 -0.000000 0.000000 
0.000000 -0.000000 0.000000 
0.000000 0.000000 0.000000 

0.000000 0.000000 0.000000 
0.000000 0.000000 0.000000 
0.000000 0.000000 0.000000 

-0.000000 -0.000000 0.000000 
0.000000 -0.000000 0.000000 
0.000000 0.000000 0.000000 

-0.000000 -0.000000 0.000000 
0.000000 -0.000000 0.000000 
0.000000 0.000000 0.000000 

-0.000000 0.000000 0.000000 
0.000000 -0.000000 0.000000 
0.000000 0.000000 0.000000 

-0.000000 0.000000 0.000000 
0.000000 -0.000000 0.000000 
0.000000 0.000000 0.000000 

0.000000 0.000000 0.000000 
0.000000 0.000000 0.000000 
0.000000 0.000000 0.000000 

0.000000 -0.000000 0.000000 
0.000000 0.000000 0.000000 
0.000000 0.000000 0.000000 

-0.000000 0.000000 0.000000 
0.000000 -0.000000 0.000000 
0.000000 0.000000 0.000000 

-0.000000 0.000000 0.000000 
0.000000 -0.000000 0.000000 
0.000000 0.000000 0.000000 

-0.000000 0.000000 0.000000 
0.000000 -0.000000 0.000000 
0.000000 0.000000 0.000000 

-0.000000 0.000000 0.000000 
0.000000 -0.000000 0.000000 
0.000000 0.000000 0.000000 

0.000000 -0.000000 0.000000 
0.000000 0.000000 0.000000 
0.000000 0.000000 0.000000 

0.000000 -0.000000 0.000000 
0.000000 0.000000 0.000000 
0.000000 0.000000 0.000000 

-0.000000 -0.000000 0.000000 
0.000000 -0.000000 0.000000 
0.000000 0.000000 0.000000 

0.000000 0.000000 0.000000 
0.000000 0.000000 0.000000 
0.000000 0.000000 0.000000 

0.000000 -0.000000 0.000000 
0.000000 0.000000 0.000000 
0.000000 0.000000 0.000000 

-0.000000 0.000000 0.000000 
0.000000 -0.000000 0.000000 
0.000000 0.000000 0.000000 

0.000000 -0.000000 0.000000 
0.000000 0.000000 0.000000 
0.000000 0.000000 0.000000 

-0.000000 -0.000000 0.000000 
0.000000 -0.000000 0.000000 
0.000000 0.000000 0.000000 

-0.000000 -0.000000 0.000000 
0.000000 -0.000000 0.000000 
0.000000 0.000000 0.000000 

0.000000 0.000000 0.000000 
0.000000 -0.000000 0.000000 
0.000000 0.000000 0.000000 

-0.000000 -0.000000 0.000000 
0.000000 -0.000000 0.000000 
0.000000 0.000000 0.000000 

-0.000000 0.000000 0.000000 
0.000000 -0.000000 0.000000 
0.000000 0.000000 0.000000 

0.000000 0.000000 0.000000 
0.000000 0.000000 0.000000 
0.000000 0.000000 0.000000 

-0.000000 0.000000 0.000000 
0.000000 -0.000000 0.000000 
0.000000 0.000000 0.000000 

-0.000000 0.000000 0.000000 
0.000000 0.000000 0.000000 
0.000000 0.000000 0.000000 

0.000000 0.000000 0.000000 
0.000000 0.000000 0.000000 
0.000000 0.000000 0.000000 

0.000000 -0.000000 0.000000 
0.000000 0.000000 0.000000 
0.000000 0.000000 0.000000 

-0.000000 -0.000000 0.000000 
0.000000 -0.000000 0.000000 
0.000000 0.000000 0.000000 

-0.000000 0.000000 0.000000 
0.000000 0.000000 0.000000 
0.000000 0.000000 0.000000 

-0.000000 -0.000000 0.000000 
0.000000 0.000000 0.000000 
0.000000 0.000000 0.000000 

0.000000 -0.000000 0.000000 
0.000000 0.000000 0.000000 
0.000000 0.000000 0.000000 

-0.000000 -0.000000 0.000000 
0.000000 -0.000000 0.000000 
0.000000 0.000000 0.000000 

0.000000 0.000000 0.000000 
0.000000 -0.000000 0.000000 
0.000000 0.000000 0.000000 

-0.000000 0.000000 0.000000 
0.000000 0.000000 0.000000 
0.000000 0.000000 0.000000 

-0.000000 0.000000 0.000000 
0.000000 0.000000 0.000000 
0.000000 0.000000 0.000000 

0.000000 0.000000 0.000000 
0.000000 -0.000000 0.000000 
0.000000 0.000000 0.000000 

0.000000 0.000000 0.000000 
0.000000 0.000000 0.000000 
0.000000 0.000000 0.000000 

-0.000000 0.000000 0.000000 
0.000000 0.000000 0.000000 
0.000000 0.000000 0.000000 

0.000000 -0.000000 0.000000 
0.000000 -0.000000 0.000000 
0.000000 0.000000 0.000000 

0.000000 0.000000 0.000000 
0.000000 -0.000000 0.000000 
0.000000 0.000000 0.000000 

0.000000 0.000000 0.000000 
0.000000 0.000000 0.000000 
0.000000 0.000000 0.000000 

0.000000 0.000000 0.000000 
0.000000 0.000000 0.000000 
0.000000 0.000000 0.000000 

-0.000000 0.000000 0.000000 
0.000000 0.000000 0.000000 
0.000000 0.000000 0.000000 

0.000000 -0.000000 0.000000 
0.000000 0.000000 0.000000 
0.000000 0.000000 0.000000 

0.000000 0.000000 0.000000 
0.000000 0.000000 0.000000 
0.000000 0.000000 0.000000 

-0.000000 0.000000 0.000000 
0.000000 -0.000000 0.000000 
0.000000 0.000000 0.000000 

-0.000000 0.000000 0.000000 
0.000000 -0.000000 0.000000 
0.000000 0.000000 0.000000 

-0.000000 -0.000000 0.000000 
0.000000 -0.000000 0.000000 
0.000000 0.000000 0.000000 

-0.000000 0.000000 0.000000 
0.000000 -0.000000 0.000000 
0.000000 0.000000 0.000000 

-0.000000 0.000000 0.000000 
0.000000 -0.000000 0.000000 
0.000000 0.000000 0.000000 

-0.000000 0.000000 0.000000 
0.000000 -0.000000 0.000000 
0.000000 0.000000 0.000000 

-0.000000 0.000000 0.000000 
0.000000 0.000000 0.000000 
0.000000 0.000000 0.000000 

-0.000000 0.000000 0.000000 
0.000000 -0.000000 0.000000 
0.000000 0.000000 0.000000 

0.000000 0.000000 0.000000 
0.000000 0.000000 0.000000 
0.000000 0.000000 0.000000 

-0.000000 0.000000 0.000000 
0.000000 0.000000 0.000000 
0.000000 0.000000 0.000000 

-0.000000 -0.000000 0.000000 
0.000000 -0.000000 0.000000 
0.000000 0.000000 0.000000 

-0.000000 -0.000000 0.000000 
0.000000 0.000000 0.000000 
0.000000 0.000000 0.000000 

-0.000000 -0.000000 0.000000 
0.000000 -0.000000 0.000000 
0.000000 0.000000 0.000000 

-0.000000 -0.000000 0.000000 
0.000000 0.000000 0.000000 
0.000000 0.000000 0.000000 

0.000000 -0.000000 0.000000 
0.000000 0.000000 0.000000 
0.000000 0.000000 0.000000 

-0.000000 -0.000000 0.000000 
0.000000 -0.000000 0.000000 
0.000000 0.000000 0.000000 

0.000000 -0.000000 0.000000 
0.000000 0.000000 0.000000 
0.000000 0.000000 0.000000 

0.000000 -0.000000 0.000000 
0.000000 0.000000 0.000000 
0.000000 0.000000 0.000000 

-0.000000 -0.000000 0.000000 
0.000000 -0.000000 0.000000 
0.000000 0.000000 0.000000 

0.000000 0.000000 0.000000 
0.000000 0.000000 0.000000 
0.000000 0.000000 0.000000 

0.000000 0.000000 0.000000 
0.000000 -0.000000 0.000000 
0.000000 0.000000 0.000000 

0.000000 0.000000 0.000000 
0.000000 0.000000 0.000000 
0.000000 0.000000 0.000000 

-0.000000 -0.000000 0.000000 
0.000000 -0.000000 0.000000 
0.000000 0.000000 0.000000 

-0.000000 0.000000 0.000000 
0.000000 -0.000000 0.000000 
0.000000 0.000000 0.000000 

0.000000 0.000000 0.000000 
0.000000 0.000000 0.000000 
0.000000 0.000000 0.000000 

0.000000 -0.000000 0.000000 
0.000000 0.000000 0.000000 
0.000000 0.000000 0.000000 

0.000000 -0.000000 0.000000 
0.000000 -0.000000 0.000000 
0.000000 0.000000 0.000000 

0.000000 0.000000 0.000000 
0.000000 0.000000 0.000000 
0.000000 0.000000 0.000000 

-0.000000 0.000000 0.000000 
0.000000 -0.000000 0.000000 
0.000000 0.000000 0.000000 

-0.000000 0.000000 0.000000 
0.000000 0.000000 0.000000 
0.000000 0.000000 0.000000 

0.000000 -0.000000 0.000000 
0.000000 0.000000 0.000000 
0.000000 0.000000 0.000000 

0.000000 0.000000 0.000000 
0.000000 0.000000 0.000000 
0.000000 0.000000 0.000000 

0.000000 -0.000000 0.000000 
0.000000 0.000000 0.000000 
0.000000 0.000000 0.000000 

0.000000 0.000000 0.000000 
0.000000 -0.000000 0.000000 
0.000000 0.000000 0.000000 

0.000000 0.000000 0.000000 
0.000000 0.000000 0.000000 
0.000000 0.000000 0.000000 

0.000000 0.000000 0.000000 
0.000000 0.000000 0.000000 
0.000000 0.000000 0.000000 

-0.000000 -0.000000 0.000000 
0.000000 0.000000 0.000000 
0.000000 0.000000 0.000000 

-0.000000 -0.000000 0.000000 
0.000000 0.000000 0.000000 
0.000000 0.000000 0.000000 

0.000000 0.000000 0.000000 
0.000000 0.000000 0.000000 
0.000000 0.000000 0.000000 

-0.000000 -0.000000 0.000000 
0.000000 0.000000 0.000000 
0.000000 0.000000 0.000000 

0.000000 0.000000 0.000000 
0.000000 0.000000 0.000000 
0.000000 0.000000 0.000000 

0.000000 0.000000 0.000000 
0.000000 -0.000000 0.000000 
0.000000 0.000000 0.000000 

0.000000 0.000000 0.000000 
0.000000 0.000000 0.000000 
0.000000 0.000000 0.000000 

0.000000 0.000000 0.000000 
0.000000 -0.000000 0.000000 
0.000000 0.000000 0.000000 

0.000000 0.000000 0.000000 
0.000000 0.000000 0.000000 
0.000000 0.000000 0.000000 

-0.000000 0.000000 0.000000 
0.000000 0.000000 0.000000 
0.000000 0.000000 0.000000 

-0.000000 -0.000000 0.000000 
0.000000 -0.000000 0.000000 
0.000000 0.000000 0.000000 

0.000000 -0.000000 0.000000 
0.000000 0.000000 0.000000 
0.000000 0.000000 0.000000 

-0.000000 0.000000 0.000000 
0.000000 -0.000000 0.000000 
0.000000 0.000000 0.000000 

0.000000 0.000000 0.000000 
0.000000 -0.000000 0.000000 
0.000000 0.000000 0.000000 

0.000000 0.000000 0.000000 
0.000000 0.000000 0.000000 
0.000000 0.000000 0.000000 

0.000000 0.000000 0.000000 
0.000000 0.000000 0.000000 
0.000000 0.000000 0.000000 

-0.000000 -0.000000 0.000000 
0.000000 -0.000000 0.000000 
0.000000 0.000000 0.000000 

0.000000 0.000000 0.000000 
0.000000 0.000000 0.000000 
0.000000 0.000000 0.000000 

-0.000000 -0.000000 0.000000 
0.000000 0.000000 0.000000 
0.000000 0.000000 0.000000 

-0.000000 0.000000 0.000000 
0.000000 -0.000000 0.000000 
0.000000 0.000000 0.000000 

-0.000000 0.000000 0.000000 
0.000000 -0.000000 0.000000 
0.000000 0.000000 0.000000 

0.000000 -0.000000 0.000000 
0.000000 0.000000 0.000000 
0.000000 0.000000 0.000000 

0.000000 0.000000 0.000000 
0.000000 0.000000 0.000000 
0.000000 0.000000 0.000000 

0.000000 0.000000 0.000000 
0.000000 0.000000 0.000000 
0.000000 0.000000 0.000000 

0.000000 -0.000000 0.000000 
0.000000 0.000000 0.000000 
0.000000 0.000000 0.000000 

-0.000000 -0.000000 0.000000 
0.000000 -0.000000 0.000000 
0.000000 0.000000 0.000000 

-0.000000 -0.000000 0.000000 
0.000000 0.000000 0.000000 
0.000000 0.000000 0.000000 

0.000000 -0.000000 0.000000 
0.000000 0.000000 0.000000 
0.000000 0.000000 0.000000 

-0.000000 -0.000000 0.000000 
0.000000 -0.000000 0.000000 
0.000000 0.000000 0.000000 

-0.000000 -0.000000 0.000000 
0.000000 -0.000000 0.000000 
0.000000 0.000000 0.000000 

0.000000 -0.000000 0.000000 
0.000000 0.000000 0.000000 
0.000000 0.000000 0.000000 

0.000000 0.000000 0.000000 
0.000000 0.000000 0.000000 
0.000000 0.000000 0.000000 

-0.000000 0.000000 0.000000 
0.000000 -0.000000 0.000000 
0.000000 0.000000 0.000000 

0.000000 0.000000 0.000000 
0.000000 0.000000 0.000000 
0.000000 0.000000 0.000000 

-0.000000 -0.000000 0.000000 
0.000000 -0.000000 0.000000 
0.000000 0.000000 0.000000 

0.000000 -0.000000 0.000000 
0.000000 0.000000 0.000000 
0.000000 0.000000 0.000000 

0.000000 0.000000 0.000000 
0.000000 0.000000 0.000000 
0.000000 0.000000 0.000000 

0.000000 -0.000000 0.000000 
0.000000 -0.000000 0.000000 
0.000000 0.000000 0.000000 

0.000000 -0.000000 0.000000 
0.000000 -0.000000 0.000000 
0.000000 0.000000 0.000000 

0.000000 -0.000000 0.000000 
0.000000 -0.000000 0.000000 
0.000000 0.000000 0.000000 

0.000000 0.000000 0.000000 
0.000000 0.000000 0.000000 
0.000000 0.000000 0.000000 

-0.000000 -0.000000 0.000000 
0.000000 -0.000000 0.000000 
0.000000 0.000000 0.000000 

-0.000000 -0.000000 0.000000 
0.000000 -0.000000 0.000000 
0.000000 0.000000 0.000000 

0.000000 0.000000 0.000000 
0.000000 -0.000000 0.000000 
0.000000 0.000000 0.000000 

0.000000 0.000000 0.000000 
0.000000 0.000000 0.000000 
0.000000 0.000000 0.000000 

0.000000 -0.000000 0.000000 
0.000000 0.000000 0.000000 
0.000000 0.000000 0.000000 

-0.000000 0.000000 0.000000 
0.000000 -0.000000 0.000000 
0.000000 0.000000 0.000000 

0.000000 0.000000 0.000000 
0.000000 0.000000 0.000000 
0.000000 0.000000 0.000000 

0.000000 0.000000 0.000000 
0.000000 0.000000 0.000000 
0.000000 0.000000 0.000000 

0.000000 0.000000 0.000000 
0.000000 0.000000 0.000000 
0.000000 0.000000 0.000000 

0.000000 0.000000 0.000000 
0.000000 0.000000 0.000000 
0.000000 0.000000 0.000000 

0.000000 -0.000000 0.000000 
0.000000 0.000000 0.000000 
0.000000 0.000000 0.000000 

-0.000000 0.000000 0.000000 
0.000000 -0.000000 0.000000 
0.000000 0.000000 0.000000 

0.000000 0.000000 0.000000 
0.000000 -0.000000 0.000000 
0.000000 0.000000 0.000000 

0.000000 0.000000 0.000000 
0.000000 0.000000 0.000000 
0.000000 0.000000 0.000000 

0.000000 -0.000000 0.000000 
0.000000 0.000000 0.000000 
0.000000 0.000000 0.000000 

0.000000 -0.000000 0.000000 
0.000000 -0.000000 0.000000 
0.000000 0.000000 0.000000 

0.000000 0.000000 0.000000 
0.000000 0.000000 0.000000 
0.000000 0.000000 0.000000 

0.000000 0.000000 0.000000 
0.000000 0.000000 0.000000 
0.000000 0.000000 0.000000 

0.000000 0.000000 0.000000 
0.000000 -0.000000 0.000000 
0.000000 0.000000 0.000000 

0.000000 0.000000 0.000000 
0.000000 -0.000000 0.000000 
0.000000 0.000000 0.000000 

0.000000 0.000000 0.000000 
0.000000 0.000000 0.000000 
0.000000 0.000000 0.000000 

-0.000000 0.000000 0.000000 
0.000000 -0.000000 0.000000 
0.000000 0.000000 0.000000 

0.000000 -0.000000 0.000000 
0.000000 0.000000 0.000000 
0.000000 0.000000 0.000000 

0.000000 -0.000000 0.000000 
0.000000 0.000000 0.000000 
0.000000 0.000000 0.000000 

-0.000000 -0.000000 0.000000 
0.000000 -0.000000 0.000000 
0.000000 0.000000 0.000000 

0.000000 -0.000000 0.000000 
0.000000 -0.000000 0.000000 
0.000000 0.000000 0.000000 

-0.000000 -0.000000 0.000000 
0.000000 -0.000000 0.000000 
0.000000 0.000000 0.000000 

-0.000000 -0.000000 0.000000 
0.000000 -0.000000 0.000000 
0.000000 0.000000 0.000000 

-0.000000 -0.000000 0.000000 
0.000000 0.000000 0.000000 
0.000000 0.000000 0.000000 

0.000000 -0.000000 0.000000 
0.000000 0.000000 0.000000 
0.000000 0.000000 0.000000 

0.000000 -0.000000 0.000000 
0.000000 -0.000000 0.000000 
0.000000 0.000000 0.000000 

-0.000000 0.000000 0.000000 
0.000000 -0.000000 0.000000 
0.000000 0.000000 0.000000 

0.000000 -0.000000 0.000000 
0.000000 -0.000000 0.000000 
0.000000 0.000000 0.000000 

0.000000 0.000000 0.000000 
0.000000 0.000000 0.000000 
0.000000 0.000000 0.000000 

-0.000000 0.000000 0.000000 
0.000000 -0.000000 0.000000 
0.000000 0.000000 0.000000 

-0.000000 -0.000000 0.000000 
0.000000 -0.000000 0.000000 
0.000000 0.000000 0.000000 

-0.000000 -0.000000 0.000000 
0.000000 -0.000000 0.000000 
0.000000 0.000000 0.000000 

TENSORS STRAIN float 
0.000000 0.000000 0.000000 
0.000000 -0.000000 0.000000 
0.000000 0.000000 0.000000 

0.000000 -0.000000 0.000000 
0.000000 0.000000 0.000000 
0.000000 0.000000 0.000000 

0.000000 -0.000000 0.000000 
0.000000 -0.000000 0.000000 
0.000000 0.000000 0.000000 

0.000000 0.000000 0.000000 
0.000000 -0.000000 0.000000 
0.000000 0.000000 0.000000 

0.000000 -0.000000 0.000000 
0.000000 -0.000000 0.000000 
0.000000 0.000000 0.000000 

0.000000 0.000000 0.000000 
0.000000 0.000000 0.000000 
0.000000 0.000000 0.000000 

-0.000000 -0.000000 0.000000 
0.000000 -0.000000 0.000000 
0.000000 0.000000 0.000000 

-0.000000 -0.000000 0.000000 
0.000000 -0.000000 0.000000 
0.000000 0.000000 0.000000 

0.000000 0.000000 0.000000 
0.000000 -0.000000 0.000000 
0.000000 0.000000 0.000000 

0.000000 0.000000 0.000000 
0.000000 0.000000 0.000000 
0.000000 0.000000 0.000000 

-0.000000 -0.000000 0.000000 
0.000000 -0.000000 0.000000 
0.000000 0.000000 0.000000 

-0.000000 -0.000000 0.000000 
0.000000 -0.000000 0.000000 
0.000000 0.000000 0.000000 

0.000000 -0.000000 0.000000 
0.000000 0.000000 0.000000 
0.000000 0.000000 0.000000 

0.000000 -0.000000 0.000000 
0.000000 -0.000000 0.000000 
0.000000 0.000000 0.000000 

0.000000 -0.000000 0.000000 
0.000000 -0.000000 0.000000 
0.000000 0.000000 0.000000 

0.000000 0.000000 0.000000 
0.000000 0.000000 0.000000 
0.000000 0.000000 0.000000 

0.000000 -0.000000 0.000000 
0.000000 -0.000000 0.000000 
0.000000 0.000000 0.000000 

0.000000 -0.000000 0.000000 
0.000000 -0.000000 0.000000 
0.000000 0.000000 0.000000 

-0.000000 0.000000 0.000000 
0.000000 -0.000000 0.000000 
0.000000 0.000000 0.000000 

-0.000000 0.000000 0.000000 
0.000000 -0.000000 0.000000 
0.000000 0.000000 0.000000 

-0.000000 0.000000 0.000000 
0.000000 0.000000 0.000000 
0.000000 0.000000 0.000000 

-0.000000 -0.000000 0.000000 
0.000000 0.000000 0.000000 
0.000000 0.000000 0.000000 

0.000000 0.000000 0.000000 
0.000000 -0.000000 0.000000 
0.000000 0.000000 0.000000 

-0.000000 0.000000 0.000000 
0.000000 -0.000000 0.000000 
0.000000 0.000000 0.000000 

-0.000000 0.000000 0.000000 
0.000000 0.000000 0.000000 
0.000000 0.000000 0.000000 

-0.000000 0.000000 0.000000 
0.000000 0.000000 0.000000 
0.000000 0.000000 0.000000 

-0.000000 -0.000000 0.000000 
0.000000 0.000000 0.000000 
0.000000 0.000000 0.000000 

0.000000 -0.000000 0.000000 
0.000000 0.000000 0.000000 
0.000000 0.000000 0.000000 

0.000000 -0.000000 0.000000 
0.000000 -0.000000 0.000000 
0.000000 0.000000 0.000000 

0.000000 0.000000 0.000000 
0.000000 0.000000 0.000000 
0.000000 0.000000 0.000000 

0.000000 -0.000000 0.000000 
0.000000 0.000000 0.000000 
0.000000 0.000000 0.000000 

0.000000 0.000000 0.000000 
0.000000 -0.000000 0.000000 
0.000000 0.000000 0.000000 

0.000000 -0.000000 0.000000 
0.000000 0.000000 0.000000 
0.000000 0.000000 0.000000 

0.000000 -0.000000 0.000000 
0.000000 -0.000000 0.000000 
0.000000 0.000000 0.000000 

-0.000000 -0.000000 0.000000 
0.000000 -0.000000 0.000000 
0.000000 0.000000 0.000000 

0.000000 0.000000 0.000000 
0.000000 -0.000000 0.000000 
0.000000 0.000000 0.000000 

0.000000 -0.000000 0.000000 
0.000000 -0.000000 0.000000 
0.000000 0.000000 0.000000 

0.000000 0.000000 0.000000 
0.000000 -0.000000 0.000000 
0.000000 0.000000 0.000000 

-0.000000 0.000000 0.000000 
0.000000 0.000000 0.000000 
0.000000 0.000000 0.000000 

0.000000 0.000000 0.000000 
0.000000 -0.000000 0.000000 
0.000000 0.000000 0.000000 

-0.000000 0.000000 0.000000 
0.000000 0.000000 0.000000 
0.000000 0.000000 0.000000 

0.000000 0.000000 0.000000 
0.000000 0.000000 0.000000 
0.000000 0.000000 0.000000 

0.000000 -0.000000 0.000000 
0.000000 0.000000 0.000000 
0.000000 0.000000 0.000000 

-0.000000 -0.000000 0.000000 
0.000000 -0.000000 0.000000 
0.000000 0.000000 0.000000 

-0.000000 0.000000 0.000000 
0.000000 0.000000 0.000000 
0.000000 0.000000 0.000000 

-0.000000 -0.000000 0.000000 
0.000000 0.000000 0.000000 
0.000000 0.000000 0.000000 

0.000000 -0.000000 0.000000 
0.000000 0.000000 0.000000 
0.000000 0.000000 0.000000 

0.000000 -0.000000 0.000000 
0.000000 -0.000000 0.000000 
0.000000 0.000000 0.000000 

0.000000 0.000000 0.000000 
0.000000 -0.000000 0.000000 
0.000000 0.000000 0.000000 

-0.000000 0.000000 0.000000 
0.000000 0.000000 0.000000 
0.000000 0.000000 0.000000 

-0.000000 0.000000 0.000000 
0.000000 0.000000 0.000000 
0.000000 0.000000 0.000000 

0.000000 0.000000 0.000000 
0.000000 -0.000000 0.000000 
0.000000 0.000000 0.000000 

0.000000 0.000000 0.000000 
0.000000 0.000000 0.000000 
0.000000 0.000000 0.000000 

-0.000000 0.000000 0.000000 
0.000000 0.000000 0.000000 
0.000000 0.000000 0.000000 

0.000000 -0.000000 0.000000 
0.000000 -0.000000 0.000000 
0.000000 0.000000 0.000000 

0.000000 0.000000 0.000000 
0.000000 -0.000000 0.000000 
0.000000 0.000000 0.000000 

0.000000 0.000000 0.000000 
0.000000 0.000000 0.000000 
0.000000 0.000000 0.000000 

0.000000 0.000000 0.000000 
0.000000 0.000000 0.000000 
0.000000 0.000000 0.000000 

-0.000000 0.000000 0.000000 
0.000000 0.000000 0.000000 
0.000000 0.000000 0.000000 

-0.000000 -0.000000 0.000000 
0.000000 0.000000 0.000000 
0.000000 0.000000 0.000000 

0.000000 0.000000 0.000000 
0.000000 0.000000 0.000000 
0.000000 0.000000 0.000000 

-0.000000 0.000000 0.000000 
0.000000 0.000000 0.000000 
0.000000 0.000000 0.000000 

-0.000000 0.000000 0.000000 
0.000000 -0.000000 0.000000 
0.000000 0.000000 0.000000 

-0.000000 -0.000000 0.000000 
0.000000 0.000000 0.000000 
0.000000 0.000000 0.000000 

-0.000000 0.000000 0.000000 
0.000000 -0.000000 0.000000 
0.000000 0.000000 0.000000 

-0.000000 0.000000 0.000000 
0.000000 0.000000 0.000000 
0.000000 0.000000 0.000000 

-0.000000 0.000000 0.000000 
0.000000 -0.000000 0.000000 
0.000000 0.000000 0.000000 

-0.000000 0.000000 0.000000 
0.000000 0.000000 0.000000 
0.000000 0.000000 0.000000 

-0.000000 0.000000 0.000000 
0.000000 -0.000000 0.000000 
0.000000 0.000000 0.000000 

-0.000000 0.000000 0.000000 
0.000000 0.000000 0.000000 
0.000000 0.000000 0.000000 

-0.000000 0.000000 0.000000 
0.000000 0.000000 0.000000 
0.000000 0.000000 0.000000 

-0.000000 -0.000000 0.000000 
0.000000 -0.000000 0.000000 
0.000000 0.000000 0.000000 

-0.000000 -0.000000 0.000000 
0.000000 0.000000 0.000000 
0.000000 0.000000 0.000000 

-0.000000 -0.000000 0.000000 
0.000000 -0.000000 0.000000 
0.000000 0.000000 0.000000 

-0.000000 -0.000000 0.000000 
0.000000 0.000000 0.000000 
0.000000 0.000000 0.000000 

0.000000 -0.000000 0.000000 
0.000000 0.000000 0.000000 
0.000000 0.000000 0.000000 

0.000000 -0.000000 0.000000 
0.000000 -0.000000 0.000000 
0.000000 0.000000 0.000000 

0.000000 -0.000000 0.000000 
0.000000 0.000000 0.000000 
0.000000 0.000000 0.000000 

0.000000 -0.000000 0.000000 
0.000000 0.000000 0.000000 
0.000000 0.000000 0.000000 

-0.000000 -0.000000 0.000000 
0.000000 -0.000000 0.000000 
0.000000 0.000000 0.000000 

0.000000 0.000000 0.000000 
0.000000 0.000000 0.000000 
0.000000 0.000000 0.000000 

0.000000 0.000000 0.000000 
0.000000 -0.000000 0.000000 
0.000000 0.000000 0.000000 

0.000000 0.000000 0.000000 
0.000000 0.000000 0.000000 
0.000000 0.000000 0.000000 

0.000000 -0.000000 0.000000 
0.000000 -0.000000 0.000000 
0.000000 0.000000 0.000000 

-0.000000 0.000000 0.000000 
0.000000 -0.000000 0.000000 
0.000000 0.000000 0.000000 

-0.000000 0.000000 0.000000 
0.000000 0.000000 0.000000 
0.000000 0.000000 0.000000 

0.000000 -0.000000 0.000000 
0.000000 0.000000 0.000000 
0.000000 0.000000 0.000000 

0.000000 -0.000000 0.000000 
0.000000 -0.000000 0.000000 
0.000000 0.000000 0.000000 

0.000000 0.000000 0.000000 
0.000000 0.000000 0.000000 
0.000000 0.000000 0.000000 

-0.000000 0.000000 0.000000 
0.000000 -0.000000 0.000000 
0.000000 0.000000 0.000000 

-0.000000 0.000000 0.000000 
0.000000 0.000000 0.000000 
0.000000 0.000000 0.000000 

0.000000 -0.000000 0.000000 
0.000000 0.000000 0.000000 
0.000000 0.000000 0.000000 

0.000000 0.000000 0.000000 
0.000000 0.000000 0.000000 
0.000000 0.000000 0.000000 

0.000000 -0.000000 0.000000 
0.000000 -0.000000 0.000000 
0.000000 0.000000 0.000000 

0.000000 0.000000 0.000000 
0.000000 -0.000000 0.000000 
0.000000 0.000000 0.000000 

0.000000 0.000000 0.000000 
0.000000 0.000000 0.000000 
0.000000 0.000000 0.000000 

0.000000 0.000000 0.000000 
0.000000 0.000000 0.000000 
0.000000 0.000000 0.000000 

-0.000000 -0.000000 0.000000 
0.000000 0.000000 0.000000 
0.000000 0.000000 0.000000 

-0.000000 -0.000000 0.000000 
0.000000 0.000000 0.000000 
0.000000 0.000000 0.000000 

-0.000000 0.000000 0.000000 
0.000000 0.000000 0.000000 
0.000000 0.000000 0.000000 

-0.000000 -0.000000 0.000000 
0.000000 0.000000 0.000000 
0.000000 0.000000 0.000000 

0.000000 0.000000 0.000000 
0.000000 0.000000 0.000000 
0.000000 0.000000 0.000000 

0.000000 0.000000 0.000000 
0.000000 -0.000000 0.000000 
0.000000 0.000000 0.000000 

-0.000000 0.000000 0.000000 
0.000000 0.000000 0.000000 
0.000000 0.000000 0.000000 

0.000000 0.000000 0.000000 
0.000000 -0.000000 0.000000 
0.000000 0.000000 0.000000 

0.000000 0.000000 0.000000 
0.000000 0.000000 0.000000 
0.000000 0.000000 0.000000 

-0.000000 0.000000 0.000000 
0.000000 0.000000 0.000000 
0.000000 0.000000 0.000000 

-0.000000 -0.000000 0.000000 
0.000000 -0.000000 0.000000 
0.000000 0.000000 0.000000 

0.000000 -0.000000 0.000000 
0.000000 0.000000 0.000000 
0.000000 0.000000 0.000000 

0.000000 0.000000 0.000000 
0.000000 -0.000000 0.000000 
0.000000 0.000000 0.000000 

0.000000 0.000000 0.000000 
0.000000 -0.000000 0.000000 
0.000000 0.000000 0.000000 

0.000000 0.000000 0.000000 
0.000000 -0.000000 0.000000 
0.000000 0.000000 0.000000 

0.000000 0.000000 0.000000 
0.000000 0.000000 0.000000 
0.000000 0.000000 0.000000 

0.000000 -0.000000 0.000000 
0.000000 -0.000000 0.000000 
0.000000 0.000000 0.000000 

-0.000000 0.000000 0.000000 
0.000000 0.000000 0.000000 
0.000000 0.000000 0.000000 

-0.000000 -0.000000 0.000000 
0.000000 0.000000 0.000000 
0.000000 0.000000 0.000000 

-0.000000 0.000000 0.000000 
0.000000 -0.000000 0.000000 
0.000000 0.000000 0.000000 

0.000000 0.000000 0.000000 
0.000000 -0.000000 0.000000 
0.000000 0.000000 0.000000 

0.000000 -0.000000 0.000000 
0.000000 0.000000 0.000000 
0.000000 0.000000 0.000000 

-0.000000 0.000000 0.000000 
0.000000 0.000000 0.000000 
0.000000 0.000000 0.000000 

0.000000 0.000000 0.000000 
0.000000 0.000000 0.000000 
0.000000 0.000000 0.000000 

-0.000000 -0.000000 0.000000 
0.000000 0.000000 0.000000 
0.000000 0.000000 0.000000 

-0.000000 -0.000000 0.000000 
0.000000 -0.000000 0.000000 
0.000000 0.000000 0.000000 

-0.000000 -0.000000 0.000000 
0.000000 0.000000 0.000000 
0.000000 0.000000 0.000000 

0.000000 -0.000000 0.000000 
0.000000 0.000000 0.000000 
0.000000 0.000000 0.000000 

-0.000000 -0.000000 0.000000 
0.000000 -0.000000 0.000000 
0.000000 0.000000 0.000000 

0.000000 -0.000000 0.000000 
0.000000 -0.000000 0.000000 
0.000000 0.000000 0.000000 

0.000000 -0.000000 0.000000 
0.000000 0.000000 0.000000 
0.000000 0.000000 0.000000 

0.000000 0.000000 0.000000 
0.000000 0.000000 0.000000 
0.000000 0.000000 0.000000 

0.000000 0.000000 0.000000 
0.000000 -0.000000 0.000000 
0.000000 0.000000 0.000000 

0.000000 0.000000 0.000000 
0.000000 0.000000 0.000000 
0.000000 0.000000 0.000000 

-0.000000 -0.000000 0.000000 
0.000000 -0.000000 0.000000 
0.000000 0.000000 0.000000 

-0.000000 -0.000000 0.000000 
0.000000 0.000000 0.000000 
0.000000 0.000000 0.000000 

0.000000 0.000000 0.000000 
0.000000 0.000000 0.000000 
0.000000 0.000000 0.000000 

0.000000 -0.000000 0.000000 
0.000000 -0.000000 0.000000 
0.000000 0.000000 0.000000 

0.000000 -0.000000 0.000000 
0.000000 -0.000000 0.000000 
0.000000 0.000000 0.000000 

0.000000 -0.000000 0.000000 
0.000000 -0.000000 0.000000 
0.000000 0.000000 0.000000 

-0.000000 0.000000 0.000000 
0.000000 0.000000 0.000000 
0.000000 0.000000 0.000000 

-0.000000 -0.000000 0.000000 
0.000000 -0.000000 0.000000 
0.000000 0.000000 0.000000 

0.000000 -0.000000 0.000000 
0.000000 -0.000000 0.000000 
0.000000 0.000000 0.000000 

0.000000 0.000000 0.000000 
0.000000 -0.000000 0.000000 
0.000000 0.000000 0.000000 

0.000000 0.000000 0.000000 
0.000000 -0.000000 0.000000 
0.000000 0.000000 0.000000 

0.000000 -0.000000 0.000000 
0.000000 0.000000 0.000000 
0.000000 0.000000 0.000000 

-0.000000 0.000000 0.000000 
0.000000 0.000000 0.000000 
0.000000 0.000000 0.000000 

0.000000 0.000000 0.000000 
0.000000 0.000000 0.000000 
0.000000 0.000000 0.000000 

-0.000000 0.000000 0.000000 
0.000000 0.000000 0.000000 
0.000000 0.000000 0.000000 

-0.000000 0.000000 0.000000 
0.000000 0.000000 0.000000 
0.000000 0.000000 0.000000 

0.000000 0.000000 0.000000 
0.000000 0.000000 0.000000 
0.000000 0.000000 0.000000 

0.000000 -0.000000 0.000000 
0.000000 0.000000 0.000000 
0.000000 0.000000 0.000000 

-0.000000 0.000000 0.000000 
0.000000 -0.000000 0.000000 
0.000000 0.000000 0.000000 

0.000000 0.000000 0.000000 
0.000000 -0.000000 0.000000 
0.000000 0.000000 0.000000 

0.000000 0.000000 0.000000 
0.000000 0.000000 0.000000 
0.000000 0.000000 0.000000 

0.000000 -0.000000 0.000000 
0.000000 -0.000000 0.000000 
0.000000 0.000000 0.000000 

0.000000 -0.000000 0.000000 
0.000000 -0.000000 0.000000 
0.000000 0.000000 0.000000 

0.000000 0.000000 0.000000 
0.000000 0.000000 0.000000 
0.000000 0.000000 0.000000 

-0.000000 0.000000 0.000000 
0.000000 0.000000 0.000000 
0.000000 0.000000 0.000000 

0.000000 0.000000 0.000000 
0.000000 -0.000000 0.000000 
0.000000 0.000000 0.000000 

0.000000 0.000000 0.000000 
0.000000 -0.000000 0.000000 
0.000000 0.000000 0.000000 

0.000000 0.000000 0.000000 
0.000000 0.000000 0.000000 
0.000000 0.000000 0.000000 

0.000000 0.000000 0.000000 
0.000000 -0.000000 0.000000 
0.000000 0.000000 0.000000 

0.000000 -0.000000 0.000000 
0.000000 0.000000 0.000000 
0.000000 0.000000 0.000000 

0.000000 -0.000000 0.000000 
0.000000 0.000000 0.000000 
0.000000 0.000000 0.000000 

0.000000 -0.000000 0.000000 
0.000000 -0.000000 0.000000 
0.000000 0.000000 0.000000 

0.000000 -0.000000 0.000000 
0.000000 -0.000000 0.000000 
0.000000 0.000000 0.000000 

0.000000 -0.000000 0.000000 
0.000000 -0.000000 0.000000 
0.000000 0.000000 0.000000 

0.000000 -0.000000 0.000000 
0.000000 -0.000000 0.000000 
0.000000 0.000000 0.000000 

-0.000000 -0.000000 0.000000 
0.000000 0.000000 0.000000 
0.000000 0.000000 0.000000 

-0.000000 -0.000000 0.000000 
0.000000 0.000000 0.000000 
0.000000 0.000000 0.000000 

0.000000 -0.000000 0.000000 
0.000000 -0.000000 0.000000 
0.000000 0.000000 0.000000 

0.000000 0.000000 0.000000 
0.000000 -0.000000 0.000000 
0.000000 0.000000 0.000000 

0.000000 -0.000000 0.000000 
0.000000 -0.000000 0.000000 
0.000000 0.000000 0.000000 

0.000000 0.000000 0.000000 
0.000000 0.000000 0.000000 
0.000000 0.000000 0.000000 

-0.000000 0.000000 0.000000 
0.000000 -0.000000 0.000000 
0.000000 0.000000 0.000000 

-0.000000 -0.000000 0.000000 
0.000000 -0.000000 0.000000 
0.000000 0.000000 0.000000 

-0.000000 -0.000000 0.000000 
0.000000 -0.000000 0.000000 
0.000000 0.000000 0.000000 

