# vtk DataFile Version 3.0 
vtk output 
ASCII 
DATASET UNSTRUCTURED_GRID 
POINTS 175 float 
-0.026061 -0.761909 0.000000 
-0.106992 -0.693854 0.000000 
-0.054870 -0.702087 0.000000 
-0.028809 -0.656203 0.000000 
-0.186430 -0.629778 0.000000 
-0.137056 -0.632305 0.000000 
-0.114311 -0.578657 0.000000 
-0.058186 -0.594323 0.000000 
-0.029377 -0.554146 0.000000 
-0.265318 -0.566623 0.000000 
-0.217198 -0.567422 0.000000 
-0.196633 -0.510126 0.000000 
-0.143120 -0.518834 0.000000 
-0.116563 -0.471566 0.000000 
-0.058945 -0.491212 0.000000 
-0.029568 -0.453092 0.000000 
-0.344206 -0.503467 0.000000 
-0.296791 -0.503460 0.000000 
-0.278030 -0.443517 0.000000 
-0.225992 -0.449383 0.000000 
-0.201664 -0.397266 0.000000 
-0.145749 -0.410740 0.000000 
-0.117890 -0.366397 0.000000 
-0.059328 -0.389103 0.000000 
-0.029759 -0.352037 0.000000 
-0.058559 -0.802660 0.000000 
-0.162226 -0.823503 0.000000 
-0.123292 -0.787885 0.000000 
-0.142917 -0.738902 0.000000 
-0.261851 -0.845659 0.000000 
-0.229092 -0.808632 0.000000 
-0.256854 -0.757401 0.000000 
-0.209613 -0.723288 0.000000 
-0.223062 -0.675714 0.000000 
-0.360414 -0.867959 0.000000 
-0.329787 -0.830836 0.000000 
-0.361761 -0.779034 0.000000 
-0.321587 -0.742626 0.000000 
-0.341985 -0.692391 0.000000 
-0.290702 -0.659593 0.000000 
-0.302189 -0.612857 0.000000 
-0.458977 -0.890259 0.000000 
-0.429420 -0.853185 0.000000 
-0.464588 -0.801143 0.000000 
-0.427556 -0.764115 0.000000 
-0.453135 -0.712601 0.000000 
-0.407738 -0.677285 0.000000 
-0.425037 -0.627857 0.000000 
-0.370772 -0.596228 0.000000 
-0.381315 -0.550001 0.000000 
-0.046960 -0.853475 0.000000 
-0.095301 -0.947521 0.000000 
-0.098873 -0.894874 0.000000 
-0.149405 -0.879676 0.000000 
-0.140093 -1.039225 0.000000 
-0.148617 -0.990527 0.000000 
-0.205981 -0.980290 0.000000 
-0.203197 -0.922086 0.000000 
-0.248777 -0.902940 0.000000 
-0.184111 -1.130189 0.000000 
-0.194039 -1.083098 0.000000 
-0.254475 -1.075798 0.000000 
-0.257893 -1.021688 0.000000 
-0.309886 -1.006316 0.000000 
-0.303554 -0.945771 0.000000 
-0.347255 -0.925613 0.000000 
-0.228129 -1.221153 0.000000 
-0.238687 -1.174928 0.000000 
-0.301302 -1.169976 0.000000 
-0.307162 -1.117937 0.000000 
-0.363386 -1.105816 0.000000 
-0.362692 -1.048305 0.000000 
-0.412122 -1.031012 0.000000 
-0.403017 -0.968865 0.000000 
-0.445733 -0.948286 0.000000 
-0.000000 -0.876090 0.000000 
0.043388 -0.972521 0.000000 
-0.000000 -0.942489 0.000000 
-0.043388 -0.972521 0.000000 
0.087158 -1.064718 0.000000 
0.043769 -1.041019 0.000000 
-0.000000 -1.079485 0.000000 
-0.043769 -1.041019 0.000000 
-0.087158 -1.064718 0.000000 
0.130831 -1.155847 0.000000 
0.087824 -1.134248 0.000000 
0.044436 -1.176948 0.000000 
-0.000000 -1.145883 0.000000 
-0.044436 -1.176948 0.000000 
-0.087824 -1.134248 0.000000 
-0.130831 -1.155847 0.000000 
0.174505 -1.246977 0.000000 
0.131782 -1.226411 0.000000 
0.088871 -1.272277 0.000000 
0.044532 -1.244413 0.000000 
-0.000000 -1.280814 0.000000 
-0.044532 -1.244413 0.000000 
-0.088871 -1.272277 0.000000 
-0.131782 -1.226411 0.000000 
-0.174505 -1.246977 0.000000 
0.046960 -0.853475 0.000000 
0.149405 -0.879676 0.000000 
0.098873 -0.894874 0.000000 
0.095301 -0.947521 0.000000 
0.248777 -0.902940 0.000000 
0.203197 -0.922086 0.000000 
0.205981 -0.980290 0.000000 
0.148617 -0.990527 0.000000 
0.140093 -1.039225 0.000000 
0.347255 -0.925613 0.000000 
0.303554 -0.945771 0.000000 
0.309886 -1.006316 0.000000 
0.257893 -1.021688 0.000000 
0.254475 -1.075798 0.000000 
0.194039 -1.083098 0.000000 
0.184111 -1.130189 0.000000 
0.445733 -0.948286 0.000000 
0.403017 -0.968865 0.000000 
0.412122 -1.031012 0.000000 
0.362692 -1.048305 0.000000 
0.363386 -1.105816 0.000000 
0.307162 -1.117937 0.000000 
0.301302 -1.169976 0.000000 
0.238687 -1.174928 0.000000 
0.228129 -1.221153 0.000000 
0.058559 -0.802660 0.000000 
0.142917 -0.738902 0.000000 
0.123292 -0.787885 0.000000 
0.162226 -0.823503 0.000000 
0.223062 -0.675714 0.000000 
0.209613 -0.723288 0.000000 
0.256854 -0.757401 0.000000 
0.229092 -0.808632 0.000000 
0.261851 -0.845659 0.000000 
0.302189 -0.612857 0.000000 
0.290702 -0.659593 0.000000 
0.341985 -0.692391 0.000000 
0.321587 -0.742626 0.000000 
0.361761 -0.779034 0.000000 
0.329787 -0.830836 0.000000 
0.360414 -0.867959 0.000000 
0.381315 -0.550001 0.000000 
0.370772 -0.596228 0.000000 
0.425037 -0.627857 0.000000 
0.407738 -0.677285 0.000000 
0.453135 -0.712601 0.000000 
0.427556 -0.764115 0.000000 
0.464588 -0.801143 0.000000 
0.429420 -0.853185 0.000000 
0.458977 -0.890259 0.000000 
0.026061 -0.761909 0.000000 
0.028809 -0.656203 0.000000 
0.054870 -0.702087 0.000000 
0.106992 -0.693854 0.000000 
0.029377 -0.554146 0.000000 
0.058186 -0.594323 0.000000 
0.114311 -0.578657 0.000000 
0.137056 -0.632305 0.000000 
0.186430 -0.629778 0.000000 
0.029568 -0.453092 0.000000 
0.058945 -0.491212 0.000000 
0.116563 -0.471566 0.000000 
0.143120 -0.518834 0.000000 
0.196633 -0.510126 0.000000 
0.217198 -0.567422 0.000000 
0.265318 -0.566623 0.000000 
0.029759 -0.352037 0.000000 
0.059328 -0.389103 0.000000 
0.117890 -0.366397 0.000000 
0.145749 -0.410740 0.000000 
0.201664 -0.397266 0.000000 
0.225992 -0.449383 0.000000 
0.278030 -0.443517 0.000000 
0.296791 -0.503460 0.000000 
0.344206 -0.503467 0.000000 
CELLS 175 350 
1 0 
1 1 
1 2 
1 3 
1 4 
1 5 
1 6 
1 7 
1 8 
1 9 
1 10 
1 11 
1 12 
1 13 
1 14 
1 15 
1 16 
1 17 
1 18 
1 19 
1 20 
1 21 
1 22 
1 23 
1 24 
1 25 
1 26 
1 27 
1 28 
1 29 
1 30 
1 31 
1 32 
1 33 
1 34 
1 35 
1 36 
1 37 
1 38 
1 39 
1 40 
1 41 
1 42 
1 43 
1 44 
1 45 
1 46 
1 47 
1 48 
1 49 
1 50 
1 51 
1 52 
1 53 
1 54 
1 55 
1 56 
1 57 
1 58 
1 59 
1 60 
1 61 
1 62 
1 63 
1 64 
1 65 
1 66 
1 67 
1 68 
1 69 
1 70 
1 71 
1 72 
1 73 
1 74 
1 75 
1 76 
1 77 
1 78 
1 79 
1 80 
1 81 
1 82 
1 83 
1 84 
1 85 
1 86 
1 87 
1 88 
1 89 
1 90 
1 91 
1 92 
1 93 
1 94 
1 95 
1 96 
1 97 
1 98 
1 99 
1 100 
1 101 
1 102 
1 103 
1 104 
1 105 
1 106 
1 107 
1 108 
1 109 
1 110 
1 111 
1 112 
1 113 
1 114 
1 115 
1 116 
1 117 
1 118 
1 119 
1 120 
1 121 
1 122 
1 123 
1 124 
1 125 
1 126 
1 127 
1 128 
1 129 
1 130 
1 131 
1 132 
1 133 
1 134 
1 135 
1 136 
1 137 
1 138 
1 139 
1 140 
1 141 
1 142 
1 143 
1 144 
1 145 
1 146 
1 147 
1 148 
1 149 
1 150 
1 151 
1 152 
1 153 
1 154 
1 155 
1 156 
1 157 
1 158 
1 159 
1 160 
1 161 
1 162 
1 163 
1 164 
1 165 
1 166 
1 167 
1 168 
1 169 
1 170 
1 171 
1 172 
1 173 
1 174 
CELL_TYPES 175 
1 
1 
1 
1 
1 
1 
1 
1 
1 
1 
1 
1 
1 
1 
1 
1 
1 
1 
1 
1 
1 
1 
1 
1 
1 
1 
1 
1 
1 
1 
1 
1 
1 
1 
1 
1 
1 
1 
1 
1 
1 
1 
1 
1 
1 
1 
1 
1 
1 
1 
1 
1 
1 
1 
1 
1 
1 
1 
1 
1 
1 
1 
1 
1 
1 
1 
1 
1 
1 
1 
1 
1 
1 
1 
1 
1 
1 
1 
1 
1 
1 
1 
1 
1 
1 
1 
1 
1 
1 
1 
1 
1 
1 
1 
1 
1 
1 
1 
1 
1 
1 
1 
1 
1 
1 
1 
1 
1 
1 
1 
1 
1 
1 
1 
1 
1 
1 
1 
1 
1 
1 
1 
1 
1 
1 
1 
1 
1 
1 
1 
1 
1 
1 
1 
1 
1 
1 
1 
1 
1 
1 
1 
1 
1 
1 
1 
1 
1 
1 
1 
1 
1 
1 
1 
1 
1 
1 
1 
1 
1 
1 
1 
1 
1 
1 
1 
1 
1 
1 
1 
1 
1 
1 
1 
1 
POINT_DATA 175 
VECTORS X_GC float 
-0.026061 -0.761909 0.000000 
-0.106992 -0.693854 0.000000 
-0.054870 -0.702087 0.000000 
-0.028809 -0.656203 0.000000 
-0.186430 -0.629778 0.000000 
-0.137056 -0.632305 0.000000 
-0.114311 -0.578657 0.000000 
-0.058186 -0.594323 0.000000 
-0.029377 -0.554146 0.000000 
-0.265318 -0.566623 0.000000 
-0.217198 -0.567422 0.000000 
-0.196633 -0.510126 0.000000 
-0.143120 -0.518834 0.000000 
-0.116563 -0.471566 0.000000 
-0.058945 -0.491212 0.000000 
-0.029568 -0.453092 0.000000 
-0.344206 -0.503467 0.000000 
-0.296791 -0.503460 0.000000 
-0.278030 -0.443517 0.000000 
-0.225992 -0.449383 0.000000 
-0.201664 -0.397266 0.000000 
-0.145749 -0.410740 0.000000 
-0.117890 -0.366397 0.000000 
-0.059328 -0.389103 0.000000 
-0.029759 -0.352037 0.000000 
-0.058559 -0.802660 0.000000 
-0.162226 -0.823503 0.000000 
-0.123292 -0.787885 0.000000 
-0.142917 -0.738902 0.000000 
-0.261851 -0.845659 0.000000 
-0.229092 -0.808632 0.000000 
-0.256854 -0.757401 0.000000 
-0.209613 -0.723288 0.000000 
-0.223062 -0.675714 0.000000 
-0.360414 -0.867959 0.000000 
-0.329787 -0.830836 0.000000 
-0.361761 -0.779034 0.000000 
-0.321587 -0.742626 0.000000 
-0.341985 -0.692391 0.000000 
-0.290702 -0.659593 0.000000 
-0.302189 -0.612857 0.000000 
-0.458977 -0.890259 0.000000 
-0.429420 -0.853185 0.000000 
-0.464588 -0.801143 0.000000 
-0.427556 -0.764115 0.000000 
-0.453135 -0.712601 0.000000 
-0.407738 -0.677285 0.000000 
-0.425037 -0.627857 0.000000 
-0.370772 -0.596228 0.000000 
-0.381315 -0.550001 0.000000 
-0.046960 -0.853475 0.000000 
-0.095301 -0.947521 0.000000 
-0.098873 -0.894874 0.000000 
-0.149405 -0.879676 0.000000 
-0.140093 -1.039225 0.000000 
-0.148617 -0.990527 0.000000 
-0.205981 -0.980290 0.000000 
-0.203197 -0.922086 0.000000 
-0.248777 -0.902940 0.000000 
-0.184111 -1.130189 0.000000 
-0.194039 -1.083098 0.000000 
-0.254475 -1.075798 0.000000 
-0.257893 -1.021688 0.000000 
-0.309886 -1.006316 0.000000 
-0.303554 -0.945771 0.000000 
-0.347255 -0.925613 0.000000 
-0.228129 -1.221153 0.000000 
-0.238687 -1.174928 0.000000 
-0.301302 -1.169976 0.000000 
-0.307162 -1.117937 0.000000 
-0.363386 -1.105816 0.000000 
-0.362692 -1.048305 0.000000 
-0.412122 -1.031012 0.000000 
-0.403017 -0.968865 0.000000 
-0.445733 -0.948286 0.000000 
-0.000000 -0.876090 0.000000 
0.043388 -0.972521 0.000000 
-0.000000 -0.942489 0.000000 
-0.043388 -0.972521 0.000000 
0.087158 -1.064718 0.000000 
0.043769 -1.041019 0.000000 
-0.000000 -1.079485 0.000000 
-0.043769 -1.041019 0.000000 
-0.087158 -1.064718 0.000000 
0.130831 -1.155847 0.000000 
0.087824 -1.134248 0.000000 
0.044436 -1.176948 0.000000 
-0.000000 -1.145883 0.000000 
-0.044436 -1.176948 0.000000 
-0.087824 -1.134248 0.000000 
-0.130831 -1.155847 0.000000 
0.174505 -1.246977 0.000000 
0.131782 -1.226411 0.000000 
0.088871 -1.272277 0.000000 
0.044532 -1.244413 0.000000 
-0.000000 -1.280814 0.000000 
-0.044532 -1.244413 0.000000 
-0.088871 -1.272277 0.000000 
-0.131782 -1.226411 0.000000 
-0.174505 -1.246977 0.000000 
0.046960 -0.853475 0.000000 
0.149405 -0.879676 0.000000 
0.098873 -0.894874 0.000000 
0.095301 -0.947521 0.000000 
0.248777 -0.902940 0.000000 
0.203197 -0.922086 0.000000 
0.205981 -0.980290 0.000000 
0.148617 -0.990527 0.000000 
0.140093 -1.039225 0.000000 
0.347255 -0.925613 0.000000 
0.303554 -0.945771 0.000000 
0.309886 -1.006316 0.000000 
0.257893 -1.021688 0.000000 
0.254475 -1.075798 0.000000 
0.194039 -1.083098 0.000000 
0.184111 -1.130189 0.000000 
0.445733 -0.948286 0.000000 
0.403017 -0.968865 0.000000 
0.412122 -1.031012 0.000000 
0.362692 -1.048305 0.000000 
0.363386 -1.105816 0.000000 
0.307162 -1.117937 0.000000 
0.301302 -1.169976 0.000000 
0.238687 -1.174928 0.000000 
0.228129 -1.221153 0.000000 
0.058559 -0.802660 0.000000 
0.142917 -0.738902 0.000000 
0.123292 -0.787885 0.000000 
0.162226 -0.823503 0.000000 
0.223062 -0.675714 0.000000 
0.209613 -0.723288 0.000000 
0.256854 -0.757401 0.000000 
0.229092 -0.808632 0.000000 
0.261851 -0.845659 0.000000 
0.302189 -0.612857 0.000000 
0.290702 -0.659593 0.000000 
0.341985 -0.692391 0.000000 
0.321587 -0.742626 0.000000 
0.361761 -0.779034 0.000000 
0.329787 -0.830836 0.000000 
0.360414 -0.867959 0.000000 
0.381315 -0.550001 0.000000 
0.370772 -0.596228 0.000000 
0.425037 -0.627857 0.000000 
0.407738 -0.677285 0.000000 
0.453135 -0.712601 0.000000 
0.427556 -0.764115 0.000000 
0.464588 -0.801143 0.000000 
0.429420 -0.853185 0.000000 
0.458977 -0.890259 0.000000 
0.026061 -0.761909 0.000000 
0.028809 -0.656203 0.000000 
0.054870 -0.702087 0.000000 
0.106992 -0.693854 0.000000 
0.029377 -0.554146 0.000000 
0.058186 -0.594323 0.000000 
0.114311 -0.578657 0.000000 
0.137056 -0.632305 0.000000 
0.186430 -0.629778 0.000000 
0.029568 -0.453092 0.000000 
0.058945 -0.491212 0.000000 
0.116563 -0.471566 0.000000 
0.143120 -0.518834 0.000000 
0.196633 -0.510126 0.000000 
0.217198 -0.567422 0.000000 
0.265318 -0.566623 0.000000 
0.029759 -0.352037 0.000000 
0.059328 -0.389103 0.000000 
0.117890 -0.366397 0.000000 
0.145749 -0.410740 0.000000 
0.201664 -0.397266 0.000000 
0.225992 -0.449383 0.000000 
0.278030 -0.443517 0.000000 
0.296791 -0.503460 0.000000 
0.344206 -0.503467 0.000000 
VECTORS X_EC float 
0.338794 0.785776 0.000000 
-0.609100 -0.132972 0.000000 
0.713312 -0.021831 0.000000 
0.374519 -0.641261 0.000000 
0.423588 -0.997991 0.000000 
-0.218274 -0.963888 0.000000 
-0.513962 0.311873 0.000000 
0.756418 0.523359 0.000000 
0.381900 -0.019033 0.000000 
-0.550868 0.149405 0.000000 
0.823577 0.160201 0.000000 
0.556234 -0.613303 0.000000 
-0.139443 -0.495734 0.000000 
-0.484677 0.866141 0.000000 
0.766286 -0.868644 0.000000 
0.384386 0.616736 0.000000 
0.474677 -0.703198 0.000000 
-0.141715 -0.703294 0.000000 
-0.385608 0.487478 0.000000 
0.937896 0.566673 0.000000 
0.621631 -0.136907 0.000000 
-0.105264 0.044992 0.000000 
-0.467428 -0.553634 0.000000 
0.771260 -0.247105 0.000000 
0.386873 -0.747495 0.000000 
0.761262 -0.664089 0.000000 
0.108942 -0.382713 0.000000 
-0.397202 -0.863552 0.000000 
-0.142083 0.475173 0.000000 
-0.595936 -0.083602 0.000000 
0.978194 -0.583468 0.000000 
-0.660903 0.724907 0.000000 
0.724964 0.264387 0.000000 
0.899809 -0.377862 0.000000 
0.685384 0.217450 0.000000 
0.287229 -0.283708 0.000000 
0.702895 -0.983037 0.000000 
0.180633 0.525445 0.000000 
0.445811 -0.152715 0.000000 
-0.220880 -0.595501 0.000000 
-0.071546 0.773574 0.000000 
-0.033296 0.518502 0.000000 
-0.417537 0.017993 0.000000 
0.039645 -0.684570 0.000000 
-0.441768 0.815559 0.000000 
-0.109248 0.120108 0.000000 
-0.699407 -0.356647 0.000000 
-0.474522 0.976074 0.000000 
0.820030 0.549080 0.000000 
0.957100 -0.074991 0.000000 
0.610485 0.021917 0.000000 
-0.761092 -0.708463 0.000000 
-0.714655 0.580799 0.000000 
-0.057734 0.375632 0.000000 
-0.178789 0.529541 0.000000 
-0.067979 -0.127885 0.000000 
0.677748 -0.266089 0.000000 
0.641556 0.948166 0.000000 
-0.765897 0.689687 0.000000 
0.393446 -0.242450 0.000000 
0.522510 -0.878180 0.000000 
-0.691820 -0.976724 0.000000 
-0.647393 0.292793 0.000000 
0.028512 0.085266 0.000000 
-0.053800 -0.732094 0.000000 
0.514316 0.995775 0.000000 
0.965681 0.985559 0.000000 
-0.897068 0.361530 0.000000 
-0.083078 0.294677 0.000000 
-0.006893 -0.407847 0.000000 
0.724017 -0.571480 0.000000 
0.714996 0.652116 0.000000 
-0.642413 0.418659 0.000000 
-0.760780 -0.420322 0.000000 
-0.205471 -0.698137 0.000000 
0.000000 0.327219 0.000000 
-0.564049 -0.370968 0.000000 
0.000000 -0.776404 0.000000 
0.564049 -0.370968 0.000000 
0.866949 0.873687 0.000000 
-0.569003 0.553756 0.000000 
0.000000 -0.926956 0.000000 
0.569003 0.553756 0.000000 
-0.866949 0.873687 0.000000 
0.299194 0.103937 0.000000 
0.858290 -0.187647 0.000000 
-0.577662 0.388799 0.000000 
0.000000 -0.030579 0.000000 
0.577662 0.388799 0.000000 
-0.858290 -0.187647 0.000000 
-0.299194 0.103937 0.000000 
-0.268560 -0.665813 0.000000 
0.286830 -0.943455 0.000000 
0.844677 -0.324256 0.000000 
-0.578910 -0.700419 0.000000 
0.000000 -0.209015 0.000000 
0.578910 -0.700419 0.000000 
-0.844677 -0.324256 0.000000 
-0.286830 -0.943455 0.000000 
0.268560 -0.665813 0.000000 
-0.610485 0.021917 0.000000 
0.057734 0.375632 0.000000 
0.714655 0.580799 0.000000 
0.761092 -0.708463 0.000000 
0.765897 0.689687 0.000000 
-0.641556 0.948166 0.000000 
-0.677748 -0.266089 0.000000 
0.067979 -0.127885 0.000000 
0.178789 0.529541 0.000000 
-0.514316 0.995775 0.000000 
0.053800 -0.732094 0.000000 
-0.028512 0.085266 0.000000 
0.647393 0.292793 0.000000 
0.691820 -0.976724 0.000000 
-0.522510 -0.878180 0.000000 
-0.393446 -0.242450 0.000000 
0.205471 -0.698137 0.000000 
0.760780 -0.420322 0.000000 
0.642413 0.418659 0.000000 
-0.714996 0.652116 0.000000 
-0.724017 -0.571480 0.000000 
0.006894 -0.407847 0.000000 
0.083078 0.294677 0.000000 
0.897068 0.361530 0.000000 
-0.965681 0.985559 0.000000 
-0.761262 -0.664089 0.000000 
0.142083 0.475173 0.000000 
0.397202 -0.863552 0.000000 
-0.108942 -0.382713 0.000000 
-0.899809 -0.377861 0.000000 
-0.724964 0.264387 0.000000 
0.660903 0.724907 0.000000 
-0.978194 -0.583468 0.000000 
0.595936 -0.083602 0.000000 
0.071546 0.773574 0.000000 
0.220880 -0.595501 0.000000 
-0.445811 -0.152715 0.000000 
-0.180633 0.525445 0.000000 
-0.702895 -0.983037 0.000000 
-0.287229 -0.283708 0.000000 
-0.685384 0.217450 0.000000 
-0.957100 -0.074991 0.000000 
-0.820030 0.549080 0.000000 
0.474522 0.976074 0.000000 
0.699407 -0.356647 0.000000 
0.109248 0.120108 0.000000 
0.441768 0.815559 0.000000 
-0.039645 -0.684570 0.000000 
0.417537 0.017993 0.000000 
0.033296 0.518502 0.000000 
-0.338794 0.785776 0.000000 
-0.374519 -0.641261 0.000000 
-0.713312 -0.021831 0.000000 
0.609100 -0.132972 0.000000 
-0.381900 -0.019033 0.000000 
-0.756418 0.523359 0.000000 
0.513962 0.311873 0.000000 
0.218274 -0.963888 0.000000 
-0.423588 -0.997991 0.000000 
-0.384386 0.616736 0.000000 
-0.766286 -0.868644 0.000000 
0.484677 0.866141 0.000000 
0.139443 -0.495734 0.000000 
-0.556234 -0.613303 0.000000 
-0.823577 0.160201 0.000000 
0.550868 0.149405 0.000000 
-0.386873 -0.747495 0.000000 
-0.771260 -0.247105 0.000000 
0.467428 -0.553634 0.000000 
0.105264 0.044992 0.000000 
-0.621631 -0.136907 0.000000 
-0.937896 0.566673 0.000000 
0.385608 0.487478 0.000000 
0.141715 -0.703294 0.000000 
-0.474677 -0.703198 0.000000 
CELL_DATA 175 
SCALARS MASS float 
LOOKUP_TABLE default 
0.078183 
0.086427 
0.094672 
0.086427 
0.088131 
0.092111 
0.085854 
0.092111 
0.088131 
0.088705 
0.091000 
0.086983 
0.091556 
0.086983 
0.091000 
0.088705 
0.089278 
0.091574 
0.089278 
0.092722 
0.089278 
0.092722 
0.089278 
0.091574 
0.089278 
0.078183 
0.086427 
0.094672 
0.086427 
0.088131 
0.092111 
0.085854 
0.092111 
0.088131 
0.088705 
0.091000 
0.086983 
0.091556 
0.086983 
0.091000 
0.088705 
0.089278 
0.091574 
0.089278 
0.092722 
0.089278 
0.092722 
0.089278 
0.091574 
0.089278 
0.078183 
0.086427 
0.094672 
0.086427 
0.088131 
0.092111 
0.085854 
0.092111 
0.088131 
0.088705 
0.091000 
0.086983 
0.091556 
0.086983 
0.091000 
0.088705 
0.089278 
0.091574 
0.089278 
0.092722 
0.089278 
0.092722 
0.089278 
0.091574 
0.089278 
0.078183 
0.086427 
0.094672 
0.086427 
0.088131 
0.092111 
0.085854 
0.092111 
0.088131 
0.088705 
0.091000 
0.086983 
0.091556 
0.086983 
0.091000 
0.088705 
0.089278 
0.091574 
0.089278 
0.092722 
0.089278 
0.092722 
0.089278 
0.091574 
0.089278 
0.078183 
0.086427 
0.094672 
0.086427 
0.088131 
0.092111 
0.085854 
0.092111 
0.088131 
0.088705 
0.091000 
0.086983 
0.091556 
0.086983 
0.091000 
0.088705 
0.089278 
0.091574 
0.089278 
0.092722 
0.089278 
0.092722 
0.089278 
0.091574 
0.089278 
0.078183 
0.086427 
0.094672 
0.086427 
0.088131 
0.092111 
0.085854 
0.092111 
0.088131 
0.088705 
0.091000 
0.086983 
0.091556 
0.086983 
0.091000 
0.088705 
0.089278 
0.091574 
0.089278 
0.092722 
0.089278 
0.092722 
0.089278 
0.091574 
0.089278 
0.078183 
0.086427 
0.094672 
0.086427 
0.088131 
0.092111 
0.085854 
0.092111 
0.088131 
0.088705 
0.091000 
0.086983 
0.091556 
0.086983 
0.091000 
0.088705 
0.089278 
0.091574 
0.089278 
0.092722 
0.089278 
0.092722 
0.089278 
0.091574 
0.089278 
SCALARS MASS float 
LOOKUP_TABLE default 
0.078183 
0.086427 
0.094672 
0.086427 
0.088131 
0.092111 
0.085854 
0.092111 
0.088131 
0.088705 
0.091000 
0.086983 
0.091556 
0.086983 
0.091000 
0.088705 
0.089278 
0.091574 
0.089278 
0.092722 
0.089278 
0.092722 
0.089278 
0.091574 
0.089278 
0.078183 
0.086427 
0.094672 
0.086427 
0.088131 
0.092111 
0.085854 
0.092111 
0.088131 
0.088705 
0.091000 
0.086983 
0.091556 
0.086983 
0.091000 
0.088705 
0.089278 
0.091574 
0.089278 
0.092722 
0.089278 
0.092722 
0.089278 
0.091574 
0.089278 
0.078183 
0.086427 
0.094672 
0.086427 
0.088131 
0.092111 
0.085854 
0.092111 
0.088131 
0.088705 
0.091000 
0.086983 
0.091556 
0.086983 
0.091000 
0.088705 
0.089278 
0.091574 
0.089278 
0.092722 
0.089278 
0.092722 
0.089278 
0.091574 
0.089278 
0.078183 
0.086427 
0.094672 
0.086427 
0.088131 
0.092111 
0.085854 
0.092111 
0.088131 
0.088705 
0.091000 
0.086983 
0.091556 
0.086983 
0.091000 
0.088705 
0.089278 
0.091574 
0.089278 
0.092722 
0.089278 
0.092722 
0.089278 
0.091574 
0.089278 
0.078183 
0.086427 
0.094672 
0.086427 
0.088131 
0.092111 
0.085854 
0.092111 
0.088131 
0.088705 
0.091000 
0.086983 
0.091556 
0.086983 
0.091000 
0.088705 
0.089278 
0.091574 
0.089278 
0.092722 
0.089278 
0.092722 
0.089278 
0.091574 
0.089278 
0.078183 
0.086427 
0.094672 
0.086427 
0.088131 
0.092111 
0.085854 
0.092111 
0.088131 
0.088705 
0.091000 
0.086983 
0.091556 
0.086983 
0.091000 
0.088705 
0.089278 
0.091574 
0.089278 
0.092722 
0.089278 
0.092722 
0.089278 
0.091574 
0.089278 
0.078183 
0.086427 
0.094672 
0.086427 
0.088131 
0.092111 
0.085854 
0.092111 
0.088131 
0.088705 
0.091000 
0.086983 
0.091556 
0.086983 
0.091000 
0.088705 
0.089278 
0.091574 
0.089278 
0.092722 
0.089278 
0.092722 
0.089278 
0.091574 
0.089278 
SCALARS DENSITY float 
LOOKUP_TABLE default 
20.000000 
20.000000 
20.000000 
20.000000 
20.000000 
20.000000 
20.000000 
20.000000 
20.000000 
20.000000 
20.000000 
20.000000 
20.000000 
20.000000 
20.000000 
20.000000 
20.000000 
20.000000 
20.000000 
20.000000 
20.000000 
20.000000 
20.000000 
20.000000 
20.000000 
20.000000 
20.000000 
20.000000 
20.000000 
20.000000 
20.000000 
20.000000 
20.000000 
20.000000 
20.000000 
20.000000 
20.000000 
20.000000 
20.000000 
20.000000 
20.000000 
20.000000 
20.000000 
20.000000 
20.000000 
20.000000 
20.000000 
20.000000 
20.000000 
20.000000 
20.000000 
20.000000 
20.000000 
20.000000 
20.000000 
20.000000 
20.000000 
20.000000 
20.000000 
20.000000 
20.000000 
20.000000 
20.000000 
20.000000 
20.000000 
20.000000 
20.000000 
20.000000 
20.000000 
20.000000 
20.000000 
20.000000 
20.000000 
20.000000 
20.000000 
20.000000 
20.000000 
20.000000 
20.000000 
20.000000 
20.000000 
20.000000 
20.000000 
20.000000 
20.000000 
20.000000 
20.000000 
20.000000 
20.000000 
20.000000 
20.000000 
20.000000 
20.000000 
20.000000 
20.000000 
20.000000 
20.000000 
20.000000 
20.000000 
20.000000 
20.000000 
20.000000 
20.000000 
20.000000 
20.000000 
20.000000 
20.000000 
20.000000 
20.000000 
20.000000 
20.000000 
20.000000 
20.000000 
20.000000 
20.000000 
20.000000 
20.000000 
20.000000 
20.000000 
20.000000 
20.000000 
20.000000 
20.000000 
20.000000 
20.000000 
20.000000 
20.000000 
20.000000 
20.000000 
20.000000 
20.000000 
20.000000 
20.000000 
20.000000 
20.000000 
20.000000 
20.000000 
20.000000 
20.000000 
20.000000 
20.000000 
20.000000 
20.000000 
20.000000 
20.000000 
20.000000 
20.000000 
20.000000 
20.000000 
20.000000 
20.000000 
20.000000 
20.000000 
20.000000 
20.000000 
20.000000 
20.000000 
20.000000 
20.000000 
20.000000 
20.000000 
20.000000 
20.000000 
20.000000 
20.000000 
20.000000 
20.000000 
20.000000 
20.000000 
20.000000 
20.000000 
20.000000 
20.000000 
20.000000 
20.000000 
SCALARS ELEM_i float 
LOOKUP_TABLE default 
177 
204 
177 
177 
204 
204 
205 
178 
178 
232 
205 
205 
205 
206 
178 
179 
232 
232 
233 
206 
206 
206 
206 
179 
179 
176 
203 
203 
204 
230 
203 
231 
204 
204 
230 
230 
230 
231 
231 
231 
232 
257 
257 
257 
258 
258 
258 
259 
232 
232 
176 
202 
203 
203 
202 
202 
202 
203 
230 
201 
201 
228 
229 
229 
229 
230 
201 
228 
228 
228 
228 
229 
256 
256 
256 
176 
175 
175 
175 
148 
175 
174 
175 
202 
147 
147 
174 
174 
174 
201 
201 
146 
146 
146 
173 
173 
173 
200 
200 
200 
176 
149 
149 
148 
122 
149 
148 
148 
148 
122 
121 
121 
121 
120 
147 
147 
94 
94 
94 
121 
120 
120 
120 
120 
147 
176 
150 
149 
149 
150 
150 
123 
149 
122 
124 
123 
123 
123 
122 
122 
122 
124 
124 
97 
96 
96 
96 
95 
95 
95 
177 
177 
177 
150 
178 
178 
151 
150 
150 
179 
178 
152 
151 
151 
151 
124 
179 
179 
152 
152 
152 
152 
125 
124 
124 
VECTORS VELOCITY float 
-0.000000 -4.000910 0.000000 
-0.000000 -4.000910 0.000000 
-0.000000 -4.000910 0.000000 
-0.000000 -4.000910 0.000000 
0.000000 -4.000910 0.000000 
0.000000 -4.000910 0.000000 
-0.000000 -4.000910 0.000000 
-0.000000 -4.000910 0.000000 
-0.000000 -4.000910 0.000000 
0.000000 -4.000910 0.000000 
0.000000 -4.000910 0.000000 
-0.000000 -4.000910 0.000000 
-0.000000 -4.000910 0.000000 
-0.000000 -4.000910 0.000000 
-0.000000 -4.000910 0.000000 
0.000000 -4.000910 0.000000 
-0.000000 -4.000910 0.000000 
-0.000000 -4.000910 0.000000 
0.000000 -4.000910 0.000000 
-0.000000 -4.000910 0.000000 
0.000000 -4.000910 0.000000 
0.000000 -4.000910 0.000000 
0.000000 -4.000910 0.000000 
0.000000 -4.000910 0.000000 
-0.000000 -4.000910 0.000000 
0.000000 -4.000910 0.000000 
-0.000000 -4.000910 0.000000 
-0.000000 -4.000910 0.000000 
-0.000000 -4.000910 0.000000 
-0.000000 -4.000910 0.000000 
-0.000000 -4.000910 0.000000 
-0.000000 -4.000910 0.000000 
-0.000000 -4.000910 0.000000 
0.000000 -4.000910 0.000000 
-0.000000 -4.000910 0.000000 
-0.000000 -4.000910 0.000000 
-0.000000 -4.000910 0.000000 
-0.000000 -4.000910 0.000000 
-0.000000 -4.000910 0.000000 
-0.000000 -4.000910 0.000000 
0.000000 -4.000910 0.000000 
-0.000000 -4.000910 0.000000 
-0.000000 -4.000910 0.000000 
-0.000000 -4.000910 0.000000 
-0.000000 -4.000910 0.000000 
-0.000000 -4.000910 0.000000 
-0.000000 -4.000910 0.000000 
-0.000000 -4.000910 0.000000 
-0.000000 -4.000910 0.000000 
0.000000 -4.000910 0.000000 
0.000000 -4.000910 0.000000 
-0.000000 -4.000910 0.000000 
0.000000 -4.000910 0.000000 
-0.000000 -4.000910 0.000000 
0.000000 -4.000910 0.000000 
0.000000 -4.000910 0.000000 
0.000000 -4.000910 0.000000 
-0.000000 -4.000910 0.000000 
-0.000000 -4.000910 0.000000 
-0.000000 -4.000910 0.000000 
-0.000000 -4.000910 0.000000 
0.000000 -4.000910 0.000000 
0.000000 -4.000910 0.000000 
0.000000 -4.000910 0.000000 
0.000000 -4.000910 0.000000 
0.000000 -4.000910 0.000000 
0.000000 -4.000910 0.000000 
-0.000000 -4.000910 0.000000 
0.000000 -4.000910 0.000000 
-0.000000 -4.000910 0.000000 
-0.000000 -4.000910 0.000000 
0.000000 -4.000910 0.000000 
-0.000000 -4.000910 0.000000 
-0.000000 -4.000910 0.000000 
-0.000000 -4.000910 0.000000 
0.000000 -4.000910 0.000000 
-0.000000 -4.000910 0.000000 
-0.000000 -4.000910 0.000000 
-0.000000 -4.000910 0.000000 
0.000000 -4.000910 0.000000 
0.000000 -4.000910 0.000000 
0.000000 -4.000910 0.000000 
-0.000000 -4.000910 0.000000 
0.000000 -4.000910 0.000000 
-0.000000 -4.000910 0.000000 
-0.000000 -4.000910 0.000000 
-0.000000 -4.000910 0.000000 
-0.000000 -4.000910 0.000000 
0.000000 -4.000910 0.000000 
0.000000 -4.000910 0.000000 
-0.000000 -4.000910 0.000000 
0.000000 -4.000910 0.000000 
0.000000 -4.000910 0.000000 
0.000000 -4.000910 0.000000 
-0.000000 -4.000910 0.000000 
0.000000 -4.000910 0.000000 
-0.000000 -4.000910 0.000000 
-0.000000 -4.000910 0.000000 
-0.000000 -4.000910 0.000000 
-0.000000 -4.000910 0.000000 
-0.000000 -4.000910 0.000000 
-0.000000 -4.000910 0.000000 
-0.000000 -4.000910 0.000000 
-0.000000 -4.000910 0.000000 
-0.000000 -4.000910 0.000000 
-0.000000 -4.000910 0.000000 
-0.000000 -4.000910 0.000000 
-0.000000 -4.000910 0.000000 
0.000000 -4.000910 0.000000 
0.000000 -4.000910 0.000000 
0.000000 -4.000910 0.000000 
-0.000000 -4.000910 0.000000 
-0.000000 -4.000910 0.000000 
-0.000000 -4.000910 0.000000 
-0.000000 -4.000910 0.000000 
-0.000000 -4.000910 0.000000 
-0.000000 -4.000910 0.000000 
0.000000 -4.000910 0.000000 
-0.000000 -4.000910 0.000000 
-0.000000 -4.000910 0.000000 
0.000000 -4.000910 0.000000 
0.000000 -4.000910 0.000000 
0.000000 -4.000910 0.000000 
0.000000 -4.000910 0.000000 
0.000000 -4.000910 0.000000 
-0.000000 -4.000910 0.000000 
-0.000000 -4.000910 0.000000 
-0.000000 -4.000910 0.000000 
-0.000000 -4.000910 0.000000 
0.000000 -4.000910 0.000000 
0.000000 -4.000910 0.000000 
0.000000 -4.000910 0.000000 
-0.000000 -4.000910 0.000000 
-0.000000 -4.000910 0.000000 
0.000000 -4.000910 0.000000 
-0.000000 -4.000910 0.000000 
-0.000000 -4.000910 0.000000 
-0.000000 -4.000910 0.000000 
-0.000000 -4.000910 0.000000 
-0.000000 -4.000910 0.000000 
0.000000 -4.000910 0.000000 
0.000000 -4.000910 0.000000 
0.000000 -4.000910 0.000000 
0.000000 -4.000910 0.000000 
-0.000000 -4.000910 0.000000 
0.000000 -4.000910 0.000000 
-0.000000 -4.000910 0.000000 
0.000000 -4.000910 0.000000 
0.000000 -4.000910 0.000000 
0.000000 -4.000910 0.000000 
-0.000000 -4.000910 0.000000 
-0.000000 -4.000910 0.000000 
-0.000000 -4.000910 0.000000 
-0.000000 -4.000910 0.000000 
0.000000 -4.000910 0.000000 
0.000000 -4.000910 0.000000 
0.000000 -4.000910 0.000000 
0.000000 -4.000910 0.000000 
0.000000 -4.000910 0.000000 
0.000000 -4.000910 0.000000 
0.000000 -4.000910 0.000000 
0.000000 -4.000910 0.000000 
0.000000 -4.000910 0.000000 
0.000000 -4.000910 0.000000 
0.000000 -4.000910 0.000000 
0.000000 -4.000910 0.000000 
-0.000000 -4.000910 0.000000 
0.000000 -4.000910 0.000000 
0.000000 -4.000910 0.000000 
0.000000 -4.000910 0.000000 
0.000000 -4.000910 0.000000 
-0.000000 -4.000910 0.000000 
0.000000 -4.000910 0.000000 
0.000000 -4.000910 0.000000 
0.000000 -4.000910 0.000000 
TENSORS STRESS float 
0.000000 -0.000000 0.000000 
0.000000 -0.000000 0.000000 
0.000000 0.000000 0.000000 

-0.000000 0.000000 0.000000 
0.000000 -0.000000 0.000000 
0.000000 0.000000 0.000000 

0.000000 -0.000000 0.000000 
0.000000 -0.000000 0.000000 
0.000000 0.000000 0.000000 

-0.000000 0.000000 0.000000 
0.000000 -0.000000 0.000000 
0.000000 0.000000 0.000000 

-0.000000 -0.000000 0.000000 
0.000000 0.000000 0.000000 
0.000000 0.000000 0.000000 

0.000000 -0.000000 0.000000 
0.000000 0.000000 0.000000 
0.000000 0.000000 0.000000 

-0.000000 -0.000000 0.000000 
0.000000 -0.000000 0.000000 
0.000000 0.000000 0.000000 

0.000000 -0.000000 0.000000 
0.000000 0.000000 0.000000 
0.000000 0.000000 0.000000 

-0.000000 0.000000 0.000000 
0.000000 -0.000000 0.000000 
0.000000 0.000000 0.000000 

-0.000000 0.000000 0.000000 
0.000000 0.000000 0.000000 
0.000000 0.000000 0.000000 

-0.000000 -0.000000 0.000000 
0.000000 0.000000 0.000000 
0.000000 0.000000 0.000000 

-0.000000 0.000000 0.000000 
0.000000 -0.000000 0.000000 
0.000000 0.000000 0.000000 

-0.000000 -0.000000 0.000000 
0.000000 0.000000 0.000000 
0.000000 0.000000 0.000000 

-0.000000 -0.000000 0.000000 
0.000000 -0.000000 0.000000 
0.000000 0.000000 0.000000 

0.000000 -0.000000 0.000000 
0.000000 -0.000000 0.000000 
0.000000 0.000000 0.000000 

0.000000 0.000000 0.000000 
0.000000 0.000000 0.000000 
0.000000 0.000000 0.000000 

-0.000000 -0.000000 0.000000 
0.000000 0.000000 0.000000 
0.000000 0.000000 0.000000 

-0.000000 -0.000000 0.000000 
0.000000 -0.000000 0.000000 
0.000000 0.000000 0.000000 

-0.000000 -0.000000 0.000000 
0.000000 0.000000 0.000000 
0.000000 0.000000 0.000000 

-0.000000 -0.000000 0.000000 
0.000000 -0.000000 0.000000 
0.000000 0.000000 0.000000 

0.000000 -0.000000 0.000000 
0.000000 0.000000 0.000000 
0.000000 0.000000 0.000000 

0.000000 -0.000000 0.000000 
0.000000 0.000000 0.000000 
0.000000 0.000000 0.000000 

-0.000000 -0.000000 0.000000 
0.000000 -0.000000 0.000000 
0.000000 0.000000 0.000000 

-0.000000 -0.000000 0.000000 
0.000000 -0.000000 0.000000 
0.000000 0.000000 0.000000 

-0.000000 -0.000000 0.000000 
0.000000 0.000000 0.000000 
0.000000 0.000000 0.000000 

-0.000000 0.000000 0.000000 
0.000000 0.000000 0.000000 
0.000000 0.000000 0.000000 

0.000000 0.000000 0.000000 
0.000000 0.000000 0.000000 
0.000000 0.000000 0.000000 

0.000000 -0.000000 0.000000 
0.000000 0.000000 0.000000 
0.000000 0.000000 0.000000 

-0.000000 -0.000000 0.000000 
0.000000 -0.000000 0.000000 
0.000000 0.000000 0.000000 

-0.000000 0.000000 0.000000 
0.000000 -0.000000 0.000000 
0.000000 0.000000 0.000000 

0.000000 -0.000000 0.000000 
0.000000 -0.000000 0.000000 
0.000000 0.000000 0.000000 

-0.000000 -0.000000 0.000000 
0.000000 -0.000000 0.000000 
0.000000 0.000000 0.000000 

0.000000 -0.000000 0.000000 
0.000000 0.000000 0.000000 
0.000000 0.000000 0.000000 

-0.000000 -0.000000 0.000000 
0.000000 -0.000000 0.000000 
0.000000 0.000000 0.000000 

-0.000000 0.000000 0.000000 
0.000000 -0.000000 0.000000 
0.000000 0.000000 0.000000 

-0.000000 0.000000 0.000000 
0.000000 0.000000 0.000000 
0.000000 0.000000 0.000000 

0.000000 -0.000000 0.000000 
0.000000 0.000000 0.000000 
0.000000 0.000000 0.000000 

0.000000 0.000000 0.000000 
0.000000 0.000000 0.000000 
0.000000 0.000000 0.000000 

0.000000 -0.000000 0.000000 
0.000000 0.000000 0.000000 
0.000000 0.000000 0.000000 

-0.000000 -0.000000 0.000000 
0.000000 0.000000 0.000000 
0.000000 0.000000 0.000000 

-0.000000 -0.000000 0.000000 
0.000000 -0.000000 0.000000 
0.000000 0.000000 0.000000 

0.000000 0.000000 0.000000 
0.000000 0.000000 0.000000 
0.000000 0.000000 0.000000 

0.000000 0.000000 0.000000 
0.000000 0.000000 0.000000 
0.000000 0.000000 0.000000 

0.000000 -0.000000 0.000000 
0.000000 0.000000 0.000000 
0.000000 0.000000 0.000000 

0.000000 0.000000 0.000000 
0.000000 0.000000 0.000000 
0.000000 0.000000 0.000000 

0.000000 -0.000000 0.000000 
0.000000 0.000000 0.000000 
0.000000 0.000000 0.000000 

0.000000 -0.000000 0.000000 
0.000000 -0.000000 0.000000 
0.000000 0.000000 0.000000 

0.000000 -0.000000 0.000000 
0.000000 -0.000000 0.000000 
0.000000 0.000000 0.000000 

-0.000000 -0.000000 0.000000 
0.000000 -0.000000 0.000000 
0.000000 0.000000 0.000000 

-0.000000 0.000000 0.000000 
0.000000 -0.000000 0.000000 
0.000000 0.000000 0.000000 

-0.000000 -0.000000 0.000000 
0.000000 0.000000 0.000000 
0.000000 0.000000 0.000000 

-0.000000 -0.000000 0.000000 
0.000000 -0.000000 0.000000 
0.000000 0.000000 0.000000 

-0.000000 0.000000 0.000000 
0.000000 -0.000000 0.000000 
0.000000 0.000000 0.000000 

0.000000 0.000000 0.000000 
0.000000 -0.000000 0.000000 
0.000000 0.000000 0.000000 

-0.000000 0.000000 0.000000 
0.000000 -0.000000 0.000000 
0.000000 0.000000 0.000000 

-0.000000 0.000000 0.000000 
0.000000 -0.000000 0.000000 
0.000000 0.000000 0.000000 

0.000000 0.000000 0.000000 
0.000000 0.000000 0.000000 
0.000000 0.000000 0.000000 

0.000000 0.000000 0.000000 
0.000000 -0.000000 0.000000 
0.000000 0.000000 0.000000 

0.000000 -0.000000 0.000000 
0.000000 0.000000 0.000000 
0.000000 0.000000 0.000000 

0.000000 0.000000 0.000000 
0.000000 0.000000 0.000000 
0.000000 0.000000 0.000000 

0.000000 0.000000 0.000000 
0.000000 0.000000 0.000000 
0.000000 0.000000 0.000000 

0.000000 0.000000 0.000000 
0.000000 0.000000 0.000000 
0.000000 0.000000 0.000000 

0.000000 0.000000 0.000000 
0.000000 -0.000000 0.000000 
0.000000 0.000000 0.000000 

0.000000 0.000000 0.000000 
0.000000 0.000000 0.000000 
0.000000 0.000000 0.000000 

0.000000 0.000000 0.000000 
0.000000 -0.000000 0.000000 
0.000000 0.000000 0.000000 

-0.000000 0.000000 0.000000 
0.000000 -0.000000 0.000000 
0.000000 0.000000 0.000000 

-0.000000 0.000000 0.000000 
0.000000 -0.000000 0.000000 
0.000000 0.000000 0.000000 

0.000000 -0.000000 0.000000 
0.000000 0.000000 0.000000 
0.000000 0.000000 0.000000 

-0.000000 0.000000 0.000000 
0.000000 -0.000000 0.000000 
0.000000 0.000000 0.000000 

0.000000 -0.000000 0.000000 
0.000000 0.000000 0.000000 
0.000000 0.000000 0.000000 

0.000000 -0.000000 0.000000 
0.000000 0.000000 0.000000 
0.000000 0.000000 0.000000 

0.000000 0.000000 0.000000 
0.000000 0.000000 0.000000 
0.000000 0.000000 0.000000 

0.000000 0.000000 0.000000 
0.000000 0.000000 0.000000 
0.000000 0.000000 0.000000 

-0.000000 0.000000 0.000000 
0.000000 -0.000000 0.000000 
0.000000 0.000000 0.000000 

0.000000 0.000000 0.000000 
0.000000 0.000000 0.000000 
0.000000 0.000000 0.000000 

-0.000000 0.000000 0.000000 
0.000000 -0.000000 0.000000 
0.000000 0.000000 0.000000 

-0.000000 -0.000000 0.000000 
0.000000 -0.000000 0.000000 
0.000000 0.000000 0.000000 

0.000000 -0.000000 0.000000 
0.000000 -0.000000 0.000000 
0.000000 0.000000 0.000000 

0.000000 -0.000000 0.000000 
0.000000 0.000000 0.000000 
0.000000 0.000000 0.000000 

-0.000000 0.000000 0.000000 
0.000000 -0.000000 0.000000 
0.000000 0.000000 0.000000 

0.000000 0.000000 0.000000 
0.000000 0.000000 0.000000 
0.000000 0.000000 0.000000 

-0.000000 0.000000 0.000000 
0.000000 -0.000000 0.000000 
0.000000 0.000000 0.000000 

0.000000 0.000000 0.000000 
0.000000 -0.000000 0.000000 
0.000000 0.000000 0.000000 

-0.000000 -0.000000 0.000000 
0.000000 -0.000000 0.000000 
0.000000 0.000000 0.000000 

-0.000000 0.000000 0.000000 
0.000000 -0.000000 0.000000 
0.000000 0.000000 0.000000 

0.000000 0.000000 0.000000 
0.000000 -0.000000 0.000000 
0.000000 0.000000 0.000000 

-0.000000 -0.000000 0.000000 
0.000000 0.000000 0.000000 
0.000000 0.000000 0.000000 

-0.000000 -0.000000 0.000000 
0.000000 -0.000000 0.000000 
0.000000 0.000000 0.000000 

-0.000000 0.000000 0.000000 
0.000000 -0.000000 0.000000 
0.000000 0.000000 0.000000 

-0.000000 0.000000 0.000000 
0.000000 -0.000000 0.000000 
0.000000 0.000000 0.000000 

0.000000 0.000000 0.000000 
0.000000 0.000000 0.000000 
0.000000 0.000000 0.000000 

-0.000000 -0.000000 0.000000 
0.000000 -0.000000 0.000000 
0.000000 0.000000 0.000000 

-0.000000 0.000000 0.000000 
0.000000 -0.000000 0.000000 
0.000000 0.000000 0.000000 

-0.000000 0.000000 0.000000 
0.000000 0.000000 0.000000 
0.000000 0.000000 0.000000 

-0.000000 -0.000000 0.000000 
0.000000 -0.000000 0.000000 
0.000000 0.000000 0.000000 

0.000000 -0.000000 0.000000 
0.000000 0.000000 0.000000 
0.000000 0.000000 0.000000 

-0.000000 -0.000000 0.000000 
0.000000 -0.000000 0.000000 
0.000000 0.000000 0.000000 

-0.000000 0.000000 0.000000 
0.000000 0.000000 0.000000 
0.000000 0.000000 0.000000 

-0.000000 -0.000000 0.000000 
0.000000 -0.000000 0.000000 
0.000000 0.000000 0.000000 

0.000000 -0.000000 0.000000 
0.000000 0.000000 0.000000 
0.000000 0.000000 0.000000 

-0.000000 -0.000000 0.000000 
0.000000 -0.000000 0.000000 
0.000000 0.000000 0.000000 

0.000000 0.000000 0.000000 
0.000000 0.000000 0.000000 
0.000000 0.000000 0.000000 

-0.000000 0.000000 0.000000 
0.000000 -0.000000 0.000000 
0.000000 0.000000 0.000000 

0.000000 -0.000000 0.000000 
0.000000 0.000000 0.000000 
0.000000 0.000000 0.000000 

-0.000000 -0.000000 0.000000 
0.000000 -0.000000 0.000000 
0.000000 0.000000 0.000000 

0.000000 0.000000 0.000000 
0.000000 0.000000 0.000000 
0.000000 0.000000 0.000000 

-0.000000 0.000000 0.000000 
0.000000 -0.000000 0.000000 
0.000000 0.000000 0.000000 

-0.000000 0.000000 0.000000 
0.000000 -0.000000 0.000000 
0.000000 0.000000 0.000000 

0.000000 0.000000 0.000000 
0.000000 0.000000 0.000000 
0.000000 0.000000 0.000000 

-0.000000 0.000000 0.000000 
0.000000 -0.000000 0.000000 
0.000000 0.000000 0.000000 

-0.000000 -0.000000 0.000000 
0.000000 -0.000000 0.000000 
0.000000 0.000000 0.000000 

-0.000000 -0.000000 0.000000 
0.000000 0.000000 0.000000 
0.000000 0.000000 0.000000 

-0.000000 -0.000000 0.000000 
0.000000 -0.000000 0.000000 
0.000000 0.000000 0.000000 

0.000000 -0.000000 0.000000 
0.000000 -0.000000 0.000000 
0.000000 0.000000 0.000000 

0.000000 0.000000 0.000000 
0.000000 0.000000 0.000000 
0.000000 0.000000 0.000000 

0.000000 -0.000000 0.000000 
0.000000 -0.000000 0.000000 
0.000000 0.000000 0.000000 

-0.000000 -0.000000 0.000000 
0.000000 -0.000000 0.000000 
0.000000 0.000000 0.000000 

0.000000 0.000000 0.000000 
0.000000 0.000000 0.000000 
0.000000 0.000000 0.000000 

-0.000000 -0.000000 0.000000 
0.000000 -0.000000 0.000000 
0.000000 0.000000 0.000000 

-0.000000 -0.000000 0.000000 
0.000000 -0.000000 0.000000 
0.000000 0.000000 0.000000 

-0.000000 0.000000 0.000000 
0.000000 -0.000000 0.000000 
0.000000 0.000000 0.000000 

0.000000 -0.000000 0.000000 
0.000000 0.000000 0.000000 
0.000000 0.000000 0.000000 

-0.000000 -0.000000 0.000000 
0.000000 -0.000000 0.000000 
0.000000 0.000000 0.000000 

-0.000000 -0.000000 0.000000 
0.000000 -0.000000 0.000000 
0.000000 0.000000 0.000000 

-0.000000 -0.000000 0.000000 
0.000000 -0.000000 0.000000 
0.000000 0.000000 0.000000 

-0.000000 0.000000 0.000000 
0.000000 -0.000000 0.000000 
0.000000 0.000000 0.000000 

-0.000000 -0.000000 0.000000 
0.000000 -0.000000 0.000000 
0.000000 0.000000 0.000000 

0.000000 -0.000000 0.000000 
0.000000 0.000000 0.000000 
0.000000 0.000000 0.000000 

0.000000 0.000000 0.000000 
0.000000 0.000000 0.000000 
0.000000 0.000000 0.000000 

-0.000000 0.000000 0.000000 
0.000000 -0.000000 0.000000 
0.000000 0.000000 0.000000 

0.000000 -0.000000 0.000000 
0.000000 0.000000 0.000000 
0.000000 0.000000 0.000000 

-0.000000 -0.000000 0.000000 
0.000000 -0.000000 0.000000 
0.000000 0.000000 0.000000 

-0.000000 -0.000000 0.000000 
0.000000 0.000000 0.000000 
0.000000 0.000000 0.000000 

0.000000 0.000000 0.000000 
0.000000 -0.000000 0.000000 
0.000000 0.000000 0.000000 

0.000000 0.000000 0.000000 
0.000000 0.000000 0.000000 
0.000000 0.000000 0.000000 

-0.000000 0.000000 0.000000 
0.000000 -0.000000 0.000000 
0.000000 0.000000 0.000000 

-0.000000 -0.000000 0.000000 
0.000000 -0.000000 0.000000 
0.000000 0.000000 0.000000 

0.000000 0.000000 0.000000 
0.000000 0.000000 0.000000 
0.000000 0.000000 0.000000 

-0.000000 -0.000000 0.000000 
0.000000 -0.000000 0.000000 
0.000000 0.000000 0.000000 

-0.000000 -0.000000 0.000000 
0.000000 -0.000000 0.000000 
0.000000 0.000000 0.000000 

0.000000 -0.000000 0.000000 
0.000000 0.000000 0.000000 
0.000000 0.000000 0.000000 

-0.000000 0.000000 0.000000 
0.000000 -0.000000 0.000000 
0.000000 0.000000 0.000000 

0.000000 0.000000 0.000000 
0.000000 0.000000 0.000000 
0.000000 0.000000 0.000000 

-0.000000 -0.000000 0.000000 
0.000000 -0.000000 0.000000 
0.000000 0.000000 0.000000 

0.000000 -0.000000 0.000000 
0.000000 0.000000 0.000000 
0.000000 0.000000 0.000000 

-0.000000 0.000000 0.000000 
0.000000 -0.000000 0.000000 
0.000000 0.000000 0.000000 

-0.000000 -0.000000 0.000000 
0.000000 -0.000000 0.000000 
0.000000 0.000000 0.000000 

0.000000 0.000000 0.000000 
0.000000 0.000000 0.000000 
0.000000 0.000000 0.000000 

0.000000 -0.000000 0.000000 
0.000000 0.000000 0.000000 
0.000000 0.000000 0.000000 

-0.000000 -0.000000 0.000000 
0.000000 0.000000 0.000000 
0.000000 0.000000 0.000000 

0.000000 0.000000 0.000000 
0.000000 0.000000 0.000000 
0.000000 0.000000 0.000000 

0.000000 0.000000 0.000000 
0.000000 0.000000 0.000000 
0.000000 0.000000 0.000000 

0.000000 0.000000 0.000000 
0.000000 0.000000 0.000000 
0.000000 0.000000 0.000000 

-0.000000 -0.000000 0.000000 
0.000000 -0.000000 0.000000 
0.000000 0.000000 0.000000 

0.000000 -0.000000 0.000000 
0.000000 0.000000 0.000000 
0.000000 0.000000 0.000000 

-0.000000 0.000000 0.000000 
0.000000 -0.000000 0.000000 
0.000000 0.000000 0.000000 

-0.000000 0.000000 0.000000 
0.000000 -0.000000 0.000000 
0.000000 0.000000 0.000000 

0.000000 -0.000000 0.000000 
0.000000 0.000000 0.000000 
0.000000 0.000000 0.000000 

0.000000 0.000000 0.000000 
0.000000 0.000000 0.000000 
0.000000 0.000000 0.000000 

0.000000 0.000000 0.000000 
0.000000 -0.000000 0.000000 
0.000000 0.000000 0.000000 

0.000000 -0.000000 0.000000 
0.000000 0.000000 0.000000 
0.000000 0.000000 0.000000 

0.000000 -0.000000 0.000000 
0.000000 0.000000 0.000000 
0.000000 0.000000 0.000000 

0.000000 -0.000000 0.000000 
0.000000 -0.000000 0.000000 
0.000000 0.000000 0.000000 

0.000000 0.000000 0.000000 
0.000000 0.000000 0.000000 
0.000000 0.000000 0.000000 

0.000000 -0.000000 0.000000 
0.000000 0.000000 0.000000 
0.000000 0.000000 0.000000 

0.000000 -0.000000 0.000000 
0.000000 0.000000 0.000000 
0.000000 0.000000 0.000000 

0.000000 -0.000000 0.000000 
0.000000 0.000000 0.000000 
0.000000 0.000000 0.000000 

0.000000 -0.000000 0.000000 
0.000000 0.000000 0.000000 
0.000000 0.000000 0.000000 

-0.000000 0.000000 0.000000 
0.000000 -0.000000 0.000000 
0.000000 0.000000 0.000000 

-0.000000 0.000000 0.000000 
0.000000 -0.000000 0.000000 
0.000000 0.000000 0.000000 

-0.000000 -0.000000 0.000000 
0.000000 -0.000000 0.000000 
0.000000 0.000000 0.000000 

-0.000000 -0.000000 0.000000 
0.000000 0.000000 0.000000 
0.000000 0.000000 0.000000 

0.000000 -0.000000 0.000000 
0.000000 0.000000 0.000000 
0.000000 0.000000 0.000000 

0.000000 -0.000000 0.000000 
0.000000 0.000000 0.000000 
0.000000 0.000000 0.000000 

0.000000 0.000000 0.000000 
0.000000 -0.000000 0.000000 
0.000000 0.000000 0.000000 

TENSORS STRAIN float 
0.000000 -0.000000 0.000000 
0.000000 -0.000000 0.000000 
0.000000 0.000000 0.000000 

-0.000000 0.000000 0.000000 
0.000000 0.000000 0.000000 
0.000000 0.000000 0.000000 

0.000000 -0.000000 0.000000 
0.000000 -0.000000 0.000000 
0.000000 0.000000 0.000000 

0.000000 0.000000 0.000000 
0.000000 -0.000000 0.000000 
0.000000 0.000000 0.000000 

-0.000000 -0.000000 0.000000 
0.000000 0.000000 0.000000 
0.000000 0.000000 0.000000 

-0.000000 -0.000000 0.000000 
0.000000 0.000000 0.000000 
0.000000 0.000000 0.000000 

-0.000000 -0.000000 0.000000 
0.000000 -0.000000 0.000000 
0.000000 0.000000 0.000000 

0.000000 -0.000000 0.000000 
0.000000 0.000000 0.000000 
0.000000 0.000000 0.000000 

0.000000 0.000000 0.000000 
0.000000 -0.000000 0.000000 
0.000000 0.000000 0.000000 

-0.000000 0.000000 0.000000 
0.000000 0.000000 0.000000 
0.000000 0.000000 0.000000 

-0.000000 -0.000000 0.000000 
0.000000 0.000000 0.000000 
0.000000 0.000000 0.000000 

-0.000000 0.000000 0.000000 
0.000000 -0.000000 0.000000 
0.000000 0.000000 0.000000 

-0.000000 -0.000000 0.000000 
0.000000 0.000000 0.000000 
0.000000 0.000000 0.000000 

-0.000000 -0.000000 0.000000 
0.000000 0.000000 0.000000 
0.000000 0.000000 0.000000 

0.000000 -0.000000 0.000000 
0.000000 -0.000000 0.000000 
0.000000 0.000000 0.000000 

0.000000 0.000000 0.000000 
0.000000 0.000000 0.000000 
0.000000 0.000000 0.000000 

-0.000000 -0.000000 0.000000 
0.000000 0.000000 0.000000 
0.000000 0.000000 0.000000 

-0.000000 -0.000000 0.000000 
0.000000 -0.000000 0.000000 
0.000000 0.000000 0.000000 

-0.000000 -0.000000 0.000000 
0.000000 0.000000 0.000000 
0.000000 0.000000 0.000000 

-0.000000 -0.000000 0.000000 
0.000000 -0.000000 0.000000 
0.000000 0.000000 0.000000 

-0.000000 -0.000000 0.000000 
0.000000 0.000000 0.000000 
0.000000 0.000000 0.000000 

-0.000000 -0.000000 0.000000 
0.000000 0.000000 0.000000 
0.000000 0.000000 0.000000 

0.000000 -0.000000 0.000000 
0.000000 -0.000000 0.000000 
0.000000 0.000000 0.000000 

-0.000000 -0.000000 0.000000 
0.000000 -0.000000 0.000000 
0.000000 0.000000 0.000000 

-0.000000 -0.000000 0.000000 
0.000000 0.000000 0.000000 
0.000000 0.000000 0.000000 

-0.000000 0.000000 0.000000 
0.000000 0.000000 0.000000 
0.000000 0.000000 0.000000 

0.000000 0.000000 0.000000 
0.000000 0.000000 0.000000 
0.000000 0.000000 0.000000 

0.000000 -0.000000 0.000000 
0.000000 0.000000 0.000000 
0.000000 0.000000 0.000000 

0.000000 -0.000000 0.000000 
0.000000 -0.000000 0.000000 
0.000000 0.000000 0.000000 

-0.000000 0.000000 0.000000 
0.000000 -0.000000 0.000000 
0.000000 0.000000 0.000000 

0.000000 -0.000000 0.000000 
0.000000 -0.000000 0.000000 
0.000000 0.000000 0.000000 

-0.000000 -0.000000 0.000000 
0.000000 -0.000000 0.000000 
0.000000 0.000000 0.000000 

-0.000000 -0.000000 0.000000 
0.000000 0.000000 0.000000 
0.000000 0.000000 0.000000 

-0.000000 -0.000000 0.000000 
0.000000 0.000000 0.000000 
0.000000 0.000000 0.000000 

-0.000000 0.000000 0.000000 
0.000000 -0.000000 0.000000 
0.000000 0.000000 0.000000 

-0.000000 0.000000 0.000000 
0.000000 0.000000 0.000000 
0.000000 0.000000 0.000000 

-0.000000 -0.000000 0.000000 
0.000000 0.000000 0.000000 
0.000000 0.000000 0.000000 

-0.000000 0.000000 0.000000 
0.000000 0.000000 0.000000 
0.000000 0.000000 0.000000 

-0.000000 -0.000000 0.000000 
0.000000 0.000000 0.000000 
0.000000 0.000000 0.000000 

-0.000000 -0.000000 0.000000 
0.000000 0.000000 0.000000 
0.000000 0.000000 0.000000 

-0.000000 -0.000000 0.000000 
0.000000 0.000000 0.000000 
0.000000 0.000000 0.000000 

0.000000 0.000000 0.000000 
0.000000 0.000000 0.000000 
0.000000 0.000000 0.000000 

0.000000 0.000000 0.000000 
0.000000 0.000000 0.000000 
0.000000 0.000000 0.000000 

0.000000 -0.000000 0.000000 
0.000000 0.000000 0.000000 
0.000000 0.000000 0.000000 

0.000000 0.000000 0.000000 
0.000000 0.000000 0.000000 
0.000000 0.000000 0.000000 

0.000000 -0.000000 0.000000 
0.000000 0.000000 0.000000 
0.000000 0.000000 0.000000 

0.000000 -0.000000 0.000000 
0.000000 -0.000000 0.000000 
0.000000 0.000000 0.000000 

0.000000 -0.000000 0.000000 
0.000000 -0.000000 0.000000 
0.000000 0.000000 0.000000 

-0.000000 -0.000000 0.000000 
0.000000 -0.000000 0.000000 
0.000000 0.000000 0.000000 

-0.000000 0.000000 0.000000 
0.000000 -0.000000 0.000000 
0.000000 0.000000 0.000000 

-0.000000 -0.000000 0.000000 
0.000000 0.000000 0.000000 
0.000000 0.000000 0.000000 

-0.000000 -0.000000 0.000000 
0.000000 -0.000000 0.000000 
0.000000 0.000000 0.000000 

0.000000 0.000000 0.000000 
0.000000 -0.000000 0.000000 
0.000000 0.000000 0.000000 

0.000000 0.000000 0.000000 
0.000000 -0.000000 0.000000 
0.000000 0.000000 0.000000 

0.000000 0.000000 0.000000 
0.000000 -0.000000 0.000000 
0.000000 0.000000 0.000000 

0.000000 0.000000 0.000000 
0.000000 -0.000000 0.000000 
0.000000 0.000000 0.000000 

0.000000 0.000000 0.000000 
0.000000 0.000000 0.000000 
0.000000 0.000000 0.000000 

0.000000 0.000000 0.000000 
0.000000 -0.000000 0.000000 
0.000000 0.000000 0.000000 

0.000000 -0.000000 0.000000 
0.000000 0.000000 0.000000 
0.000000 0.000000 0.000000 

0.000000 0.000000 0.000000 
0.000000 0.000000 0.000000 
0.000000 0.000000 0.000000 

0.000000 0.000000 0.000000 
0.000000 0.000000 0.000000 
0.000000 0.000000 0.000000 

0.000000 0.000000 0.000000 
0.000000 0.000000 0.000000 
0.000000 0.000000 0.000000 

0.000000 0.000000 0.000000 
0.000000 -0.000000 0.000000 
0.000000 0.000000 0.000000 

0.000000 0.000000 0.000000 
0.000000 -0.000000 0.000000 
0.000000 0.000000 0.000000 

0.000000 0.000000 0.000000 
0.000000 -0.000000 0.000000 
0.000000 0.000000 0.000000 

0.000000 0.000000 0.000000 
0.000000 -0.000000 0.000000 
0.000000 0.000000 0.000000 

-0.000000 0.000000 0.000000 
0.000000 -0.000000 0.000000 
0.000000 0.000000 0.000000 

0.000000 -0.000000 0.000000 
0.000000 0.000000 0.000000 
0.000000 0.000000 0.000000 

-0.000000 0.000000 0.000000 
0.000000 -0.000000 0.000000 
0.000000 0.000000 0.000000 

0.000000 -0.000000 0.000000 
0.000000 0.000000 0.000000 
0.000000 0.000000 0.000000 

0.000000 -0.000000 0.000000 
0.000000 0.000000 0.000000 
0.000000 0.000000 0.000000 

0.000000 0.000000 0.000000 
0.000000 0.000000 0.000000 
0.000000 0.000000 0.000000 

-0.000000 0.000000 0.000000 
0.000000 0.000000 0.000000 
0.000000 0.000000 0.000000 

-0.000000 0.000000 0.000000 
0.000000 -0.000000 0.000000 
0.000000 0.000000 0.000000 

-0.000000 0.000000 0.000000 
0.000000 0.000000 0.000000 
0.000000 0.000000 0.000000 

0.000000 0.000000 0.000000 
0.000000 -0.000000 0.000000 
0.000000 0.000000 0.000000 

0.000000 -0.000000 0.000000 
0.000000 -0.000000 0.000000 
0.000000 0.000000 0.000000 

0.000000 -0.000000 0.000000 
0.000000 -0.000000 0.000000 
0.000000 0.000000 0.000000 

0.000000 -0.000000 0.000000 
0.000000 -0.000000 0.000000 
0.000000 0.000000 0.000000 

-0.000000 0.000000 0.000000 
0.000000 -0.000000 0.000000 
0.000000 0.000000 0.000000 

0.000000 0.000000 0.000000 
0.000000 -0.000000 0.000000 
0.000000 0.000000 0.000000 

-0.000000 0.000000 0.000000 
0.000000 -0.000000 0.000000 
0.000000 0.000000 0.000000 

0.000000 0.000000 0.000000 
0.000000 -0.000000 0.000000 
0.000000 0.000000 0.000000 

0.000000 -0.000000 0.000000 
0.000000 -0.000000 0.000000 
0.000000 0.000000 0.000000 

-0.000000 0.000000 0.000000 
0.000000 -0.000000 0.000000 
0.000000 0.000000 0.000000 

0.000000 0.000000 0.000000 
0.000000 -0.000000 0.000000 
0.000000 0.000000 0.000000 

-0.000000 -0.000000 0.000000 
0.000000 0.000000 0.000000 
0.000000 0.000000 0.000000 

-0.000000 -0.000000 0.000000 
0.000000 -0.000000 0.000000 
0.000000 0.000000 0.000000 

-0.000000 0.000000 0.000000 
0.000000 -0.000000 0.000000 
0.000000 0.000000 0.000000 

0.000000 0.000000 0.000000 
0.000000 -0.000000 0.000000 
0.000000 0.000000 0.000000 

0.000000 0.000000 0.000000 
0.000000 0.000000 0.000000 
0.000000 0.000000 0.000000 

-0.000000 -0.000000 0.000000 
0.000000 -0.000000 0.000000 
0.000000 0.000000 0.000000 

-0.000000 0.000000 0.000000 
0.000000 -0.000000 0.000000 
0.000000 0.000000 0.000000 

-0.000000 0.000000 0.000000 
0.000000 0.000000 0.000000 
0.000000 0.000000 0.000000 

-0.000000 -0.000000 0.000000 
0.000000 0.000000 0.000000 
0.000000 0.000000 0.000000 

-0.000000 -0.000000 0.000000 
0.000000 0.000000 0.000000 
0.000000 0.000000 0.000000 

-0.000000 -0.000000 0.000000 
0.000000 -0.000000 0.000000 
0.000000 0.000000 0.000000 

-0.000000 0.000000 0.000000 
0.000000 0.000000 0.000000 
0.000000 0.000000 0.000000 

-0.000000 -0.000000 0.000000 
0.000000 -0.000000 0.000000 
0.000000 0.000000 0.000000 

-0.000000 -0.000000 0.000000 
0.000000 0.000000 0.000000 
0.000000 0.000000 0.000000 

-0.000000 -0.000000 0.000000 
0.000000 -0.000000 0.000000 
0.000000 0.000000 0.000000 

0.000000 0.000000 0.000000 
0.000000 0.000000 0.000000 
0.000000 0.000000 0.000000 

0.000000 0.000000 0.000000 
0.000000 -0.000000 0.000000 
0.000000 0.000000 0.000000 

-0.000000 -0.000000 0.000000 
0.000000 0.000000 0.000000 
0.000000 0.000000 0.000000 

0.000000 -0.000000 0.000000 
0.000000 -0.000000 0.000000 
0.000000 0.000000 0.000000 

0.000000 0.000000 0.000000 
0.000000 0.000000 0.000000 
0.000000 0.000000 0.000000 

-0.000000 0.000000 0.000000 
0.000000 -0.000000 0.000000 
0.000000 0.000000 0.000000 

-0.000000 0.000000 0.000000 
0.000000 0.000000 0.000000 
0.000000 0.000000 0.000000 

-0.000000 0.000000 0.000000 
0.000000 0.000000 0.000000 
0.000000 0.000000 0.000000 

-0.000000 0.000000 0.000000 
0.000000 -0.000000 0.000000 
0.000000 0.000000 0.000000 

-0.000000 -0.000000 0.000000 
0.000000 -0.000000 0.000000 
0.000000 0.000000 0.000000 

-0.000000 -0.000000 0.000000 
0.000000 0.000000 0.000000 
0.000000 0.000000 0.000000 

-0.000000 -0.000000 0.000000 
0.000000 -0.000000 0.000000 
0.000000 0.000000 0.000000 

0.000000 -0.000000 0.000000 
0.000000 -0.000000 0.000000 
0.000000 0.000000 0.000000 

0.000000 0.000000 0.000000 
0.000000 0.000000 0.000000 
0.000000 0.000000 0.000000 

0.000000 -0.000000 0.000000 
0.000000 -0.000000 0.000000 
0.000000 0.000000 0.000000 

-0.000000 -0.000000 0.000000 
0.000000 -0.000000 0.000000 
0.000000 0.000000 0.000000 

-0.000000 0.000000 0.000000 
0.000000 0.000000 0.000000 
0.000000 0.000000 0.000000 

-0.000000 -0.000000 0.000000 
0.000000 -0.000000 0.000000 
0.000000 0.000000 0.000000 

-0.000000 -0.000000 0.000000 
0.000000 -0.000000 0.000000 
0.000000 0.000000 0.000000 

0.000000 0.000000 0.000000 
0.000000 -0.000000 0.000000 
0.000000 0.000000 0.000000 

0.000000 -0.000000 0.000000 
0.000000 0.000000 0.000000 
0.000000 0.000000 0.000000 

0.000000 -0.000000 0.000000 
0.000000 -0.000000 0.000000 
0.000000 0.000000 0.000000 

0.000000 -0.000000 0.000000 
0.000000 -0.000000 0.000000 
0.000000 0.000000 0.000000 

-0.000000 -0.000000 0.000000 
0.000000 -0.000000 0.000000 
0.000000 0.000000 0.000000 

-0.000000 0.000000 0.000000 
0.000000 -0.000000 0.000000 
0.000000 0.000000 0.000000 

-0.000000 -0.000000 0.000000 
0.000000 -0.000000 0.000000 
0.000000 0.000000 0.000000 

-0.000000 -0.000000 0.000000 
0.000000 0.000000 0.000000 
0.000000 0.000000 0.000000 

0.000000 0.000000 0.000000 
0.000000 0.000000 0.000000 
0.000000 0.000000 0.000000 

0.000000 0.000000 0.000000 
0.000000 -0.000000 0.000000 
0.000000 0.000000 0.000000 

0.000000 -0.000000 0.000000 
0.000000 0.000000 0.000000 
0.000000 0.000000 0.000000 

-0.000000 -0.000000 0.000000 
0.000000 -0.000000 0.000000 
0.000000 0.000000 0.000000 

-0.000000 -0.000000 0.000000 
0.000000 0.000000 0.000000 
0.000000 0.000000 0.000000 

0.000000 0.000000 0.000000 
0.000000 -0.000000 0.000000 
0.000000 0.000000 0.000000 

0.000000 0.000000 0.000000 
0.000000 0.000000 0.000000 
0.000000 0.000000 0.000000 

-0.000000 0.000000 0.000000 
0.000000 -0.000000 0.000000 
0.000000 0.000000 0.000000 

0.000000 -0.000000 0.000000 
0.000000 -0.000000 0.000000 
0.000000 0.000000 0.000000 

-0.000000 0.000000 0.000000 
0.000000 0.000000 0.000000 
0.000000 0.000000 0.000000 

-0.000000 -0.000000 0.000000 
0.000000 -0.000000 0.000000 
0.000000 0.000000 0.000000 

0.000000 -0.000000 0.000000 
0.000000 -0.000000 0.000000 
0.000000 0.000000 0.000000 

0.000000 -0.000000 0.000000 
0.000000 0.000000 0.000000 
0.000000 0.000000 0.000000 

0.000000 0.000000 0.000000 
0.000000 -0.000000 0.000000 
0.000000 0.000000 0.000000 

0.000000 0.000000 0.000000 
0.000000 0.000000 0.000000 
0.000000 0.000000 0.000000 

-0.000000 -0.000000 0.000000 
0.000000 -0.000000 0.000000 
0.000000 0.000000 0.000000 

0.000000 -0.000000 0.000000 
0.000000 0.000000 0.000000 
0.000000 0.000000 0.000000 

-0.000000 0.000000 0.000000 
0.000000 -0.000000 0.000000 
0.000000 0.000000 0.000000 

-0.000000 -0.000000 0.000000 
0.000000 -0.000000 0.000000 
0.000000 0.000000 0.000000 

-0.000000 0.000000 0.000000 
0.000000 0.000000 0.000000 
0.000000 0.000000 0.000000 

-0.000000 -0.000000 0.000000 
0.000000 0.000000 0.000000 
0.000000 0.000000 0.000000 

-0.000000 -0.000000 0.000000 
0.000000 0.000000 0.000000 
0.000000 0.000000 0.000000 

0.000000 0.000000 0.000000 
0.000000 0.000000 0.000000 
0.000000 0.000000 0.000000 

0.000000 0.000000 0.000000 
0.000000 0.000000 0.000000 
0.000000 0.000000 0.000000 

0.000000 0.000000 0.000000 
0.000000 0.000000 0.000000 
0.000000 0.000000 0.000000 

0.000000 -0.000000 0.000000 
0.000000 -0.000000 0.000000 
0.000000 0.000000 0.000000 

0.000000 -0.000000 0.000000 
0.000000 0.000000 0.000000 
0.000000 0.000000 0.000000 

0.000000 0.000000 0.000000 
0.000000 -0.000000 0.000000 
0.000000 0.000000 0.000000 

0.000000 0.000000 0.000000 
0.000000 -0.000000 0.000000 
0.000000 0.000000 0.000000 

0.000000 -0.000000 0.000000 
0.000000 -0.000000 0.000000 
0.000000 0.000000 0.000000 

0.000000 0.000000 0.000000 
0.000000 0.000000 0.000000 
0.000000 0.000000 0.000000 

0.000000 0.000000 0.000000 
0.000000 -0.000000 0.000000 
0.000000 0.000000 0.000000 

0.000000 -0.000000 0.000000 
0.000000 0.000000 0.000000 
0.000000 0.000000 0.000000 

-0.000000 -0.000000 0.000000 
0.000000 0.000000 0.000000 
0.000000 0.000000 0.000000 

0.000000 -0.000000 0.000000 
0.000000 -0.000000 0.000000 
0.000000 0.000000 0.000000 

0.000000 0.000000 0.000000 
0.000000 0.000000 0.000000 
0.000000 0.000000 0.000000 

0.000000 -0.000000 0.000000 
0.000000 0.000000 0.000000 
0.000000 0.000000 0.000000 

0.000000 -0.000000 0.000000 
0.000000 -0.000000 0.000000 
0.000000 0.000000 0.000000 

-0.000000 -0.000000 0.000000 
0.000000 0.000000 0.000000 
0.000000 0.000000 0.000000 

-0.000000 -0.000000 0.000000 
0.000000 0.000000 0.000000 
0.000000 0.000000 0.000000 

-0.000000 0.000000 0.000000 
0.000000 -0.000000 0.000000 
0.000000 0.000000 0.000000 

-0.000000 0.000000 0.000000 
0.000000 -0.000000 0.000000 
0.000000 0.000000 0.000000 

-0.000000 -0.000000 0.000000 
0.000000 -0.000000 0.000000 
0.000000 0.000000 0.000000 

-0.000000 -0.000000 0.000000 
0.000000 0.000000 0.000000 
0.000000 0.000000 0.000000 

0.000000 -0.000000 0.000000 
0.000000 -0.000000 0.000000 
0.000000 0.000000 0.000000 

0.000000 -0.000000 0.000000 
0.000000 -0.000000 0.000000 
0.000000 0.000000 0.000000 

0.000000 0.000000 0.000000 
0.000000 -0.000000 0.000000 
0.000000 0.000000 0.000000 

