# vtk DataFile Version 3.0 
vtk output 
ASCII 
DATASET UNSTRUCTURED_GRID 
POINTS 175 float 
-0.026061 -1.792881 0.000000 
-0.106992 -1.724826 0.000000 
-0.054870 -1.733058 0.000000 
-0.028809 -1.687175 0.000000 
-0.186430 -1.660750 0.000000 
-0.137056 -1.663277 0.000000 
-0.114311 -1.609629 0.000000 
-0.058186 -1.625295 0.000000 
-0.029377 -1.585118 0.000000 
-0.265318 -1.597595 0.000000 
-0.217198 -1.598394 0.000000 
-0.196633 -1.541098 0.000000 
-0.143120 -1.549806 0.000000 
-0.116563 -1.502538 0.000000 
-0.058945 -1.522184 0.000000 
-0.029568 -1.484063 0.000000 
-0.344206 -1.534439 0.000000 
-0.296791 -1.534432 0.000000 
-0.278030 -1.474489 0.000000 
-0.225992 -1.480355 0.000000 
-0.201664 -1.428238 0.000000 
-0.145749 -1.441712 0.000000 
-0.117890 -1.397369 0.000000 
-0.059328 -1.420075 0.000000 
-0.029759 -1.383009 0.000000 
-0.058559 -1.833632 0.000000 
-0.162226 -1.854475 0.000000 
-0.123292 -1.818857 0.000000 
-0.142917 -1.769874 0.000000 
-0.261851 -1.876631 0.000000 
-0.229092 -1.839604 0.000000 
-0.256854 -1.788372 0.000000 
-0.209613 -1.754260 0.000000 
-0.223062 -1.706686 0.000000 
-0.360414 -1.898931 0.000000 
-0.329787 -1.861808 0.000000 
-0.361761 -1.810006 0.000000 
-0.321587 -1.773597 0.000000 
-0.341985 -1.723363 0.000000 
-0.290702 -1.690564 0.000000 
-0.302189 -1.643829 0.000000 
-0.458977 -1.921231 0.000000 
-0.429420 -1.884157 0.000000 
-0.464588 -1.832115 0.000000 
-0.427556 -1.795087 0.000000 
-0.453135 -1.743573 0.000000 
-0.407738 -1.708257 0.000000 
-0.425037 -1.658829 0.000000 
-0.370772 -1.627200 0.000000 
-0.381315 -1.580973 0.000000 
-0.046960 -1.884447 0.000000 
-0.095301 -1.978493 0.000000 
-0.098873 -1.925846 0.000000 
-0.149405 -1.910648 0.000000 
-0.140093 -2.070197 0.000000 
-0.148617 -2.021499 0.000000 
-0.205981 -2.011262 0.000000 
-0.203197 -1.953058 0.000000 
-0.248777 -1.933912 0.000000 
-0.184111 -2.161161 0.000000 
-0.194039 -2.114070 0.000000 
-0.254475 -2.106770 0.000000 
-0.257893 -2.052660 0.000000 
-0.309886 -2.037288 0.000000 
-0.303554 -1.976743 0.000000 
-0.347255 -1.956585 0.000000 
-0.228129 -2.252124 0.000000 
-0.238687 -2.205900 0.000000 
-0.301302 -2.200948 0.000000 
-0.307162 -2.148909 0.000000 
-0.363386 -2.136788 0.000000 
-0.362692 -2.079277 0.000000 
-0.412122 -2.061984 0.000000 
-0.403017 -1.999837 0.000000 
-0.445733 -1.979258 0.000000 
-0.000000 -1.907062 0.000000 
0.043388 -2.003493 0.000000 
-0.000000 -1.973460 0.000000 
-0.043388 -2.003493 0.000000 
0.087158 -2.095689 0.000000 
0.043769 -2.071991 0.000000 
-0.000000 -2.110457 0.000000 
-0.043769 -2.071991 0.000000 
-0.087158 -2.095689 0.000000 
0.130831 -2.186819 0.000000 
0.087824 -2.165220 0.000000 
0.044436 -2.207920 0.000000 
-0.000000 -2.176855 0.000000 
-0.044436 -2.207920 0.000000 
-0.087824 -2.165220 0.000000 
-0.130831 -2.186819 0.000000 
0.174505 -2.277949 0.000000 
0.131782 -2.257383 0.000000 
0.088871 -2.303249 0.000000 
0.044532 -2.275385 0.000000 
-0.000000 -2.311786 0.000000 
-0.044532 -2.275385 0.000000 
-0.088871 -2.303249 0.000000 
-0.131782 -2.257383 0.000000 
-0.174505 -2.277949 0.000000 
0.046960 -1.884447 0.000000 
0.149405 -1.910648 0.000000 
0.098873 -1.925846 0.000000 
0.095301 -1.978493 0.000000 
0.248777 -1.933912 0.000000 
0.203197 -1.953058 0.000000 
0.205981 -2.011262 0.000000 
0.148617 -2.021499 0.000000 
0.140093 -2.070197 0.000000 
0.347255 -1.956585 0.000000 
0.303554 -1.976743 0.000000 
0.309886 -2.037288 0.000000 
0.257893 -2.052660 0.000000 
0.254475 -2.106770 0.000000 
0.194039 -2.114070 0.000000 
0.184111 -2.161161 0.000000 
0.445733 -1.979258 0.000000 
0.403017 -1.999837 0.000000 
0.412122 -2.061984 0.000000 
0.362692 -2.079277 0.000000 
0.363386 -2.136788 0.000000 
0.307162 -2.148909 0.000000 
0.301302 -2.200948 0.000000 
0.238687 -2.205900 0.000000 
0.228129 -2.252124 0.000000 
0.058559 -1.833632 0.000000 
0.142917 -1.769874 0.000000 
0.123292 -1.818857 0.000000 
0.162226 -1.854475 0.000000 
0.223062 -1.706686 0.000000 
0.209613 -1.754260 0.000000 
0.256854 -1.788372 0.000000 
0.229092 -1.839604 0.000000 
0.261851 -1.876631 0.000000 
0.302189 -1.643829 0.000000 
0.290702 -1.690564 0.000000 
0.341985 -1.723363 0.000000 
0.321587 -1.773597 0.000000 
0.361761 -1.810006 0.000000 
0.329787 -1.861808 0.000000 
0.360414 -1.898931 0.000000 
0.381315 -1.580973 0.000000 
0.370772 -1.627200 0.000000 
0.425037 -1.658829 0.000000 
0.407738 -1.708257 0.000000 
0.453135 -1.743573 0.000000 
0.427556 -1.795087 0.000000 
0.464588 -1.832115 0.000000 
0.429420 -1.884157 0.000000 
0.458977 -1.921231 0.000000 
0.026061 -1.792881 0.000000 
0.028809 -1.687175 0.000000 
0.054870 -1.733058 0.000000 
0.106992 -1.724826 0.000000 
0.029377 -1.585118 0.000000 
0.058186 -1.625295 0.000000 
0.114311 -1.609629 0.000000 
0.137056 -1.663277 0.000000 
0.186430 -1.660750 0.000000 
0.029568 -1.484063 0.000000 
0.058945 -1.522184 0.000000 
0.116563 -1.502538 0.000000 
0.143120 -1.549806 0.000000 
0.196633 -1.541098 0.000000 
0.217198 -1.598394 0.000000 
0.265318 -1.597595 0.000000 
0.029759 -1.383009 0.000000 
0.059328 -1.420075 0.000000 
0.117890 -1.397369 0.000000 
0.145749 -1.441712 0.000000 
0.201664 -1.428238 0.000000 
0.225992 -1.480355 0.000000 
0.278030 -1.474489 0.000000 
0.296791 -1.534432 0.000000 
0.344206 -1.534439 0.000000 
CELLS 175 350 
1 0 
1 1 
1 2 
1 3 
1 4 
1 5 
1 6 
1 7 
1 8 
1 9 
1 10 
1 11 
1 12 
1 13 
1 14 
1 15 
1 16 
1 17 
1 18 
1 19 
1 20 
1 21 
1 22 
1 23 
1 24 
1 25 
1 26 
1 27 
1 28 
1 29 
1 30 
1 31 
1 32 
1 33 
1 34 
1 35 
1 36 
1 37 
1 38 
1 39 
1 40 
1 41 
1 42 
1 43 
1 44 
1 45 
1 46 
1 47 
1 48 
1 49 
1 50 
1 51 
1 52 
1 53 
1 54 
1 55 
1 56 
1 57 
1 58 
1 59 
1 60 
1 61 
1 62 
1 63 
1 64 
1 65 
1 66 
1 67 
1 68 
1 69 
1 70 
1 71 
1 72 
1 73 
1 74 
1 75 
1 76 
1 77 
1 78 
1 79 
1 80 
1 81 
1 82 
1 83 
1 84 
1 85 
1 86 
1 87 
1 88 
1 89 
1 90 
1 91 
1 92 
1 93 
1 94 
1 95 
1 96 
1 97 
1 98 
1 99 
1 100 
1 101 
1 102 
1 103 
1 104 
1 105 
1 106 
1 107 
1 108 
1 109 
1 110 
1 111 
1 112 
1 113 
1 114 
1 115 
1 116 
1 117 
1 118 
1 119 
1 120 
1 121 
1 122 
1 123 
1 124 
1 125 
1 126 
1 127 
1 128 
1 129 
1 130 
1 131 
1 132 
1 133 
1 134 
1 135 
1 136 
1 137 
1 138 
1 139 
1 140 
1 141 
1 142 
1 143 
1 144 
1 145 
1 146 
1 147 
1 148 
1 149 
1 150 
1 151 
1 152 
1 153 
1 154 
1 155 
1 156 
1 157 
1 158 
1 159 
1 160 
1 161 
1 162 
1 163 
1 164 
1 165 
1 166 
1 167 
1 168 
1 169 
1 170 
1 171 
1 172 
1 173 
1 174 
CELL_TYPES 175 
1 
1 
1 
1 
1 
1 
1 
1 
1 
1 
1 
1 
1 
1 
1 
1 
1 
1 
1 
1 
1 
1 
1 
1 
1 
1 
1 
1 
1 
1 
1 
1 
1 
1 
1 
1 
1 
1 
1 
1 
1 
1 
1 
1 
1 
1 
1 
1 
1 
1 
1 
1 
1 
1 
1 
1 
1 
1 
1 
1 
1 
1 
1 
1 
1 
1 
1 
1 
1 
1 
1 
1 
1 
1 
1 
1 
1 
1 
1 
1 
1 
1 
1 
1 
1 
1 
1 
1 
1 
1 
1 
1 
1 
1 
1 
1 
1 
1 
1 
1 
1 
1 
1 
1 
1 
1 
1 
1 
1 
1 
1 
1 
1 
1 
1 
1 
1 
1 
1 
1 
1 
1 
1 
1 
1 
1 
1 
1 
1 
1 
1 
1 
1 
1 
1 
1 
1 
1 
1 
1 
1 
1 
1 
1 
1 
1 
1 
1 
1 
1 
1 
1 
1 
1 
1 
1 
1 
1 
1 
1 
1 
1 
1 
1 
1 
1 
1 
1 
1 
1 
1 
1 
1 
1 
1 
POINT_DATA 175 
VECTORS X_GC float 
-0.026061 -1.792881 0.000000 
-0.106992 -1.724826 0.000000 
-0.054870 -1.733058 0.000000 
-0.028809 -1.687175 0.000000 
-0.186430 -1.660750 0.000000 
-0.137056 -1.663277 0.000000 
-0.114311 -1.609629 0.000000 
-0.058186 -1.625295 0.000000 
-0.029377 -1.585118 0.000000 
-0.265318 -1.597595 0.000000 
-0.217198 -1.598394 0.000000 
-0.196633 -1.541098 0.000000 
-0.143120 -1.549806 0.000000 
-0.116563 -1.502538 0.000000 
-0.058945 -1.522184 0.000000 
-0.029568 -1.484063 0.000000 
-0.344206 -1.534439 0.000000 
-0.296791 -1.534432 0.000000 
-0.278030 -1.474489 0.000000 
-0.225992 -1.480355 0.000000 
-0.201664 -1.428238 0.000000 
-0.145749 -1.441712 0.000000 
-0.117890 -1.397369 0.000000 
-0.059328 -1.420075 0.000000 
-0.029759 -1.383009 0.000000 
-0.058559 -1.833632 0.000000 
-0.162226 -1.854475 0.000000 
-0.123292 -1.818857 0.000000 
-0.142917 -1.769874 0.000000 
-0.261851 -1.876631 0.000000 
-0.229092 -1.839604 0.000000 
-0.256854 -1.788372 0.000000 
-0.209613 -1.754260 0.000000 
-0.223062 -1.706686 0.000000 
-0.360414 -1.898931 0.000000 
-0.329787 -1.861808 0.000000 
-0.361761 -1.810006 0.000000 
-0.321587 -1.773597 0.000000 
-0.341985 -1.723363 0.000000 
-0.290702 -1.690564 0.000000 
-0.302189 -1.643829 0.000000 
-0.458977 -1.921231 0.000000 
-0.429420 -1.884157 0.000000 
-0.464588 -1.832115 0.000000 
-0.427556 -1.795087 0.000000 
-0.453135 -1.743573 0.000000 
-0.407738 -1.708257 0.000000 
-0.425037 -1.658829 0.000000 
-0.370772 -1.627200 0.000000 
-0.381315 -1.580973 0.000000 
-0.046960 -1.884447 0.000000 
-0.095301 -1.978493 0.000000 
-0.098873 -1.925846 0.000000 
-0.149405 -1.910648 0.000000 
-0.140093 -2.070197 0.000000 
-0.148617 -2.021499 0.000000 
-0.205981 -2.011262 0.000000 
-0.203197 -1.953058 0.000000 
-0.248777 -1.933912 0.000000 
-0.184111 -2.161161 0.000000 
-0.194039 -2.114070 0.000000 
-0.254475 -2.106770 0.000000 
-0.257893 -2.052660 0.000000 
-0.309886 -2.037288 0.000000 
-0.303554 -1.976743 0.000000 
-0.347255 -1.956585 0.000000 
-0.228129 -2.252124 0.000000 
-0.238687 -2.205900 0.000000 
-0.301302 -2.200948 0.000000 
-0.307162 -2.148909 0.000000 
-0.363386 -2.136788 0.000000 
-0.362692 -2.079277 0.000000 
-0.412122 -2.061984 0.000000 
-0.403017 -1.999837 0.000000 
-0.445733 -1.979258 0.000000 
-0.000000 -1.907062 0.000000 
0.043388 -2.003493 0.000000 
-0.000000 -1.973460 0.000000 
-0.043388 -2.003493 0.000000 
0.087158 -2.095689 0.000000 
0.043769 -2.071991 0.000000 
-0.000000 -2.110457 0.000000 
-0.043769 -2.071991 0.000000 
-0.087158 -2.095689 0.000000 
0.130831 -2.186819 0.000000 
0.087824 -2.165220 0.000000 
0.044436 -2.207920 0.000000 
-0.000000 -2.176855 0.000000 
-0.044436 -2.207920 0.000000 
-0.087824 -2.165220 0.000000 
-0.130831 -2.186819 0.000000 
0.174505 -2.277949 0.000000 
0.131782 -2.257383 0.000000 
0.088871 -2.303249 0.000000 
0.044532 -2.275385 0.000000 
-0.000000 -2.311786 0.000000 
-0.044532 -2.275385 0.000000 
-0.088871 -2.303249 0.000000 
-0.131782 -2.257383 0.000000 
-0.174505 -2.277949 0.000000 
0.046960 -1.884447 0.000000 
0.149405 -1.910648 0.000000 
0.098873 -1.925846 0.000000 
0.095301 -1.978493 0.000000 
0.248777 -1.933912 0.000000 
0.203197 -1.953058 0.000000 
0.205981 -2.011262 0.000000 
0.148617 -2.021499 0.000000 
0.140093 -2.070197 0.000000 
0.347255 -1.956585 0.000000 
0.303554 -1.976743 0.000000 
0.309886 -2.037288 0.000000 
0.257893 -2.052660 0.000000 
0.254475 -2.106770 0.000000 
0.194039 -2.114070 0.000000 
0.184111 -2.161161 0.000000 
0.445733 -1.979258 0.000000 
0.403017 -1.999837 0.000000 
0.412122 -2.061984 0.000000 
0.362692 -2.079277 0.000000 
0.363386 -2.136788 0.000000 
0.307162 -2.148909 0.000000 
0.301302 -2.200948 0.000000 
0.238687 -2.205900 0.000000 
0.228129 -2.252124 0.000000 
0.058559 -1.833632 0.000000 
0.142917 -1.769874 0.000000 
0.123292 -1.818857 0.000000 
0.162226 -1.854475 0.000000 
0.223062 -1.706686 0.000000 
0.209613 -1.754260 0.000000 
0.256854 -1.788372 0.000000 
0.229092 -1.839604 0.000000 
0.261851 -1.876631 0.000000 
0.302189 -1.643829 0.000000 
0.290702 -1.690564 0.000000 
0.341985 -1.723363 0.000000 
0.321587 -1.773597 0.000000 
0.361761 -1.810006 0.000000 
0.329787 -1.861808 0.000000 
0.360414 -1.898931 0.000000 
0.381315 -1.580973 0.000000 
0.370772 -1.627200 0.000000 
0.425037 -1.658829 0.000000 
0.407738 -1.708257 0.000000 
0.453135 -1.743573 0.000000 
0.427556 -1.795087 0.000000 
0.464588 -1.832115 0.000000 
0.429420 -1.884157 0.000000 
0.458977 -1.921231 0.000000 
0.026061 -1.792881 0.000000 
0.028809 -1.687175 0.000000 
0.054870 -1.733058 0.000000 
0.106992 -1.724826 0.000000 
0.029377 -1.585118 0.000000 
0.058186 -1.625295 0.000000 
0.114311 -1.609629 0.000000 
0.137056 -1.663277 0.000000 
0.186430 -1.660750 0.000000 
0.029568 -1.484063 0.000000 
0.058945 -1.522184 0.000000 
0.116563 -1.502538 0.000000 
0.143120 -1.549806 0.000000 
0.196633 -1.541098 0.000000 
0.217198 -1.598394 0.000000 
0.265318 -1.597595 0.000000 
0.029759 -1.383009 0.000000 
0.059328 -1.420075 0.000000 
0.117890 -1.397369 0.000000 
0.145749 -1.441712 0.000000 
0.201664 -1.428238 0.000000 
0.225992 -1.480355 0.000000 
0.278030 -1.474489 0.000000 
0.296791 -1.534432 0.000000 
0.344206 -1.534439 0.000000 
VECTORS X_EC float 
0.338794 0.703897 0.000000 
-0.609100 -0.214851 0.000000 
0.713312 -0.103710 0.000000 
0.374519 -0.723140 0.000000 
0.423588 0.920129 0.000000 
-0.218274 0.954233 0.000000 
-0.513962 0.229994 0.000000 
0.756418 0.441480 0.000000 
0.381900 -0.100912 0.000000 
-0.550868 0.067526 0.000000 
0.823577 0.078322 0.000000 
0.556234 -0.695182 0.000000 
-0.139443 -0.577613 0.000000 
-0.484677 0.784262 0.000000 
0.766286 -0.950523 0.000000 
0.384386 0.534857 0.000000 
0.474677 -0.785077 0.000000 
-0.141715 -0.785173 0.000000 
-0.385608 0.405599 0.000000 
0.937896 0.484794 0.000000 
0.621631 -0.218786 0.000000 
-0.105264 -0.036887 0.000000 
-0.467428 -0.635513 0.000000 
0.771260 -0.328985 0.000000 
0.386873 -0.829374 0.000000 
0.761262 -0.745968 0.000000 
0.108942 -0.464592 0.000000 
-0.397202 -0.945431 0.000000 
-0.142083 0.393294 0.000000 
-0.595936 -0.165481 0.000000 
0.978194 -0.665347 0.000000 
-0.660903 0.643028 0.000000 
0.724964 0.182508 0.000000 
0.899809 -0.459741 0.000000 
0.685384 0.135571 0.000000 
0.287229 -0.365587 0.000000 
0.702895 0.935084 0.000000 
0.180633 0.443566 0.000000 
0.445811 -0.234594 0.000000 
-0.220880 -0.677380 0.000000 
-0.071546 0.691694 0.000000 
-0.033296 0.436623 0.000000 
-0.417537 -0.063886 0.000000 
0.039645 -0.766449 0.000000 
-0.441768 0.733680 0.000000 
-0.109248 0.038229 0.000000 
-0.699407 -0.438526 0.000000 
-0.474522 0.894195 0.000000 
0.820030 0.467201 0.000000 
0.957100 -0.156871 0.000000 
0.610485 -0.059962 0.000000 
-0.761092 -0.790342 0.000000 
-0.714655 0.498920 0.000000 
-0.057734 0.293753 0.000000 
-0.178789 0.447662 0.000000 
-0.067979 -0.209764 0.000000 
0.677748 -0.347968 0.000000 
0.641556 0.866287 0.000000 
-0.765897 0.607808 0.000000 
0.393446 -0.324329 0.000000 
0.522510 -0.960059 0.000000 
-0.691820 0.941397 0.000000 
-0.647393 0.210914 0.000000 
0.028512 0.003387 0.000000 
-0.053800 -0.813973 0.000000 
0.514316 0.913896 0.000000 
0.965681 0.903680 0.000000 
-0.897068 0.279651 0.000000 
-0.083078 0.212798 0.000000 
-0.006893 -0.489727 0.000000 
0.724017 -0.653359 0.000000 
0.714996 0.570237 0.000000 
-0.642413 0.336780 0.000000 
-0.760780 -0.502201 0.000000 
-0.205471 -0.780016 0.000000 
0.000000 0.245340 0.000000 
-0.564049 -0.452847 0.000000 
0.000000 -0.858283 0.000000 
0.564049 -0.452847 0.000000 
0.866949 0.791808 0.000000 
-0.569003 0.471877 0.000000 
0.000000 0.991165 0.000000 
0.569003 0.471877 0.000000 
-0.866949 0.791808 0.000000 
0.299194 0.022058 0.000000 
0.858290 -0.269526 0.000000 
-0.577662 0.306920 0.000000 
0.000000 -0.112458 0.000000 
0.577662 0.306920 0.000000 
-0.858290 -0.269526 0.000000 
-0.299194 0.022058 0.000000 
-0.268560 -0.747692 0.000000 
0.286830 0.974666 0.000000 
0.844677 -0.406135 0.000000 
-0.578910 -0.782298 0.000000 
0.000000 -0.290894 0.000000 
0.578910 -0.782298 0.000000 
-0.844677 -0.406135 0.000000 
-0.286830 0.974666 0.000000 
0.268560 -0.747692 0.000000 
-0.610485 -0.059962 0.000000 
0.057734 0.293753 0.000000 
0.714655 0.498920 0.000000 
0.761092 -0.790342 0.000000 
0.765897 0.607808 0.000000 
-0.641556 0.866287 0.000000 
-0.677748 -0.347968 0.000000 
0.067979 -0.209764 0.000000 
0.178789 0.447662 0.000000 
-0.514316 0.913896 0.000000 
0.053800 -0.813973 0.000000 
-0.028512 0.003387 0.000000 
0.647393 0.210914 0.000000 
0.691820 0.941397 0.000000 
-0.522510 -0.960059 0.000000 
-0.393446 -0.324329 0.000000 
0.205471 -0.780016 0.000000 
0.760780 -0.502201 0.000000 
0.642413 0.336780 0.000000 
-0.714996 0.570237 0.000000 
-0.724017 -0.653359 0.000000 
0.006894 -0.489727 0.000000 
0.083078 0.212798 0.000000 
0.897068 0.279651 0.000000 
-0.965681 0.903680 0.000000 
-0.761262 -0.745968 0.000000 
0.142083 0.393294 0.000000 
0.397202 -0.945431 0.000000 
-0.108942 -0.464592 0.000000 
-0.899809 -0.459741 0.000000 
-0.724964 0.182508 0.000000 
0.660903 0.643028 0.000000 
-0.978194 -0.665347 0.000000 
0.595936 -0.165481 0.000000 
0.071546 0.691694 0.000000 
0.220880 -0.677380 0.000000 
-0.445811 -0.234594 0.000000 
-0.180633 0.443566 0.000000 
-0.702895 0.935084 0.000000 
-0.287229 -0.365587 0.000000 
-0.685384 0.135571 0.000000 
-0.957100 -0.156871 0.000000 
-0.820030 0.467201 0.000000 
0.474522 0.894195 0.000000 
0.699407 -0.438526 0.000000 
0.109248 0.038229 0.000000 
0.441768 0.733680 0.000000 
-0.039645 -0.766449 0.000000 
0.417537 -0.063886 0.000000 
0.033296 0.436623 0.000000 
-0.338794 0.703897 0.000000 
-0.374519 -0.723140 0.000000 
-0.713312 -0.103710 0.000000 
0.609100 -0.214851 0.000000 
-0.381900 -0.100912 0.000000 
-0.756418 0.441480 0.000000 
0.513962 0.229994 0.000000 
0.218274 0.954233 0.000000 
-0.423588 0.920130 0.000000 
-0.384386 0.534857 0.000000 
-0.766286 -0.950523 0.000000 
0.484677 0.784262 0.000000 
0.139443 -0.577613 0.000000 
-0.556234 -0.695182 0.000000 
-0.823577 0.078322 0.000000 
0.550868 0.067526 0.000000 
-0.386873 -0.829374 0.000000 
-0.771260 -0.328985 0.000000 
0.467428 -0.635513 0.000000 
0.105264 -0.036887 0.000000 
-0.621631 -0.218786 0.000000 
-0.937896 0.484794 0.000000 
0.385608 0.405599 0.000000 
0.141715 -0.785173 0.000000 
-0.474677 -0.785077 0.000000 
CELL_DATA 175 
SCALARS MASS float 
LOOKUP_TABLE default 
0.078183 
0.086427 
0.094672 
0.086427 
0.088131 
0.092111 
0.085854 
0.092111 
0.088131 
0.088705 
0.091000 
0.086983 
0.091556 
0.086983 
0.091000 
0.088705 
0.089278 
0.091574 
0.089278 
0.092722 
0.089278 
0.092722 
0.089278 
0.091574 
0.089278 
0.078183 
0.086427 
0.094672 
0.086427 
0.088131 
0.092111 
0.085854 
0.092111 
0.088131 
0.088705 
0.091000 
0.086983 
0.091556 
0.086983 
0.091000 
0.088705 
0.089278 
0.091574 
0.089278 
0.092722 
0.089278 
0.092722 
0.089278 
0.091574 
0.089278 
0.078183 
0.086427 
0.094672 
0.086427 
0.088131 
0.092111 
0.085854 
0.092111 
0.088131 
0.088705 
0.091000 
0.086983 
0.091556 
0.086983 
0.091000 
0.088705 
0.089278 
0.091574 
0.089278 
0.092722 
0.089278 
0.092722 
0.089278 
0.091574 
0.089278 
0.078183 
0.086427 
0.094672 
0.086427 
0.088131 
0.092111 
0.085854 
0.092111 
0.088131 
0.088705 
0.091000 
0.086983 
0.091556 
0.086983 
0.091000 
0.088705 
0.089278 
0.091574 
0.089278 
0.092722 
0.089278 
0.092722 
0.089278 
0.091574 
0.089278 
0.078183 
0.086427 
0.094672 
0.086427 
0.088131 
0.092111 
0.085854 
0.092111 
0.088131 
0.088705 
0.091000 
0.086983 
0.091556 
0.086983 
0.091000 
0.088705 
0.089278 
0.091574 
0.089278 
0.092722 
0.089278 
0.092722 
0.089278 
0.091574 
0.089278 
0.078183 
0.086427 
0.094672 
0.086427 
0.088131 
0.092111 
0.085854 
0.092111 
0.088131 
0.088705 
0.091000 
0.086983 
0.091556 
0.086983 
0.091000 
0.088705 
0.089278 
0.091574 
0.089278 
0.092722 
0.089278 
0.092722 
0.089278 
0.091574 
0.089278 
0.078183 
0.086427 
0.094672 
0.086427 
0.088131 
0.092111 
0.085854 
0.092111 
0.088131 
0.088705 
0.091000 
0.086983 
0.091556 
0.086983 
0.091000 
0.088705 
0.089278 
0.091574 
0.089278 
0.092722 
0.089278 
0.092722 
0.089278 
0.091574 
0.089278 
SCALARS MASS float 
LOOKUP_TABLE default 
0.078183 
0.086427 
0.094672 
0.086427 
0.088131 
0.092111 
0.085854 
0.092111 
0.088131 
0.088705 
0.091000 
0.086983 
0.091556 
0.086983 
0.091000 
0.088705 
0.089278 
0.091574 
0.089278 
0.092722 
0.089278 
0.092722 
0.089278 
0.091574 
0.089278 
0.078183 
0.086427 
0.094672 
0.086427 
0.088131 
0.092111 
0.085854 
0.092111 
0.088131 
0.088705 
0.091000 
0.086983 
0.091556 
0.086983 
0.091000 
0.088705 
0.089278 
0.091574 
0.089278 
0.092722 
0.089278 
0.092722 
0.089278 
0.091574 
0.089278 
0.078183 
0.086427 
0.094672 
0.086427 
0.088131 
0.092111 
0.085854 
0.092111 
0.088131 
0.088705 
0.091000 
0.086983 
0.091556 
0.086983 
0.091000 
0.088705 
0.089278 
0.091574 
0.089278 
0.092722 
0.089278 
0.092722 
0.089278 
0.091574 
0.089278 
0.078183 
0.086427 
0.094672 
0.086427 
0.088131 
0.092111 
0.085854 
0.092111 
0.088131 
0.088705 
0.091000 
0.086983 
0.091556 
0.086983 
0.091000 
0.088705 
0.089278 
0.091574 
0.089278 
0.092722 
0.089278 
0.092722 
0.089278 
0.091574 
0.089278 
0.078183 
0.086427 
0.094672 
0.086427 
0.088131 
0.092111 
0.085854 
0.092111 
0.088131 
0.088705 
0.091000 
0.086983 
0.091556 
0.086983 
0.091000 
0.088705 
0.089278 
0.091574 
0.089278 
0.092722 
0.089278 
0.092722 
0.089278 
0.091574 
0.089278 
0.078183 
0.086427 
0.094672 
0.086427 
0.088131 
0.092111 
0.085854 
0.092111 
0.088131 
0.088705 
0.091000 
0.086983 
0.091556 
0.086983 
0.091000 
0.088705 
0.089278 
0.091574 
0.089278 
0.092722 
0.089278 
0.092722 
0.089278 
0.091574 
0.089278 
0.078183 
0.086427 
0.094672 
0.086427 
0.088131 
0.092111 
0.085854 
0.092111 
0.088131 
0.088705 
0.091000 
0.086983 
0.091556 
0.086983 
0.091000 
0.088705 
0.089278 
0.091574 
0.089278 
0.092722 
0.089278 
0.092722 
0.089278 
0.091574 
0.089278 
SCALARS DENSITY float 
LOOKUP_TABLE default 
20.000000 
20.000000 
20.000000 
20.000000 
20.000000 
20.000000 
20.000000 
20.000000 
20.000000 
20.000000 
20.000000 
20.000000 
20.000000 
20.000000 
20.000000 
20.000000 
20.000000 
20.000000 
20.000000 
20.000000 
20.000000 
20.000000 
20.000000 
20.000000 
20.000000 
20.000000 
20.000000 
20.000000 
20.000000 
20.000000 
20.000000 
20.000000 
20.000000 
20.000000 
20.000000 
20.000000 
20.000000 
20.000000 
20.000000 
20.000000 
20.000000 
20.000000 
20.000000 
20.000000 
20.000000 
20.000000 
20.000000 
20.000000 
20.000000 
20.000000 
20.000000 
20.000000 
20.000000 
20.000000 
20.000000 
20.000000 
20.000000 
20.000000 
20.000000 
20.000000 
20.000000 
20.000000 
20.000000 
20.000000 
20.000000 
20.000000 
20.000000 
20.000000 
20.000000 
20.000000 
20.000000 
20.000000 
20.000000 
20.000000 
20.000000 
20.000000 
20.000000 
20.000000 
20.000000 
20.000000 
20.000000 
20.000000 
20.000000 
20.000000 
20.000000 
20.000000 
20.000000 
20.000000 
20.000000 
20.000000 
20.000000 
20.000000 
20.000000 
20.000000 
20.000000 
20.000000 
20.000000 
20.000000 
20.000000 
20.000000 
20.000000 
20.000000 
20.000000 
20.000000 
20.000000 
20.000000 
20.000000 
20.000000 
20.000000 
20.000000 
20.000000 
20.000000 
20.000000 
20.000000 
20.000000 
20.000000 
20.000000 
20.000000 
20.000000 
20.000000 
20.000000 
20.000000 
20.000000 
20.000000 
20.000000 
20.000000 
20.000000 
20.000000 
20.000000 
20.000000 
20.000000 
20.000000 
20.000000 
20.000000 
20.000000 
20.000000 
20.000000 
20.000000 
20.000000 
20.000000 
20.000000 
20.000000 
20.000000 
20.000000 
20.000000 
20.000000 
20.000000 
20.000000 
20.000000 
20.000000 
20.000000 
20.000000 
20.000000 
20.000000 
20.000000 
20.000000 
20.000000 
20.000000 
20.000000 
20.000000 
20.000000 
20.000000 
20.000000 
20.000000 
20.000000 
20.000000 
20.000000 
20.000000 
20.000000 
20.000000 
20.000000 
20.000000 
20.000000 
20.000000 
20.000000 
SCALARS ELEM_i float 
LOOKUP_TABLE default 
170 
197 
170 
170 
198 
198 
198 
171 
171 
225 
198 
198 
198 
199 
171 
172 
225 
225 
226 
199 
199 
199 
199 
172 
172 
169 
196 
196 
197 
223 
196 
224 
197 
197 
223 
223 
224 
224 
224 
224 
225 
250 
250 
250 
251 
251 
251 
252 
225 
225 
169 
195 
196 
196 
195 
195 
195 
196 
223 
194 
194 
222 
222 
222 
222 
223 
194 
221 
221 
221 
221 
222 
249 
249 
249 
169 
168 
168 
168 
141 
168 
168 
168 
195 
140 
140 
167 
167 
167 
194 
194 
139 
140 
139 
166 
166 
166 
193 
194 
193 
169 
142 
142 
141 
115 
142 
141 
141 
141 
115 
114 
114 
114 
114 
140 
140 
87 
87 
87 
114 
113 
113 
113 
113 
140 
169 
143 
142 
142 
143 
143 
116 
142 
115 
117 
116 
116 
116 
116 
115 
115 
117 
117 
90 
89 
89 
89 
88 
88 
88 
170 
170 
170 
143 
171 
171 
144 
144 
144 
172 
171 
145 
144 
144 
144 
117 
172 
172 
145 
145 
145 
145 
118 
117 
117 
VECTORS VELOCITY float 
-0.000000 -6.019416 0.000000 
0.000000 -6.019416 0.000000 
0.000000 -6.019416 0.000000 
0.000000 -6.019416 0.000000 
0.000000 -6.019416 0.000000 
0.000000 -6.019416 0.000000 
-0.000000 -6.019416 0.000000 
0.000000 -6.019416 0.000000 
0.000000 -6.019416 0.000000 
-0.000000 -6.019416 0.000000 
-0.000000 -6.019416 0.000000 
-0.000000 -6.019416 0.000000 
-0.000000 -6.019416 0.000000 
-0.000000 -6.019416 0.000000 
-0.000000 -6.019416 0.000000 
-0.000000 -6.019416 0.000000 
0.000000 -6.019416 0.000000 
-0.000000 -6.019416 0.000000 
0.000000 -6.019416 0.000000 
0.000000 -6.019416 0.000000 
0.000000 -6.019416 0.000000 
0.000000 -6.019416 0.000000 
0.000000 -6.019416 0.000000 
-0.000000 -6.019416 0.000000 
-0.000000 -6.019416 0.000000 
-0.000000 -6.019416 0.000000 
-0.000000 -6.019416 0.000000 
-0.000000 -6.019416 0.000000 
-0.000000 -6.019416 0.000000 
-0.000000 -6.019416 0.000000 
-0.000000 -6.019416 0.000000 
0.000000 -6.019416 0.000000 
0.000000 -6.019416 0.000000 
-0.000000 -6.019416 0.000000 
0.000000 -6.019416 0.000000 
-0.000000 -6.019416 0.000000 
0.000000 -6.019416 0.000000 
0.000000 -6.019416 0.000000 
-0.000000 -6.019416 0.000000 
-0.000000 -6.019416 0.000000 
0.000000 -6.019416 0.000000 
0.000000 -6.019416 0.000000 
0.000000 -6.019416 0.000000 
-0.000000 -6.019416 0.000000 
-0.000000 -6.019416 0.000000 
-0.000000 -6.019416 0.000000 
0.000000 -6.019416 0.000000 
0.000000 -6.019416 0.000000 
0.000000 -6.019416 0.000000 
0.000000 -6.019416 0.000000 
-0.000000 -6.019416 0.000000 
-0.000000 -6.019416 0.000000 
-0.000000 -6.019416 0.000000 
-0.000000 -6.019416 0.000000 
-0.000000 -6.019416 0.000000 
-0.000000 -6.019416 0.000000 
0.000000 -6.019416 0.000000 
0.000000 -6.019416 0.000000 
-0.000000 -6.019416 0.000000 
-0.000000 -6.019416 0.000000 
-0.000000 -6.019416 0.000000 
-0.000000 -6.019416 0.000000 
0.000000 -6.019416 0.000000 
0.000000 -6.019416 0.000000 
-0.000000 -6.019416 0.000000 
-0.000000 -6.019416 0.000000 
-0.000000 -6.019416 0.000000 
-0.000000 -6.019416 0.000000 
0.000000 -6.019416 0.000000 
-0.000000 -6.019416 0.000000 
0.000000 -6.019416 0.000000 
0.000000 -6.019416 0.000000 
0.000000 -6.019416 0.000000 
-0.000000 -6.019416 0.000000 
-0.000000 -6.019416 0.000000 
0.000000 -6.019416 0.000000 
0.000000 -6.019416 0.000000 
-0.000000 -6.019416 0.000000 
-0.000000 -6.019416 0.000000 
-0.000000 -6.019416 0.000000 
-0.000000 -6.019416 0.000000 
-0.000000 -6.019416 0.000000 
-0.000000 -6.019416 0.000000 
-0.000000 -6.019416 0.000000 
0.000000 -6.019416 0.000000 
-0.000000 -6.019416 0.000000 
0.000000 -6.019416 0.000000 
-0.000000 -6.019416 0.000000 
-0.000000 -6.019416 0.000000 
0.000000 -6.019416 0.000000 
-0.000000 -6.019416 0.000000 
0.000000 -6.019416 0.000000 
-0.000000 -6.019416 0.000000 
0.000000 -6.019416 0.000000 
-0.000000 -6.019416 0.000000 
0.000000 -6.019416 0.000000 
-0.000000 -6.019416 0.000000 
-0.000000 -6.019416 0.000000 
-0.000000 -6.019416 0.000000 
-0.000000 -6.019416 0.000000 
0.000000 -6.019416 0.000000 
-0.000000 -6.019416 0.000000 
0.000000 -6.019416 0.000000 
0.000000 -6.019416 0.000000 
-0.000000 -6.019416 0.000000 
-0.000000 -6.019416 0.000000 
0.000000 -6.019416 0.000000 
0.000000 -6.019416 0.000000 
-0.000000 -6.019416 0.000000 
-0.000000 -6.019416 0.000000 
-0.000000 -6.019416 0.000000 
-0.000000 -6.019416 0.000000 
0.000000 -6.019416 0.000000 
0.000000 -6.019416 0.000000 
0.000000 -6.019416 0.000000 
0.000000 -6.019416 0.000000 
-0.000000 -6.019416 0.000000 
-0.000000 -6.019416 0.000000 
-0.000000 -6.019416 0.000000 
0.000000 -6.019416 0.000000 
0.000000 -6.019416 0.000000 
-0.000000 -6.019416 0.000000 
0.000000 -6.019416 0.000000 
0.000000 -6.019416 0.000000 
0.000000 -6.019416 0.000000 
-0.000000 -6.019416 0.000000 
0.000000 -6.019416 0.000000 
-0.000000 -6.019416 0.000000 
-0.000000 -6.019416 0.000000 
-0.000000 -6.019416 0.000000 
-0.000000 -6.019416 0.000000 
-0.000000 -6.019416 0.000000 
-0.000000 -6.019416 0.000000 
0.000000 -6.019416 0.000000 
-0.000000 -6.019416 0.000000 
-0.000000 -6.019416 0.000000 
-0.000000 -6.019416 0.000000 
-0.000000 -6.019416 0.000000 
0.000000 -6.019416 0.000000 
0.000000 -6.019416 0.000000 
0.000000 -6.019416 0.000000 
0.000000 -6.019416 0.000000 
0.000000 -6.019416 0.000000 
-0.000000 -6.019416 0.000000 
0.000000 -6.019416 0.000000 
-0.000000 -6.019416 0.000000 
0.000000 -6.019416 0.000000 
-0.000000 -6.019416 0.000000 
0.000000 -6.019416 0.000000 
0.000000 -6.019416 0.000000 
0.000000 -6.019416 0.000000 
0.000000 -6.019416 0.000000 
-0.000000 -6.019416 0.000000 
-0.000000 -6.019416 0.000000 
0.000000 -6.019416 0.000000 
0.000000 -6.019416 0.000000 
0.000000 -6.019416 0.000000 
-0.000000 -6.019416 0.000000 
-0.000000 -6.019416 0.000000 
0.000000 -6.019416 0.000000 
0.000000 -6.019416 0.000000 
0.000000 -6.019416 0.000000 
0.000000 -6.019416 0.000000 
-0.000000 -6.019416 0.000000 
0.000000 -6.019416 0.000000 
0.000000 -6.019416 0.000000 
0.000000 -6.019416 0.000000 
-0.000000 -6.019416 0.000000 
0.000000 -6.019416 0.000000 
-0.000000 -6.019416 0.000000 
0.000000 -6.019416 0.000000 
0.000000 -6.019416 0.000000 
0.000000 -6.019416 0.000000 
0.000000 -6.019416 0.000000 
0.000000 -6.019416 0.000000 
TENSORS STRESS float 
-0.000000 -0.000000 0.000000 
0.000000 0.000000 0.000000 
0.000000 0.000000 0.000000 

-0.000000 0.000000 0.000000 
0.000000 0.000000 0.000000 
0.000000 0.000000 0.000000 

-0.000000 0.000000 0.000000 
0.000000 -0.000000 0.000000 
0.000000 0.000000 0.000000 

-0.000000 -0.000000 0.000000 
0.000000 -0.000000 0.000000 
0.000000 0.000000 0.000000 

-0.000000 -0.000000 0.000000 
0.000000 -0.000000 0.000000 
0.000000 0.000000 0.000000 

-0.000000 -0.000000 0.000000 
0.000000 0.000000 0.000000 
0.000000 0.000000 0.000000 

-0.000000 0.000000 0.000000 
0.000000 0.000000 0.000000 
0.000000 0.000000 0.000000 

-0.000000 -0.000000 0.000000 
0.000000 -0.000000 0.000000 
0.000000 0.000000 0.000000 

-0.000000 -0.000000 0.000000 
0.000000 -0.000000 0.000000 
0.000000 0.000000 0.000000 

0.000000 -0.000000 0.000000 
0.000000 0.000000 0.000000 
0.000000 0.000000 0.000000 

-0.000000 0.000000 0.000000 
0.000000 -0.000000 0.000000 
0.000000 0.000000 0.000000 

-0.000000 0.000000 0.000000 
0.000000 0.000000 0.000000 
0.000000 0.000000 0.000000 

-0.000000 0.000000 0.000000 
0.000000 0.000000 0.000000 
0.000000 0.000000 0.000000 

-0.000000 -0.000000 0.000000 
0.000000 -0.000000 0.000000 
0.000000 0.000000 0.000000 

0.000000 -0.000000 0.000000 
0.000000 0.000000 0.000000 
0.000000 0.000000 0.000000 

-0.000000 0.000000 0.000000 
0.000000 -0.000000 0.000000 
0.000000 0.000000 0.000000 

0.000000 0.000000 0.000000 
0.000000 0.000000 0.000000 
0.000000 0.000000 0.000000 

0.000000 -0.000000 0.000000 
0.000000 0.000000 0.000000 
0.000000 0.000000 0.000000 

-0.000000 0.000000 0.000000 
0.000000 0.000000 0.000000 
0.000000 0.000000 0.000000 

-0.000000 -0.000000 0.000000 
0.000000 0.000000 0.000000 
0.000000 0.000000 0.000000 

0.000000 -0.000000 0.000000 
0.000000 0.000000 0.000000 
0.000000 0.000000 0.000000 

-0.000000 -0.000000 0.000000 
0.000000 -0.000000 0.000000 
0.000000 0.000000 0.000000 

-0.000000 0.000000 0.000000 
0.000000 -0.000000 0.000000 
0.000000 0.000000 0.000000 

0.000000 0.000000 0.000000 
0.000000 0.000000 0.000000 
0.000000 0.000000 0.000000 

-0.000000 0.000000 0.000000 
0.000000 0.000000 0.000000 
0.000000 0.000000 0.000000 

0.000000 -0.000000 0.000000 
0.000000 0.000000 0.000000 
0.000000 0.000000 0.000000 

0.000000 -0.000000 0.000000 
0.000000 0.000000 0.000000 
0.000000 0.000000 0.000000 

0.000000 -0.000000 0.000000 
0.000000 0.000000 0.000000 
0.000000 0.000000 0.000000 

-0.000000 -0.000000 0.000000 
0.000000 -0.000000 0.000000 
0.000000 0.000000 0.000000 

-0.000000 0.000000 0.000000 
0.000000 0.000000 0.000000 
0.000000 0.000000 0.000000 

-0.000000 -0.000000 0.000000 
0.000000 -0.000000 0.000000 
0.000000 0.000000 0.000000 

-0.000000 -0.000000 0.000000 
0.000000 0.000000 0.000000 
0.000000 0.000000 0.000000 

-0.000000 0.000000 0.000000 
0.000000 0.000000 0.000000 
0.000000 0.000000 0.000000 

0.000000 -0.000000 0.000000 
0.000000 0.000000 0.000000 
0.000000 0.000000 0.000000 

-0.000000 0.000000 0.000000 
0.000000 0.000000 0.000000 
0.000000 0.000000 0.000000 

-0.000000 0.000000 0.000000 
0.000000 -0.000000 0.000000 
0.000000 0.000000 0.000000 

0.000000 -0.000000 0.000000 
0.000000 0.000000 0.000000 
0.000000 0.000000 0.000000 

-0.000000 0.000000 0.000000 
0.000000 0.000000 0.000000 
0.000000 0.000000 0.000000 

-0.000000 0.000000 0.000000 
0.000000 -0.000000 0.000000 
0.000000 0.000000 0.000000 

-0.000000 0.000000 0.000000 
0.000000 -0.000000 0.000000 
0.000000 0.000000 0.000000 

0.000000 0.000000 0.000000 
0.000000 0.000000 0.000000 
0.000000 0.000000 0.000000 

-0.000000 0.000000 0.000000 
0.000000 -0.000000 0.000000 
0.000000 0.000000 0.000000 

-0.000000 -0.000000 0.000000 
0.000000 0.000000 0.000000 
0.000000 0.000000 0.000000 

-0.000000 -0.000000 0.000000 
0.000000 -0.000000 0.000000 
0.000000 0.000000 0.000000 

-0.000000 0.000000 0.000000 
0.000000 -0.000000 0.000000 
0.000000 0.000000 0.000000 

-0.000000 -0.000000 0.000000 
0.000000 -0.000000 0.000000 
0.000000 0.000000 0.000000 

-0.000000 -0.000000 0.000000 
0.000000 0.000000 0.000000 
0.000000 0.000000 0.000000 

-0.000000 -0.000000 0.000000 
0.000000 -0.000000 0.000000 
0.000000 0.000000 0.000000 

0.000000 -0.000000 0.000000 
0.000000 0.000000 0.000000 
0.000000 0.000000 0.000000 

-0.000000 -0.000000 0.000000 
0.000000 -0.000000 0.000000 
0.000000 0.000000 0.000000 

-0.000000 -0.000000 0.000000 
0.000000 0.000000 0.000000 
0.000000 0.000000 0.000000 

-0.000000 -0.000000 0.000000 
0.000000 0.000000 0.000000 
0.000000 0.000000 0.000000 

-0.000000 0.000000 0.000000 
0.000000 0.000000 0.000000 
0.000000 0.000000 0.000000 

-0.000000 0.000000 0.000000 
0.000000 0.000000 0.000000 
0.000000 0.000000 0.000000 

-0.000000 0.000000 0.000000 
0.000000 -0.000000 0.000000 
0.000000 0.000000 0.000000 

-0.000000 0.000000 0.000000 
0.000000 -0.000000 0.000000 
0.000000 0.000000 0.000000 

0.000000 0.000000 0.000000 
0.000000 0.000000 0.000000 
0.000000 0.000000 0.000000 

-0.000000 0.000000 0.000000 
0.000000 -0.000000 0.000000 
0.000000 0.000000 0.000000 

-0.000000 0.000000 0.000000 
0.000000 -0.000000 0.000000 
0.000000 0.000000 0.000000 

-0.000000 -0.000000 0.000000 
0.000000 -0.000000 0.000000 
0.000000 0.000000 0.000000 

0.000000 0.000000 0.000000 
0.000000 0.000000 0.000000 
0.000000 0.000000 0.000000 

-0.000000 0.000000 0.000000 
0.000000 -0.000000 0.000000 
0.000000 0.000000 0.000000 

-0.000000 0.000000 0.000000 
0.000000 0.000000 0.000000 
0.000000 0.000000 0.000000 

0.000000 -0.000000 0.000000 
0.000000 0.000000 0.000000 
0.000000 0.000000 0.000000 

0.000000 0.000000 0.000000 
0.000000 0.000000 0.000000 
0.000000 0.000000 0.000000 

0.000000 0.000000 0.000000 
0.000000 0.000000 0.000000 
0.000000 0.000000 0.000000 

0.000000 -0.000000 0.000000 
0.000000 0.000000 0.000000 
0.000000 0.000000 0.000000 

-0.000000 0.000000 0.000000 
0.000000 0.000000 0.000000 
0.000000 0.000000 0.000000 

-0.000000 0.000000 0.000000 
0.000000 -0.000000 0.000000 
0.000000 0.000000 0.000000 

0.000000 -0.000000 0.000000 
0.000000 0.000000 0.000000 
0.000000 0.000000 0.000000 

-0.000000 0.000000 0.000000 
0.000000 0.000000 0.000000 
0.000000 0.000000 0.000000 

-0.000000 -0.000000 0.000000 
0.000000 -0.000000 0.000000 
0.000000 0.000000 0.000000 

0.000000 -0.000000 0.000000 
0.000000 0.000000 0.000000 
0.000000 0.000000 0.000000 

-0.000000 0.000000 0.000000 
0.000000 -0.000000 0.000000 
0.000000 0.000000 0.000000 

-0.000000 -0.000000 0.000000 
0.000000 0.000000 0.000000 
0.000000 0.000000 0.000000 

-0.000000 0.000000 0.000000 
0.000000 -0.000000 0.000000 
0.000000 0.000000 0.000000 

0.000000 0.000000 0.000000 
0.000000 -0.000000 0.000000 
0.000000 0.000000 0.000000 

0.000000 -0.000000 0.000000 
0.000000 0.000000 0.000000 
0.000000 0.000000 0.000000 

0.000000 -0.000000 0.000000 
0.000000 -0.000000 0.000000 
0.000000 0.000000 0.000000 

0.000000 -0.000000 0.000000 
0.000000 0.000000 0.000000 
0.000000 0.000000 0.000000 

0.000000 -0.000000 0.000000 
0.000000 -0.000000 0.000000 
0.000000 0.000000 0.000000 

0.000000 -0.000000 0.000000 
0.000000 -0.000000 0.000000 
0.000000 0.000000 0.000000 

0.000000 0.000000 0.000000 
0.000000 -0.000000 0.000000 
0.000000 0.000000 0.000000 

-0.000000 -0.000000 0.000000 
0.000000 0.000000 0.000000 
0.000000 0.000000 0.000000 

0.000000 0.000000 0.000000 
0.000000 0.000000 0.000000 
0.000000 0.000000 0.000000 

-0.000000 0.000000 0.000000 
0.000000 -0.000000 0.000000 
0.000000 0.000000 0.000000 

0.000000 0.000000 0.000000 
0.000000 0.000000 0.000000 
0.000000 0.000000 0.000000 

-0.000000 -0.000000 0.000000 
0.000000 -0.000000 0.000000 
0.000000 0.000000 0.000000 

-0.000000 -0.000000 0.000000 
0.000000 -0.000000 0.000000 
0.000000 0.000000 0.000000 

0.000000 0.000000 0.000000 
0.000000 0.000000 0.000000 
0.000000 0.000000 0.000000 

0.000000 -0.000000 0.000000 
0.000000 0.000000 0.000000 
0.000000 0.000000 0.000000 

-0.000000 -0.000000 0.000000 
0.000000 -0.000000 0.000000 
0.000000 0.000000 0.000000 

-0.000000 0.000000 0.000000 
0.000000 -0.000000 0.000000 
0.000000 0.000000 0.000000 

0.000000 0.000000 0.000000 
0.000000 -0.000000 0.000000 
0.000000 0.000000 0.000000 

-0.000000 -0.000000 0.000000 
0.000000 -0.000000 0.000000 
0.000000 0.000000 0.000000 

0.000000 0.000000 0.000000 
0.000000 0.000000 0.000000 
0.000000 0.000000 0.000000 

0.000000 0.000000 0.000000 
0.000000 0.000000 0.000000 
0.000000 0.000000 0.000000 

0.000000 0.000000 0.000000 
0.000000 0.000000 0.000000 
0.000000 0.000000 0.000000 

0.000000 -0.000000 0.000000 
0.000000 0.000000 0.000000 
0.000000 0.000000 0.000000 

0.000000 -0.000000 0.000000 
0.000000 -0.000000 0.000000 
0.000000 0.000000 0.000000 

-0.000000 0.000000 0.000000 
0.000000 -0.000000 0.000000 
0.000000 0.000000 0.000000 

0.000000 0.000000 0.000000 
0.000000 0.000000 0.000000 
0.000000 0.000000 0.000000 

0.000000 -0.000000 0.000000 
0.000000 0.000000 0.000000 
0.000000 0.000000 0.000000 

-0.000000 0.000000 0.000000 
0.000000 -0.000000 0.000000 
0.000000 0.000000 0.000000 

-0.000000 0.000000 0.000000 
0.000000 -0.000000 0.000000 
0.000000 0.000000 0.000000 

-0.000000 -0.000000 0.000000 
0.000000 -0.000000 0.000000 
0.000000 0.000000 0.000000 

-0.000000 0.000000 0.000000 
0.000000 0.000000 0.000000 
0.000000 0.000000 0.000000 

-0.000000 -0.000000 0.000000 
0.000000 -0.000000 0.000000 
0.000000 0.000000 0.000000 

0.000000 -0.000000 0.000000 
0.000000 0.000000 0.000000 
0.000000 0.000000 0.000000 

0.000000 0.000000 0.000000 
0.000000 -0.000000 0.000000 
0.000000 0.000000 0.000000 

0.000000 0.000000 0.000000 
0.000000 0.000000 0.000000 
0.000000 0.000000 0.000000 

-0.000000 -0.000000 0.000000 
0.000000 -0.000000 0.000000 
0.000000 0.000000 0.000000 

-0.000000 0.000000 0.000000 
0.000000 -0.000000 0.000000 
0.000000 0.000000 0.000000 

-0.000000 -0.000000 0.000000 
0.000000 -0.000000 0.000000 
0.000000 0.000000 0.000000 

0.000000 -0.000000 0.000000 
0.000000 0.000000 0.000000 
0.000000 0.000000 0.000000 

-0.000000 0.000000 0.000000 
0.000000 -0.000000 0.000000 
0.000000 0.000000 0.000000 

-0.000000 -0.000000 0.000000 
0.000000 -0.000000 0.000000 
0.000000 0.000000 0.000000 

0.000000 0.000000 0.000000 
0.000000 0.000000 0.000000 
0.000000 0.000000 0.000000 

0.000000 0.000000 0.000000 
0.000000 0.000000 0.000000 
0.000000 0.000000 0.000000 

0.000000 -0.000000 0.000000 
0.000000 0.000000 0.000000 
0.000000 0.000000 0.000000 

-0.000000 0.000000 0.000000 
0.000000 -0.000000 0.000000 
0.000000 0.000000 0.000000 

0.000000 0.000000 0.000000 
0.000000 0.000000 0.000000 
0.000000 0.000000 0.000000 

0.000000 -0.000000 0.000000 
0.000000 0.000000 0.000000 
0.000000 0.000000 0.000000 

0.000000 -0.000000 0.000000 
0.000000 -0.000000 0.000000 
0.000000 0.000000 0.000000 

-0.000000 0.000000 0.000000 
0.000000 -0.000000 0.000000 
0.000000 0.000000 0.000000 

-0.000000 -0.000000 0.000000 
0.000000 0.000000 0.000000 
0.000000 0.000000 0.000000 

-0.000000 0.000000 0.000000 
0.000000 -0.000000 0.000000 
0.000000 0.000000 0.000000 

-0.000000 -0.000000 0.000000 
0.000000 -0.000000 0.000000 
0.000000 0.000000 0.000000 

-0.000000 -0.000000 0.000000 
0.000000 -0.000000 0.000000 
0.000000 0.000000 0.000000 

-0.000000 0.000000 0.000000 
0.000000 -0.000000 0.000000 
0.000000 0.000000 0.000000 

-0.000000 0.000000 0.000000 
0.000000 -0.000000 0.000000 
0.000000 0.000000 0.000000 

-0.000000 -0.000000 0.000000 
0.000000 -0.000000 0.000000 
0.000000 0.000000 0.000000 

-0.000000 -0.000000 0.000000 
0.000000 0.000000 0.000000 
0.000000 0.000000 0.000000 

0.000000 0.000000 0.000000 
0.000000 -0.000000 0.000000 
0.000000 0.000000 0.000000 

-0.000000 -0.000000 0.000000 
0.000000 -0.000000 0.000000 
0.000000 0.000000 0.000000 

0.000000 -0.000000 0.000000 
0.000000 -0.000000 0.000000 
0.000000 0.000000 0.000000 

0.000000 0.000000 0.000000 
0.000000 -0.000000 0.000000 
0.000000 0.000000 0.000000 

0.000000 0.000000 0.000000 
0.000000 0.000000 0.000000 
0.000000 0.000000 0.000000 

0.000000 -0.000000 0.000000 
0.000000 0.000000 0.000000 
0.000000 0.000000 0.000000 

0.000000 -0.000000 0.000000 
0.000000 -0.000000 0.000000 
0.000000 0.000000 0.000000 

0.000000 -0.000000 0.000000 
0.000000 -0.000000 0.000000 
0.000000 0.000000 0.000000 

0.000000 0.000000 0.000000 
0.000000 0.000000 0.000000 
0.000000 0.000000 0.000000 

-0.000000 0.000000 0.000000 
0.000000 -0.000000 0.000000 
0.000000 0.000000 0.000000 

-0.000000 0.000000 0.000000 
0.000000 -0.000000 0.000000 
0.000000 0.000000 0.000000 

-0.000000 0.000000 0.000000 
0.000000 -0.000000 0.000000 
0.000000 0.000000 0.000000 

0.000000 -0.000000 0.000000 
0.000000 0.000000 0.000000 
0.000000 0.000000 0.000000 

0.000000 -0.000000 0.000000 
0.000000 0.000000 0.000000 
0.000000 0.000000 0.000000 

0.000000 -0.000000 0.000000 
0.000000 0.000000 0.000000 
0.000000 0.000000 0.000000 

-0.000000 0.000000 0.000000 
0.000000 -0.000000 0.000000 
0.000000 0.000000 0.000000 

-0.000000 0.000000 0.000000 
0.000000 -0.000000 0.000000 
0.000000 0.000000 0.000000 

-0.000000 -0.000000 0.000000 
0.000000 0.000000 0.000000 
0.000000 0.000000 0.000000 

-0.000000 -0.000000 0.000000 
0.000000 -0.000000 0.000000 
0.000000 0.000000 0.000000 

-0.000000 -0.000000 0.000000 
0.000000 0.000000 0.000000 
0.000000 0.000000 0.000000 

-0.000000 -0.000000 0.000000 
0.000000 -0.000000 0.000000 
0.000000 0.000000 0.000000 

0.000000 -0.000000 0.000000 
0.000000 0.000000 0.000000 
0.000000 0.000000 0.000000 

0.000000 -0.000000 0.000000 
0.000000 0.000000 0.000000 
0.000000 0.000000 0.000000 

-0.000000 0.000000 0.000000 
0.000000 0.000000 0.000000 
0.000000 0.000000 0.000000 

-0.000000 -0.000000 0.000000 
0.000000 -0.000000 0.000000 
0.000000 0.000000 0.000000 

-0.000000 0.000000 0.000000 
0.000000 0.000000 0.000000 
0.000000 0.000000 0.000000 

0.000000 0.000000 0.000000 
0.000000 -0.000000 0.000000 
0.000000 0.000000 0.000000 

0.000000 -0.000000 0.000000 
0.000000 0.000000 0.000000 
0.000000 0.000000 0.000000 

-0.000000 0.000000 0.000000 
0.000000 0.000000 0.000000 
0.000000 0.000000 0.000000 

-0.000000 -0.000000 0.000000 
0.000000 0.000000 0.000000 
0.000000 0.000000 0.000000 

-0.000000 -0.000000 0.000000 
0.000000 0.000000 0.000000 
0.000000 0.000000 0.000000 

-0.000000 0.000000 0.000000 
0.000000 0.000000 0.000000 
0.000000 0.000000 0.000000 

-0.000000 -0.000000 0.000000 
0.000000 -0.000000 0.000000 
0.000000 0.000000 0.000000 

0.000000 0.000000 0.000000 
0.000000 0.000000 0.000000 
0.000000 0.000000 0.000000 

0.000000 -0.000000 0.000000 
0.000000 0.000000 0.000000 
0.000000 0.000000 0.000000 

0.000000 0.000000 0.000000 
0.000000 0.000000 0.000000 
0.000000 0.000000 0.000000 

-0.000000 0.000000 0.000000 
0.000000 -0.000000 0.000000 
0.000000 0.000000 0.000000 

-0.000000 0.000000 0.000000 
0.000000 -0.000000 0.000000 
0.000000 0.000000 0.000000 

-0.000000 0.000000 0.000000 
0.000000 -0.000000 0.000000 
0.000000 0.000000 0.000000 

-0.000000 -0.000000 0.000000 
0.000000 0.000000 0.000000 
0.000000 0.000000 0.000000 

-0.000000 -0.000000 0.000000 
0.000000 0.000000 0.000000 
0.000000 0.000000 0.000000 

-0.000000 -0.000000 0.000000 
0.000000 0.000000 0.000000 
0.000000 0.000000 0.000000 

TENSORS STRAIN float 
-0.000000 -0.000000 0.000000 
0.000000 0.000000 0.000000 
0.000000 0.000000 0.000000 

-0.000000 0.000000 0.000000 
0.000000 0.000000 0.000000 
0.000000 0.000000 0.000000 

-0.000000 0.000000 0.000000 
0.000000 -0.000000 0.000000 
0.000000 0.000000 0.000000 

-0.000000 -0.000000 0.000000 
0.000000 -0.000000 0.000000 
0.000000 0.000000 0.000000 

-0.000000 -0.000000 0.000000 
0.000000 -0.000000 0.000000 
0.000000 0.000000 0.000000 

-0.000000 -0.000000 0.000000 
0.000000 0.000000 0.000000 
0.000000 0.000000 0.000000 

-0.000000 0.000000 0.000000 
0.000000 0.000000 0.000000 
0.000000 0.000000 0.000000 

-0.000000 -0.000000 0.000000 
0.000000 -0.000000 0.000000 
0.000000 0.000000 0.000000 

0.000000 -0.000000 0.000000 
0.000000 -0.000000 0.000000 
0.000000 0.000000 0.000000 

0.000000 -0.000000 0.000000 
0.000000 0.000000 0.000000 
0.000000 0.000000 0.000000 

-0.000000 0.000000 0.000000 
0.000000 -0.000000 0.000000 
0.000000 0.000000 0.000000 

-0.000000 0.000000 0.000000 
0.000000 0.000000 0.000000 
0.000000 0.000000 0.000000 

-0.000000 0.000000 0.000000 
0.000000 0.000000 0.000000 
0.000000 0.000000 0.000000 

-0.000000 -0.000000 0.000000 
0.000000 0.000000 0.000000 
0.000000 0.000000 0.000000 

0.000000 -0.000000 0.000000 
0.000000 -0.000000 0.000000 
0.000000 0.000000 0.000000 

0.000000 0.000000 0.000000 
0.000000 -0.000000 0.000000 
0.000000 0.000000 0.000000 

0.000000 0.000000 0.000000 
0.000000 0.000000 0.000000 
0.000000 0.000000 0.000000 

0.000000 -0.000000 0.000000 
0.000000 0.000000 0.000000 
0.000000 0.000000 0.000000 

-0.000000 0.000000 0.000000 
0.000000 0.000000 0.000000 
0.000000 0.000000 0.000000 

-0.000000 -0.000000 0.000000 
0.000000 0.000000 0.000000 
0.000000 0.000000 0.000000 

-0.000000 -0.000000 0.000000 
0.000000 0.000000 0.000000 
0.000000 0.000000 0.000000 

-0.000000 -0.000000 0.000000 
0.000000 0.000000 0.000000 
0.000000 0.000000 0.000000 

-0.000000 0.000000 0.000000 
0.000000 -0.000000 0.000000 
0.000000 0.000000 0.000000 

-0.000000 0.000000 0.000000 
0.000000 0.000000 0.000000 
0.000000 0.000000 0.000000 

-0.000000 0.000000 0.000000 
0.000000 0.000000 0.000000 
0.000000 0.000000 0.000000 

-0.000000 -0.000000 0.000000 
0.000000 0.000000 0.000000 
0.000000 0.000000 0.000000 

-0.000000 -0.000000 0.000000 
0.000000 0.000000 0.000000 
0.000000 0.000000 0.000000 

-0.000000 -0.000000 0.000000 
0.000000 0.000000 0.000000 
0.000000 0.000000 0.000000 

-0.000000 -0.000000 0.000000 
0.000000 -0.000000 0.000000 
0.000000 0.000000 0.000000 

-0.000000 0.000000 0.000000 
0.000000 0.000000 0.000000 
0.000000 0.000000 0.000000 

-0.000000 -0.000000 0.000000 
0.000000 -0.000000 0.000000 
0.000000 0.000000 0.000000 

-0.000000 -0.000000 0.000000 
0.000000 0.000000 0.000000 
0.000000 0.000000 0.000000 

-0.000000 0.000000 0.000000 
0.000000 0.000000 0.000000 
0.000000 0.000000 0.000000 

-0.000000 -0.000000 0.000000 
0.000000 0.000000 0.000000 
0.000000 0.000000 0.000000 

-0.000000 0.000000 0.000000 
0.000000 0.000000 0.000000 
0.000000 0.000000 0.000000 

-0.000000 0.000000 0.000000 
0.000000 0.000000 0.000000 
0.000000 0.000000 0.000000 

-0.000000 -0.000000 0.000000 
0.000000 0.000000 0.000000 
0.000000 0.000000 0.000000 

-0.000000 0.000000 0.000000 
0.000000 0.000000 0.000000 
0.000000 0.000000 0.000000 

-0.000000 0.000000 0.000000 
0.000000 -0.000000 0.000000 
0.000000 0.000000 0.000000 

-0.000000 0.000000 0.000000 
0.000000 -0.000000 0.000000 
0.000000 0.000000 0.000000 

-0.000000 0.000000 0.000000 
0.000000 0.000000 0.000000 
0.000000 0.000000 0.000000 

-0.000000 0.000000 0.000000 
0.000000 -0.000000 0.000000 
0.000000 0.000000 0.000000 

-0.000000 -0.000000 0.000000 
0.000000 0.000000 0.000000 
0.000000 0.000000 0.000000 

-0.000000 -0.000000 0.000000 
0.000000 0.000000 0.000000 
0.000000 0.000000 0.000000 

-0.000000 0.000000 0.000000 
0.000000 -0.000000 0.000000 
0.000000 0.000000 0.000000 

-0.000000 -0.000000 0.000000 
0.000000 -0.000000 0.000000 
0.000000 0.000000 0.000000 

-0.000000 -0.000000 0.000000 
0.000000 0.000000 0.000000 
0.000000 0.000000 0.000000 

0.000000 -0.000000 0.000000 
0.000000 -0.000000 0.000000 
0.000000 0.000000 0.000000 

0.000000 -0.000000 0.000000 
0.000000 0.000000 0.000000 
0.000000 0.000000 0.000000 

0.000000 -0.000000 0.000000 
0.000000 -0.000000 0.000000 
0.000000 0.000000 0.000000 

-0.000000 -0.000000 0.000000 
0.000000 0.000000 0.000000 
0.000000 0.000000 0.000000 

-0.000000 -0.000000 0.000000 
0.000000 0.000000 0.000000 
0.000000 0.000000 0.000000 

-0.000000 0.000000 0.000000 
0.000000 0.000000 0.000000 
0.000000 0.000000 0.000000 

-0.000000 0.000000 0.000000 
0.000000 0.000000 0.000000 
0.000000 0.000000 0.000000 

-0.000000 0.000000 0.000000 
0.000000 -0.000000 0.000000 
0.000000 0.000000 0.000000 

-0.000000 0.000000 0.000000 
0.000000 -0.000000 0.000000 
0.000000 0.000000 0.000000 

-0.000000 0.000000 0.000000 
0.000000 0.000000 0.000000 
0.000000 0.000000 0.000000 

-0.000000 0.000000 0.000000 
0.000000 -0.000000 0.000000 
0.000000 0.000000 0.000000 

0.000000 0.000000 0.000000 
0.000000 -0.000000 0.000000 
0.000000 0.000000 0.000000 

0.000000 -0.000000 0.000000 
0.000000 -0.000000 0.000000 
0.000000 0.000000 0.000000 

-0.000000 0.000000 0.000000 
0.000000 0.000000 0.000000 
0.000000 0.000000 0.000000 

-0.000000 0.000000 0.000000 
0.000000 -0.000000 0.000000 
0.000000 0.000000 0.000000 

-0.000000 0.000000 0.000000 
0.000000 0.000000 0.000000 
0.000000 0.000000 0.000000 

-0.000000 -0.000000 0.000000 
0.000000 0.000000 0.000000 
0.000000 0.000000 0.000000 

0.000000 0.000000 0.000000 
0.000000 0.000000 0.000000 
0.000000 0.000000 0.000000 

0.000000 0.000000 0.000000 
0.000000 0.000000 0.000000 
0.000000 0.000000 0.000000 

0.000000 -0.000000 0.000000 
0.000000 0.000000 0.000000 
0.000000 0.000000 0.000000 

-0.000000 0.000000 0.000000 
0.000000 0.000000 0.000000 
0.000000 0.000000 0.000000 

-0.000000 0.000000 0.000000 
0.000000 -0.000000 0.000000 
0.000000 0.000000 0.000000 

-0.000000 -0.000000 0.000000 
0.000000 0.000000 0.000000 
0.000000 0.000000 0.000000 

-0.000000 0.000000 0.000000 
0.000000 0.000000 0.000000 
0.000000 0.000000 0.000000 

-0.000000 -0.000000 0.000000 
0.000000 -0.000000 0.000000 
0.000000 0.000000 0.000000 

0.000000 -0.000000 0.000000 
0.000000 0.000000 0.000000 
0.000000 0.000000 0.000000 

-0.000000 0.000000 0.000000 
0.000000 -0.000000 0.000000 
0.000000 0.000000 0.000000 

-0.000000 -0.000000 0.000000 
0.000000 0.000000 0.000000 
0.000000 0.000000 0.000000 

-0.000000 0.000000 0.000000 
0.000000 -0.000000 0.000000 
0.000000 0.000000 0.000000 

0.000000 0.000000 0.000000 
0.000000 -0.000000 0.000000 
0.000000 0.000000 0.000000 

0.000000 -0.000000 0.000000 
0.000000 -0.000000 0.000000 
0.000000 0.000000 0.000000 

0.000000 -0.000000 0.000000 
0.000000 -0.000000 0.000000 
0.000000 0.000000 0.000000 

0.000000 -0.000000 0.000000 
0.000000 -0.000000 0.000000 
0.000000 0.000000 0.000000 

0.000000 -0.000000 0.000000 
0.000000 -0.000000 0.000000 
0.000000 0.000000 0.000000 

0.000000 -0.000000 0.000000 
0.000000 -0.000000 0.000000 
0.000000 0.000000 0.000000 

0.000000 0.000000 0.000000 
0.000000 -0.000000 0.000000 
0.000000 0.000000 0.000000 

-0.000000 -0.000000 0.000000 
0.000000 0.000000 0.000000 
0.000000 0.000000 0.000000 

-0.000000 0.000000 0.000000 
0.000000 0.000000 0.000000 
0.000000 0.000000 0.000000 

0.000000 0.000000 0.000000 
0.000000 -0.000000 0.000000 
0.000000 0.000000 0.000000 

0.000000 0.000000 0.000000 
0.000000 0.000000 0.000000 
0.000000 0.000000 0.000000 

0.000000 -0.000000 0.000000 
0.000000 -0.000000 0.000000 
0.000000 0.000000 0.000000 

0.000000 -0.000000 0.000000 
0.000000 -0.000000 0.000000 
0.000000 0.000000 0.000000 

0.000000 0.000000 0.000000 
0.000000 0.000000 0.000000 
0.000000 0.000000 0.000000 

0.000000 -0.000000 0.000000 
0.000000 0.000000 0.000000 
0.000000 0.000000 0.000000 

-0.000000 -0.000000 0.000000 
0.000000 -0.000000 0.000000 
0.000000 0.000000 0.000000 

0.000000 0.000000 0.000000 
0.000000 -0.000000 0.000000 
0.000000 0.000000 0.000000 

0.000000 0.000000 0.000000 
0.000000 -0.000000 0.000000 
0.000000 0.000000 0.000000 

-0.000000 -0.000000 0.000000 
0.000000 -0.000000 0.000000 
0.000000 0.000000 0.000000 

0.000000 0.000000 0.000000 
0.000000 0.000000 0.000000 
0.000000 0.000000 0.000000 

-0.000000 0.000000 0.000000 
0.000000 0.000000 0.000000 
0.000000 0.000000 0.000000 

0.000000 0.000000 0.000000 
0.000000 0.000000 0.000000 
0.000000 0.000000 0.000000 

0.000000 -0.000000 0.000000 
0.000000 -0.000000 0.000000 
0.000000 0.000000 0.000000 

0.000000 -0.000000 0.000000 
0.000000 -0.000000 0.000000 
0.000000 0.000000 0.000000 

-0.000000 0.000000 0.000000 
0.000000 -0.000000 0.000000 
0.000000 0.000000 0.000000 

-0.000000 0.000000 0.000000 
0.000000 0.000000 0.000000 
0.000000 0.000000 0.000000 

-0.000000 -0.000000 0.000000 
0.000000 0.000000 0.000000 
0.000000 0.000000 0.000000 

-0.000000 0.000000 0.000000 
0.000000 -0.000000 0.000000 
0.000000 0.000000 0.000000 

0.000000 0.000000 0.000000 
0.000000 -0.000000 0.000000 
0.000000 0.000000 0.000000 

-0.000000 -0.000000 0.000000 
0.000000 0.000000 0.000000 
0.000000 0.000000 0.000000 

-0.000000 0.000000 0.000000 
0.000000 0.000000 0.000000 
0.000000 0.000000 0.000000 

-0.000000 -0.000000 0.000000 
0.000000 0.000000 0.000000 
0.000000 0.000000 0.000000 

0.000000 -0.000000 0.000000 
0.000000 0.000000 0.000000 
0.000000 0.000000 0.000000 

0.000000 0.000000 0.000000 
0.000000 -0.000000 0.000000 
0.000000 0.000000 0.000000 

0.000000 0.000000 0.000000 
0.000000 0.000000 0.000000 
0.000000 0.000000 0.000000 

-0.000000 -0.000000 0.000000 
0.000000 -0.000000 0.000000 
0.000000 0.000000 0.000000 

-0.000000 0.000000 0.000000 
0.000000 -0.000000 0.000000 
0.000000 0.000000 0.000000 

-0.000000 -0.000000 0.000000 
0.000000 -0.000000 0.000000 
0.000000 0.000000 0.000000 

0.000000 -0.000000 0.000000 
0.000000 0.000000 0.000000 
0.000000 0.000000 0.000000 

0.000000 0.000000 0.000000 
0.000000 -0.000000 0.000000 
0.000000 0.000000 0.000000 

-0.000000 -0.000000 0.000000 
0.000000 -0.000000 0.000000 
0.000000 0.000000 0.000000 

0.000000 0.000000 0.000000 
0.000000 0.000000 0.000000 
0.000000 0.000000 0.000000 

-0.000000 0.000000 0.000000 
0.000000 0.000000 0.000000 
0.000000 0.000000 0.000000 

-0.000000 -0.000000 0.000000 
0.000000 0.000000 0.000000 
0.000000 0.000000 0.000000 

-0.000000 0.000000 0.000000 
0.000000 -0.000000 0.000000 
0.000000 0.000000 0.000000 

-0.000000 0.000000 0.000000 
0.000000 0.000000 0.000000 
0.000000 0.000000 0.000000 

0.000000 -0.000000 0.000000 
0.000000 0.000000 0.000000 
0.000000 0.000000 0.000000 

0.000000 -0.000000 0.000000 
0.000000 -0.000000 0.000000 
0.000000 0.000000 0.000000 

0.000000 0.000000 0.000000 
0.000000 -0.000000 0.000000 
0.000000 0.000000 0.000000 

-0.000000 -0.000000 0.000000 
0.000000 0.000000 0.000000 
0.000000 0.000000 0.000000 

-0.000000 0.000000 0.000000 
0.000000 -0.000000 0.000000 
0.000000 0.000000 0.000000 

-0.000000 -0.000000 0.000000 
0.000000 0.000000 0.000000 
0.000000 0.000000 0.000000 

-0.000000 -0.000000 0.000000 
0.000000 0.000000 0.000000 
0.000000 0.000000 0.000000 

-0.000000 0.000000 0.000000 
0.000000 -0.000000 0.000000 
0.000000 0.000000 0.000000 

-0.000000 0.000000 0.000000 
0.000000 -0.000000 0.000000 
0.000000 0.000000 0.000000 

0.000000 -0.000000 0.000000 
0.000000 -0.000000 0.000000 
0.000000 0.000000 0.000000 

-0.000000 -0.000000 0.000000 
0.000000 0.000000 0.000000 
0.000000 0.000000 0.000000 

0.000000 0.000000 0.000000 
0.000000 -0.000000 0.000000 
0.000000 0.000000 0.000000 

-0.000000 -0.000000 0.000000 
0.000000 -0.000000 0.000000 
0.000000 0.000000 0.000000 

0.000000 -0.000000 0.000000 
0.000000 -0.000000 0.000000 
0.000000 0.000000 0.000000 

0.000000 0.000000 0.000000 
0.000000 -0.000000 0.000000 
0.000000 0.000000 0.000000 

0.000000 0.000000 0.000000 
0.000000 0.000000 0.000000 
0.000000 0.000000 0.000000 

0.000000 -0.000000 0.000000 
0.000000 0.000000 0.000000 
0.000000 0.000000 0.000000 

0.000000 -0.000000 0.000000 
0.000000 -0.000000 0.000000 
0.000000 0.000000 0.000000 

0.000000 -0.000000 0.000000 
0.000000 -0.000000 0.000000 
0.000000 0.000000 0.000000 

-0.000000 0.000000 0.000000 
0.000000 0.000000 0.000000 
0.000000 0.000000 0.000000 

-0.000000 0.000000 0.000000 
0.000000 -0.000000 0.000000 
0.000000 0.000000 0.000000 

-0.000000 0.000000 0.000000 
0.000000 -0.000000 0.000000 
0.000000 0.000000 0.000000 

-0.000000 0.000000 0.000000 
0.000000 -0.000000 0.000000 
0.000000 0.000000 0.000000 

0.000000 -0.000000 0.000000 
0.000000 0.000000 0.000000 
0.000000 0.000000 0.000000 

0.000000 -0.000000 0.000000 
0.000000 0.000000 0.000000 
0.000000 0.000000 0.000000 

0.000000 -0.000000 0.000000 
0.000000 0.000000 0.000000 
0.000000 0.000000 0.000000 

-0.000000 0.000000 0.000000 
0.000000 -0.000000 0.000000 
0.000000 0.000000 0.000000 

-0.000000 0.000000 0.000000 
0.000000 -0.000000 0.000000 
0.000000 0.000000 0.000000 

-0.000000 -0.000000 0.000000 
0.000000 0.000000 0.000000 
0.000000 0.000000 0.000000 

-0.000000 -0.000000 0.000000 
0.000000 -0.000000 0.000000 
0.000000 0.000000 0.000000 

-0.000000 -0.000000 0.000000 
0.000000 0.000000 0.000000 
0.000000 0.000000 0.000000 

-0.000000 -0.000000 0.000000 
0.000000 -0.000000 0.000000 
0.000000 0.000000 0.000000 

0.000000 -0.000000 0.000000 
0.000000 0.000000 0.000000 
0.000000 0.000000 0.000000 

-0.000000 -0.000000 0.000000 
0.000000 0.000000 0.000000 
0.000000 0.000000 0.000000 

-0.000000 0.000000 0.000000 
0.000000 0.000000 0.000000 
0.000000 0.000000 0.000000 

-0.000000 -0.000000 0.000000 
0.000000 0.000000 0.000000 
0.000000 0.000000 0.000000 

-0.000000 0.000000 0.000000 
0.000000 0.000000 0.000000 
0.000000 0.000000 0.000000 

0.000000 0.000000 0.000000 
0.000000 -0.000000 0.000000 
0.000000 0.000000 0.000000 

0.000000 -0.000000 0.000000 
0.000000 0.000000 0.000000 
0.000000 0.000000 0.000000 

-0.000000 0.000000 0.000000 
0.000000 0.000000 0.000000 
0.000000 0.000000 0.000000 

-0.000000 -0.000000 0.000000 
0.000000 0.000000 0.000000 
0.000000 0.000000 0.000000 

-0.000000 -0.000000 0.000000 
0.000000 0.000000 0.000000 
0.000000 0.000000 0.000000 

-0.000000 0.000000 0.000000 
0.000000 0.000000 0.000000 
0.000000 0.000000 0.000000 

-0.000000 -0.000000 0.000000 
0.000000 -0.000000 0.000000 
0.000000 0.000000 0.000000 

-0.000000 0.000000 0.000000 
0.000000 0.000000 0.000000 
0.000000 0.000000 0.000000 

-0.000000 -0.000000 0.000000 
0.000000 0.000000 0.000000 
0.000000 0.000000 0.000000 

0.000000 0.000000 0.000000 
0.000000 0.000000 0.000000 
0.000000 0.000000 0.000000 

-0.000000 0.000000 0.000000 
0.000000 -0.000000 0.000000 
0.000000 0.000000 0.000000 

-0.000000 0.000000 0.000000 
0.000000 -0.000000 0.000000 
0.000000 0.000000 0.000000 

-0.000000 0.000000 0.000000 
0.000000 0.000000 0.000000 
0.000000 0.000000 0.000000 

-0.000000 -0.000000 0.000000 
0.000000 0.000000 0.000000 
0.000000 0.000000 0.000000 

-0.000000 -0.000000 0.000000 
0.000000 0.000000 0.000000 
0.000000 0.000000 0.000000 

-0.000000 -0.000000 0.000000 
0.000000 0.000000 0.000000 
0.000000 0.000000 0.000000 

