# vtk DataFile Version 3.0 
vtk output 
ASCII 
DATASET UNSTRUCTURED_GRID 
POINTS 175 float 
-0.026061 -0.745983 0.000000 
-0.106992 -0.677927 0.000000 
-0.054870 -0.686160 0.000000 
-0.028809 -0.640276 0.000000 
-0.186430 -0.613852 0.000000 
-0.137056 -0.616378 0.000000 
-0.114311 -0.562731 0.000000 
-0.058186 -0.578396 0.000000 
-0.029377 -0.538219 0.000000 
-0.265318 -0.550696 0.000000 
-0.217198 -0.551496 0.000000 
-0.196633 -0.494199 0.000000 
-0.143120 -0.502908 0.000000 
-0.116563 -0.455639 0.000000 
-0.058945 -0.475285 0.000000 
-0.029568 -0.437165 0.000000 
-0.344206 -0.487540 0.000000 
-0.296791 -0.487533 0.000000 
-0.278030 -0.427590 0.000000 
-0.225992 -0.433456 0.000000 
-0.201664 -0.381339 0.000000 
-0.145749 -0.394813 0.000000 
-0.117890 -0.350471 0.000000 
-0.059328 -0.373177 0.000000 
-0.029759 -0.336111 0.000000 
-0.058559 -0.786733 0.000000 
-0.162226 -0.807576 0.000000 
-0.123292 -0.771958 0.000000 
-0.142917 -0.722975 0.000000 
-0.261851 -0.829732 0.000000 
-0.229092 -0.792705 0.000000 
-0.256854 -0.741474 0.000000 
-0.209613 -0.707361 0.000000 
-0.223062 -0.659787 0.000000 
-0.360414 -0.852033 0.000000 
-0.329787 -0.814910 0.000000 
-0.361761 -0.763108 0.000000 
-0.321587 -0.726699 0.000000 
-0.341985 -0.676465 0.000000 
-0.290702 -0.643666 0.000000 
-0.302189 -0.596931 0.000000 
-0.458977 -0.874333 0.000000 
-0.429420 -0.837258 0.000000 
-0.464588 -0.785216 0.000000 
-0.427556 -0.748189 0.000000 
-0.453135 -0.696674 0.000000 
-0.407738 -0.661359 0.000000 
-0.425037 -0.611931 0.000000 
-0.370772 -0.580301 0.000000 
-0.381315 -0.534074 0.000000 
-0.046960 -0.837549 0.000000 
-0.095301 -0.931594 0.000000 
-0.098873 -0.878947 0.000000 
-0.149405 -0.863750 0.000000 
-0.140093 -1.023299 0.000000 
-0.148617 -0.974600 0.000000 
-0.205981 -0.964363 0.000000 
-0.203197 -0.906160 0.000000 
-0.248777 -0.887013 0.000000 
-0.184111 -1.114262 0.000000 
-0.194039 -1.067171 0.000000 
-0.254475 -1.059871 0.000000 
-0.257893 -1.005762 0.000000 
-0.309886 -0.990389 0.000000 
-0.303554 -0.929844 0.000000 
-0.347255 -0.909686 0.000000 
-0.228129 -1.205226 0.000000 
-0.238687 -1.159001 0.000000 
-0.301302 -1.154049 0.000000 
-0.307162 -1.102010 0.000000 
-0.363386 -1.089890 0.000000 
-0.362692 -1.032378 0.000000 
-0.412122 -1.015085 0.000000 
-0.403017 -0.952938 0.000000 
-0.445733 -0.932359 0.000000 
-0.000000 -0.860164 0.000000 
0.043388 -0.956594 0.000000 
-0.000000 -0.926562 0.000000 
-0.043388 -0.956594 0.000000 
0.087158 -1.048791 0.000000 
0.043769 -1.025092 0.000000 
-0.000000 -1.063558 0.000000 
-0.043769 -1.025092 0.000000 
-0.087158 -1.048791 0.000000 
0.130831 -1.139920 0.000000 
0.087824 -1.118322 0.000000 
0.044436 -1.161021 0.000000 
-0.000000 -1.129956 0.000000 
-0.044436 -1.161021 0.000000 
-0.087824 -1.118322 0.000000 
-0.130831 -1.139920 0.000000 
0.174505 -1.231050 0.000000 
0.131782 -1.210484 0.000000 
0.088871 -1.256351 0.000000 
0.044532 -1.228487 0.000000 
-0.000000 -1.264887 0.000000 
-0.044532 -1.228487 0.000000 
-0.088871 -1.256351 0.000000 
-0.131782 -1.210484 0.000000 
-0.174505 -1.231050 0.000000 
0.046960 -0.837549 0.000000 
0.149405 -0.863750 0.000000 
0.098873 -0.878947 0.000000 
0.095301 -0.931594 0.000000 
0.248777 -0.887013 0.000000 
0.203197 -0.906160 0.000000 
0.205981 -0.964363 0.000000 
0.148617 -0.974600 0.000000 
0.140093 -1.023299 0.000000 
0.347255 -0.909686 0.000000 
0.303554 -0.929844 0.000000 
0.309886 -0.990389 0.000000 
0.257893 -1.005762 0.000000 
0.254475 -1.059871 0.000000 
0.194039 -1.067171 0.000000 
0.184111 -1.114262 0.000000 
0.445733 -0.932359 0.000000 
0.403017 -0.952938 0.000000 
0.412122 -1.015085 0.000000 
0.362692 -1.032378 0.000000 
0.363386 -1.089890 0.000000 
0.307162 -1.102010 0.000000 
0.301302 -1.154049 0.000000 
0.238687 -1.159001 0.000000 
0.228129 -1.205226 0.000000 
0.058559 -0.786733 0.000000 
0.142917 -0.722975 0.000000 
0.123292 -0.771958 0.000000 
0.162226 -0.807576 0.000000 
0.223062 -0.659787 0.000000 
0.209613 -0.707361 0.000000 
0.256854 -0.741474 0.000000 
0.229092 -0.792705 0.000000 
0.261851 -0.829732 0.000000 
0.302189 -0.596931 0.000000 
0.290702 -0.643666 0.000000 
0.341985 -0.676465 0.000000 
0.321587 -0.726699 0.000000 
0.361761 -0.763108 0.000000 
0.329787 -0.814910 0.000000 
0.360414 -0.852033 0.000000 
0.381315 -0.534074 0.000000 
0.370772 -0.580301 0.000000 
0.425037 -0.611931 0.000000 
0.407738 -0.661359 0.000000 
0.453135 -0.696674 0.000000 
0.427556 -0.748189 0.000000 
0.464588 -0.785216 0.000000 
0.429420 -0.837258 0.000000 
0.458977 -0.874333 0.000000 
0.026061 -0.745983 0.000000 
0.028809 -0.640276 0.000000 
0.054870 -0.686160 0.000000 
0.106992 -0.677927 0.000000 
0.029377 -0.538219 0.000000 
0.058186 -0.578396 0.000000 
0.114311 -0.562731 0.000000 
0.137056 -0.616378 0.000000 
0.186430 -0.613852 0.000000 
0.029568 -0.437165 0.000000 
0.058945 -0.475285 0.000000 
0.116563 -0.455639 0.000000 
0.143120 -0.502908 0.000000 
0.196633 -0.494199 0.000000 
0.217198 -0.551496 0.000000 
0.265318 -0.550696 0.000000 
0.029759 -0.336111 0.000000 
0.059328 -0.373177 0.000000 
0.117890 -0.350471 0.000000 
0.145749 -0.394813 0.000000 
0.201664 -0.381339 0.000000 
0.225992 -0.433456 0.000000 
0.278030 -0.427590 0.000000 
0.296791 -0.487533 0.000000 
0.344206 -0.487540 0.000000 
CELLS 175 350 
1 0 
1 1 
1 2 
1 3 
1 4 
1 5 
1 6 
1 7 
1 8 
1 9 
1 10 
1 11 
1 12 
1 13 
1 14 
1 15 
1 16 
1 17 
1 18 
1 19 
1 20 
1 21 
1 22 
1 23 
1 24 
1 25 
1 26 
1 27 
1 28 
1 29 
1 30 
1 31 
1 32 
1 33 
1 34 
1 35 
1 36 
1 37 
1 38 
1 39 
1 40 
1 41 
1 42 
1 43 
1 44 
1 45 
1 46 
1 47 
1 48 
1 49 
1 50 
1 51 
1 52 
1 53 
1 54 
1 55 
1 56 
1 57 
1 58 
1 59 
1 60 
1 61 
1 62 
1 63 
1 64 
1 65 
1 66 
1 67 
1 68 
1 69 
1 70 
1 71 
1 72 
1 73 
1 74 
1 75 
1 76 
1 77 
1 78 
1 79 
1 80 
1 81 
1 82 
1 83 
1 84 
1 85 
1 86 
1 87 
1 88 
1 89 
1 90 
1 91 
1 92 
1 93 
1 94 
1 95 
1 96 
1 97 
1 98 
1 99 
1 100 
1 101 
1 102 
1 103 
1 104 
1 105 
1 106 
1 107 
1 108 
1 109 
1 110 
1 111 
1 112 
1 113 
1 114 
1 115 
1 116 
1 117 
1 118 
1 119 
1 120 
1 121 
1 122 
1 123 
1 124 
1 125 
1 126 
1 127 
1 128 
1 129 
1 130 
1 131 
1 132 
1 133 
1 134 
1 135 
1 136 
1 137 
1 138 
1 139 
1 140 
1 141 
1 142 
1 143 
1 144 
1 145 
1 146 
1 147 
1 148 
1 149 
1 150 
1 151 
1 152 
1 153 
1 154 
1 155 
1 156 
1 157 
1 158 
1 159 
1 160 
1 161 
1 162 
1 163 
1 164 
1 165 
1 166 
1 167 
1 168 
1 169 
1 170 
1 171 
1 172 
1 173 
1 174 
CELL_TYPES 175 
1 
1 
1 
1 
1 
1 
1 
1 
1 
1 
1 
1 
1 
1 
1 
1 
1 
1 
1 
1 
1 
1 
1 
1 
1 
1 
1 
1 
1 
1 
1 
1 
1 
1 
1 
1 
1 
1 
1 
1 
1 
1 
1 
1 
1 
1 
1 
1 
1 
1 
1 
1 
1 
1 
1 
1 
1 
1 
1 
1 
1 
1 
1 
1 
1 
1 
1 
1 
1 
1 
1 
1 
1 
1 
1 
1 
1 
1 
1 
1 
1 
1 
1 
1 
1 
1 
1 
1 
1 
1 
1 
1 
1 
1 
1 
1 
1 
1 
1 
1 
1 
1 
1 
1 
1 
1 
1 
1 
1 
1 
1 
1 
1 
1 
1 
1 
1 
1 
1 
1 
1 
1 
1 
1 
1 
1 
1 
1 
1 
1 
1 
1 
1 
1 
1 
1 
1 
1 
1 
1 
1 
1 
1 
1 
1 
1 
1 
1 
1 
1 
1 
1 
1 
1 
1 
1 
1 
1 
1 
1 
1 
1 
1 
1 
1 
1 
1 
1 
1 
1 
1 
1 
1 
1 
1 
POINT_DATA 175 
VECTORS X_GC float 
-0.026061 -0.745983 0.000000 
-0.106992 -0.677927 0.000000 
-0.054870 -0.686160 0.000000 
-0.028809 -0.640276 0.000000 
-0.186430 -0.613852 0.000000 
-0.137056 -0.616378 0.000000 
-0.114311 -0.562731 0.000000 
-0.058186 -0.578396 0.000000 
-0.029377 -0.538219 0.000000 
-0.265318 -0.550696 0.000000 
-0.217198 -0.551496 0.000000 
-0.196633 -0.494199 0.000000 
-0.143120 -0.502908 0.000000 
-0.116563 -0.455639 0.000000 
-0.058945 -0.475285 0.000000 
-0.029568 -0.437165 0.000000 
-0.344206 -0.487540 0.000000 
-0.296791 -0.487533 0.000000 
-0.278030 -0.427590 0.000000 
-0.225992 -0.433456 0.000000 
-0.201664 -0.381339 0.000000 
-0.145749 -0.394813 0.000000 
-0.117890 -0.350471 0.000000 
-0.059328 -0.373177 0.000000 
-0.029759 -0.336111 0.000000 
-0.058559 -0.786733 0.000000 
-0.162226 -0.807576 0.000000 
-0.123292 -0.771958 0.000000 
-0.142917 -0.722975 0.000000 
-0.261851 -0.829732 0.000000 
-0.229092 -0.792705 0.000000 
-0.256854 -0.741474 0.000000 
-0.209613 -0.707361 0.000000 
-0.223062 -0.659787 0.000000 
-0.360414 -0.852033 0.000000 
-0.329787 -0.814910 0.000000 
-0.361761 -0.763108 0.000000 
-0.321587 -0.726699 0.000000 
-0.341985 -0.676465 0.000000 
-0.290702 -0.643666 0.000000 
-0.302189 -0.596931 0.000000 
-0.458977 -0.874333 0.000000 
-0.429420 -0.837258 0.000000 
-0.464588 -0.785216 0.000000 
-0.427556 -0.748189 0.000000 
-0.453135 -0.696674 0.000000 
-0.407738 -0.661359 0.000000 
-0.425037 -0.611931 0.000000 
-0.370772 -0.580301 0.000000 
-0.381315 -0.534074 0.000000 
-0.046960 -0.837549 0.000000 
-0.095301 -0.931594 0.000000 
-0.098873 -0.878947 0.000000 
-0.149405 -0.863750 0.000000 
-0.140093 -1.023299 0.000000 
-0.148617 -0.974600 0.000000 
-0.205981 -0.964363 0.000000 
-0.203197 -0.906160 0.000000 
-0.248777 -0.887013 0.000000 
-0.184111 -1.114262 0.000000 
-0.194039 -1.067171 0.000000 
-0.254475 -1.059871 0.000000 
-0.257893 -1.005762 0.000000 
-0.309886 -0.990389 0.000000 
-0.303554 -0.929844 0.000000 
-0.347255 -0.909686 0.000000 
-0.228129 -1.205226 0.000000 
-0.238687 -1.159001 0.000000 
-0.301302 -1.154049 0.000000 
-0.307162 -1.102010 0.000000 
-0.363386 -1.089890 0.000000 
-0.362692 -1.032378 0.000000 
-0.412122 -1.015085 0.000000 
-0.403017 -0.952938 0.000000 
-0.445733 -0.932359 0.000000 
-0.000000 -0.860164 0.000000 
0.043388 -0.956594 0.000000 
-0.000000 -0.926562 0.000000 
-0.043388 -0.956594 0.000000 
0.087158 -1.048791 0.000000 
0.043769 -1.025092 0.000000 
-0.000000 -1.063558 0.000000 
-0.043769 -1.025092 0.000000 
-0.087158 -1.048791 0.000000 
0.130831 -1.139920 0.000000 
0.087824 -1.118322 0.000000 
0.044436 -1.161021 0.000000 
-0.000000 -1.129956 0.000000 
-0.044436 -1.161021 0.000000 
-0.087824 -1.118322 0.000000 
-0.130831 -1.139920 0.000000 
0.174505 -1.231050 0.000000 
0.131782 -1.210484 0.000000 
0.088871 -1.256351 0.000000 
0.044532 -1.228487 0.000000 
-0.000000 -1.264887 0.000000 
-0.044532 -1.228487 0.000000 
-0.088871 -1.256351 0.000000 
-0.131782 -1.210484 0.000000 
-0.174505 -1.231050 0.000000 
0.046960 -0.837549 0.000000 
0.149405 -0.863750 0.000000 
0.098873 -0.878947 0.000000 
0.095301 -0.931594 0.000000 
0.248777 -0.887013 0.000000 
0.203197 -0.906160 0.000000 
0.205981 -0.964363 0.000000 
0.148617 -0.974600 0.000000 
0.140093 -1.023299 0.000000 
0.347255 -0.909686 0.000000 
0.303554 -0.929844 0.000000 
0.309886 -0.990389 0.000000 
0.257893 -1.005762 0.000000 
0.254475 -1.059871 0.000000 
0.194039 -1.067171 0.000000 
0.184111 -1.114262 0.000000 
0.445733 -0.932359 0.000000 
0.403017 -0.952938 0.000000 
0.412122 -1.015085 0.000000 
0.362692 -1.032378 0.000000 
0.363386 -1.089890 0.000000 
0.307162 -1.102010 0.000000 
0.301302 -1.154049 0.000000 
0.238687 -1.159001 0.000000 
0.228129 -1.205226 0.000000 
0.058559 -0.786733 0.000000 
0.142917 -0.722975 0.000000 
0.123292 -0.771958 0.000000 
0.162226 -0.807576 0.000000 
0.223062 -0.659787 0.000000 
0.209613 -0.707361 0.000000 
0.256854 -0.741474 0.000000 
0.229092 -0.792705 0.000000 
0.261851 -0.829732 0.000000 
0.302189 -0.596931 0.000000 
0.290702 -0.643666 0.000000 
0.341985 -0.676465 0.000000 
0.321587 -0.726699 0.000000 
0.361761 -0.763108 0.000000 
0.329787 -0.814910 0.000000 
0.360414 -0.852033 0.000000 
0.381315 -0.534074 0.000000 
0.370772 -0.580301 0.000000 
0.425037 -0.611931 0.000000 
0.407738 -0.661359 0.000000 
0.453135 -0.696674 0.000000 
0.427556 -0.748189 0.000000 
0.464588 -0.785216 0.000000 
0.429420 -0.837258 0.000000 
0.458977 -0.874333 0.000000 
0.026061 -0.745983 0.000000 
0.028809 -0.640276 0.000000 
0.054870 -0.686160 0.000000 
0.106992 -0.677927 0.000000 
0.029377 -0.538219 0.000000 
0.058186 -0.578396 0.000000 
0.114311 -0.562731 0.000000 
0.137056 -0.616378 0.000000 
0.186430 -0.613852 0.000000 
0.029568 -0.437165 0.000000 
0.058945 -0.475285 0.000000 
0.116563 -0.455639 0.000000 
0.143120 -0.502908 0.000000 
0.196633 -0.494199 0.000000 
0.217198 -0.551496 0.000000 
0.265318 -0.550696 0.000000 
0.029759 -0.336111 0.000000 
0.059328 -0.373177 0.000000 
0.117890 -0.350471 0.000000 
0.145749 -0.394813 0.000000 
0.201664 -0.381339 0.000000 
0.225992 -0.433456 0.000000 
0.278030 -0.427590 0.000000 
0.296791 -0.487533 0.000000 
0.344206 -0.487540 0.000000 
VECTORS X_EC float 
0.338794 0.570765 0.000000 
-0.609100 -0.347983 0.000000 
0.713312 -0.236842 0.000000 
0.374519 -0.856272 0.000000 
0.423588 0.786998 0.000000 
-0.218274 0.821101 0.000000 
-0.513962 0.096862 0.000000 
0.756418 0.308349 0.000000 
0.381900 -0.234044 0.000000 
-0.550868 -0.065605 0.000000 
0.823577 -0.054810 0.000000 
0.556234 -0.828314 0.000000 
-0.139443 -0.710745 0.000000 
-0.484677 0.651130 0.000000 
0.766286 0.916346 0.000000 
0.384386 0.401725 0.000000 
0.474677 -0.918209 0.000000 
-0.141715 -0.918305 0.000000 
-0.385608 0.272467 0.000000 
0.937896 0.351662 0.000000 
0.621631 -0.351918 0.000000 
-0.105264 -0.170019 0.000000 
-0.467428 -0.768645 0.000000 
0.771260 -0.462116 0.000000 
0.386873 -0.962506 0.000000 
0.761262 -0.879100 0.000000 
0.108942 -0.597723 0.000000 
-0.397202 0.921437 0.000000 
-0.142083 0.260162 0.000000 
-0.595936 -0.298613 0.000000 
0.978194 -0.798479 0.000000 
-0.660903 0.509896 0.000000 
0.724964 0.049376 0.000000 
0.899809 -0.592872 0.000000 
0.685384 0.002439 0.000000 
0.287229 -0.498719 0.000000 
0.702895 0.801952 0.000000 
0.180633 0.310434 0.000000 
0.445811 -0.367726 0.000000 
-0.220880 -0.810512 0.000000 
-0.071546 0.558563 0.000000 
-0.033296 0.303492 0.000000 
-0.417537 -0.197018 0.000000 
0.039645 -0.899581 0.000000 
-0.441768 0.600548 0.000000 
-0.109248 -0.094902 0.000000 
-0.699407 -0.571658 0.000000 
-0.474522 0.761063 0.000000 
0.820030 0.334069 0.000000 
0.957100 -0.290002 0.000000 
0.610485 -0.193094 0.000000 
-0.761092 -0.923474 0.000000 
-0.714655 0.365788 0.000000 
-0.057734 0.160621 0.000000 
-0.178789 0.314530 0.000000 
-0.067979 -0.342896 0.000000 
0.677748 -0.481100 0.000000 
0.641556 0.733155 0.000000 
-0.765897 0.474677 0.000000 
0.393446 -0.457461 0.000000 
0.522510 0.906809 0.000000 
-0.691820 0.808265 0.000000 
-0.647393 0.077782 0.000000 
0.028512 -0.129744 0.000000 
-0.053800 -0.947105 0.000000 
0.514316 0.780764 0.000000 
0.965681 0.770548 0.000000 
-0.897068 0.146519 0.000000 
-0.083078 0.079666 0.000000 
-0.006893 -0.622858 0.000000 
0.724017 -0.786491 0.000000 
0.714996 0.437105 0.000000 
-0.642413 0.203648 0.000000 
-0.760780 -0.635333 0.000000 
-0.205471 -0.913148 0.000000 
0.000000 0.112208 0.000000 
-0.564049 -0.585979 0.000000 
0.000000 -0.991415 0.000000 
0.564049 -0.585979 0.000000 
0.866949 0.658676 0.000000 
-0.569003 0.338745 0.000000 
0.000000 0.858033 0.000000 
0.569003 0.338745 0.000000 
-0.866949 0.658676 0.000000 
0.299194 -0.111074 0.000000 
0.858290 -0.402658 0.000000 
-0.577662 0.173788 0.000000 
0.000000 -0.245590 0.000000 
0.577662 0.173788 0.000000 
-0.858290 -0.402658 0.000000 
-0.299194 -0.111074 0.000000 
-0.268560 -0.880824 0.000000 
0.286830 0.841535 0.000000 
0.844677 -0.539267 0.000000 
-0.578910 -0.915430 0.000000 
0.000000 -0.424026 0.000000 
0.578910 -0.915430 0.000000 
-0.844677 -0.539267 0.000000 
-0.286830 0.841535 0.000000 
0.268560 -0.880824 0.000000 
-0.610485 -0.193094 0.000000 
0.057734 0.160621 0.000000 
0.714655 0.365788 0.000000 
0.761092 -0.923474 0.000000 
0.765897 0.474677 0.000000 
-0.641556 0.733155 0.000000 
-0.677748 -0.481100 0.000000 
0.067979 -0.342896 0.000000 
0.178789 0.314530 0.000000 
-0.514316 0.780764 0.000000 
0.053800 -0.947105 0.000000 
-0.028512 -0.129744 0.000000 
0.647393 0.077782 0.000000 
0.691820 0.808265 0.000000 
-0.522510 0.906809 0.000000 
-0.393446 -0.457461 0.000000 
0.205471 -0.913148 0.000000 
0.760780 -0.635333 0.000000 
0.642413 0.203648 0.000000 
-0.714996 0.437105 0.000000 
-0.724017 -0.786491 0.000000 
0.006894 -0.622858 0.000000 
0.083078 0.079666 0.000000 
0.897068 0.146519 0.000000 
-0.965681 0.770548 0.000000 
-0.761262 -0.879100 0.000000 
0.142083 0.260162 0.000000 
0.397202 0.921437 0.000000 
-0.108942 -0.597723 0.000000 
-0.899809 -0.592872 0.000000 
-0.724964 0.049376 0.000000 
0.660903 0.509896 0.000000 
-0.978194 -0.798479 0.000000 
0.595936 -0.298613 0.000000 
0.071546 0.558563 0.000000 
0.220880 -0.810512 0.000000 
-0.445811 -0.367726 0.000000 
-0.180633 0.310434 0.000000 
-0.702895 0.801952 0.000000 
-0.287229 -0.498719 0.000000 
-0.685384 0.002439 0.000000 
-0.957100 -0.290002 0.000000 
-0.820030 0.334069 0.000000 
0.474522 0.761063 0.000000 
0.699407 -0.571658 0.000000 
0.109248 -0.094902 0.000000 
0.441768 0.600548 0.000000 
-0.039645 -0.899581 0.000000 
0.417537 -0.197018 0.000000 
0.033296 0.303492 0.000000 
-0.338794 0.570765 0.000000 
-0.374519 -0.856272 0.000000 
-0.713312 -0.236842 0.000000 
0.609100 -0.347983 0.000000 
-0.381900 -0.234044 0.000000 
-0.756418 0.308349 0.000000 
0.513962 0.096862 0.000000 
0.218274 0.821101 0.000000 
-0.423588 0.786998 0.000000 
-0.384386 0.401725 0.000000 
-0.766286 0.916346 0.000000 
0.484677 0.651130 0.000000 
0.139443 -0.710745 0.000000 
-0.556234 -0.828314 0.000000 
-0.823577 -0.054810 0.000000 
0.550868 -0.065605 0.000000 
-0.386873 -0.962506 0.000000 
-0.771260 -0.462116 0.000000 
0.467428 -0.768645 0.000000 
0.105264 -0.170019 0.000000 
-0.621631 -0.351918 0.000000 
-0.937896 0.351662 0.000000 
0.385608 0.272467 0.000000 
0.141715 -0.918305 0.000000 
-0.474677 -0.918209 0.000000 
CELL_DATA 175 
SCALARS MASS float 
LOOKUP_TABLE default 
0.078183 
0.086427 
0.094672 
0.086427 
0.088131 
0.092111 
0.085854 
0.092111 
0.088131 
0.088705 
0.091000 
0.086983 
0.091556 
0.086983 
0.091000 
0.088705 
0.089278 
0.091574 
0.089278 
0.092722 
0.089278 
0.092722 
0.089278 
0.091574 
0.089278 
0.078183 
0.086427 
0.094672 
0.086427 
0.088131 
0.092111 
0.085854 
0.092111 
0.088131 
0.088705 
0.091000 
0.086983 
0.091556 
0.086983 
0.091000 
0.088705 
0.089278 
0.091574 
0.089278 
0.092722 
0.089278 
0.092722 
0.089278 
0.091574 
0.089278 
0.078183 
0.086427 
0.094672 
0.086427 
0.088131 
0.092111 
0.085854 
0.092111 
0.088131 
0.088705 
0.091000 
0.086983 
0.091556 
0.086983 
0.091000 
0.088705 
0.089278 
0.091574 
0.089278 
0.092722 
0.089278 
0.092722 
0.089278 
0.091574 
0.089278 
0.078183 
0.086427 
0.094672 
0.086427 
0.088131 
0.092111 
0.085854 
0.092111 
0.088131 
0.088705 
0.091000 
0.086983 
0.091556 
0.086983 
0.091000 
0.088705 
0.089278 
0.091574 
0.089278 
0.092722 
0.089278 
0.092722 
0.089278 
0.091574 
0.089278 
0.078183 
0.086427 
0.094672 
0.086427 
0.088131 
0.092111 
0.085854 
0.092111 
0.088131 
0.088705 
0.091000 
0.086983 
0.091556 
0.086983 
0.091000 
0.088705 
0.089278 
0.091574 
0.089278 
0.092722 
0.089278 
0.092722 
0.089278 
0.091574 
0.089278 
0.078183 
0.086427 
0.094672 
0.086427 
0.088131 
0.092111 
0.085854 
0.092111 
0.088131 
0.088705 
0.091000 
0.086983 
0.091556 
0.086983 
0.091000 
0.088705 
0.089278 
0.091574 
0.089278 
0.092722 
0.089278 
0.092722 
0.089278 
0.091574 
0.089278 
0.078183 
0.086427 
0.094672 
0.086427 
0.088131 
0.092111 
0.085854 
0.092111 
0.088131 
0.088705 
0.091000 
0.086983 
0.091556 
0.086983 
0.091000 
0.088705 
0.089278 
0.091574 
0.089278 
0.092722 
0.089278 
0.092722 
0.089278 
0.091574 
0.089278 
SCALARS MASS float 
LOOKUP_TABLE default 
0.078183 
0.086427 
0.094672 
0.086427 
0.088131 
0.092111 
0.085854 
0.092111 
0.088131 
0.088705 
0.091000 
0.086983 
0.091556 
0.086983 
0.091000 
0.088705 
0.089278 
0.091574 
0.089278 
0.092722 
0.089278 
0.092722 
0.089278 
0.091574 
0.089278 
0.078183 
0.086427 
0.094672 
0.086427 
0.088131 
0.092111 
0.085854 
0.092111 
0.088131 
0.088705 
0.091000 
0.086983 
0.091556 
0.086983 
0.091000 
0.088705 
0.089278 
0.091574 
0.089278 
0.092722 
0.089278 
0.092722 
0.089278 
0.091574 
0.089278 
0.078183 
0.086427 
0.094672 
0.086427 
0.088131 
0.092111 
0.085854 
0.092111 
0.088131 
0.088705 
0.091000 
0.086983 
0.091556 
0.086983 
0.091000 
0.088705 
0.089278 
0.091574 
0.089278 
0.092722 
0.089278 
0.092722 
0.089278 
0.091574 
0.089278 
0.078183 
0.086427 
0.094672 
0.086427 
0.088131 
0.092111 
0.085854 
0.092111 
0.088131 
0.088705 
0.091000 
0.086983 
0.091556 
0.086983 
0.091000 
0.088705 
0.089278 
0.091574 
0.089278 
0.092722 
0.089278 
0.092722 
0.089278 
0.091574 
0.089278 
0.078183 
0.086427 
0.094672 
0.086427 
0.088131 
0.092111 
0.085854 
0.092111 
0.088131 
0.088705 
0.091000 
0.086983 
0.091556 
0.086983 
0.091000 
0.088705 
0.089278 
0.091574 
0.089278 
0.092722 
0.089278 
0.092722 
0.089278 
0.091574 
0.089278 
0.078183 
0.086427 
0.094672 
0.086427 
0.088131 
0.092111 
0.085854 
0.092111 
0.088131 
0.088705 
0.091000 
0.086983 
0.091556 
0.086983 
0.091000 
0.088705 
0.089278 
0.091574 
0.089278 
0.092722 
0.089278 
0.092722 
0.089278 
0.091574 
0.089278 
0.078183 
0.086427 
0.094672 
0.086427 
0.088131 
0.092111 
0.085854 
0.092111 
0.088131 
0.088705 
0.091000 
0.086983 
0.091556 
0.086983 
0.091000 
0.088705 
0.089278 
0.091574 
0.089278 
0.092722 
0.089278 
0.092722 
0.089278 
0.091574 
0.089278 
SCALARS DENSITY float 
LOOKUP_TABLE default 
20.000000 
20.000000 
20.000000 
20.000000 
20.000000 
20.000000 
20.000000 
20.000000 
20.000000 
20.000000 
20.000000 
20.000000 
20.000000 
20.000000 
20.000000 
20.000000 
20.000000 
20.000000 
20.000000 
20.000000 
20.000000 
20.000000 
20.000000 
20.000000 
20.000000 
20.000000 
20.000000 
20.000000 
20.000000 
20.000000 
20.000000 
20.000000 
20.000000 
20.000000 
20.000000 
20.000000 
20.000000 
20.000000 
20.000000 
20.000000 
20.000000 
20.000000 
20.000000 
20.000000 
20.000000 
20.000000 
20.000000 
20.000000 
20.000000 
20.000000 
20.000000 
20.000000 
20.000000 
20.000000 
20.000000 
20.000000 
20.000000 
20.000000 
20.000000 
20.000000 
20.000000 
20.000000 
20.000000 
20.000000 
20.000000 
20.000000 
20.000000 
20.000000 
20.000000 
20.000000 
20.000000 
20.000000 
20.000000 
20.000000 
20.000000 
20.000000 
20.000000 
20.000000 
20.000000 
20.000000 
20.000000 
20.000000 
20.000000 
20.000000 
20.000000 
20.000000 
20.000000 
20.000000 
20.000000 
20.000000 
20.000000 
20.000000 
20.000000 
20.000000 
20.000000 
20.000000 
20.000000 
20.000000 
20.000000 
20.000000 
20.000000 
20.000000 
20.000000 
20.000000 
20.000000 
20.000000 
20.000000 
20.000000 
20.000000 
20.000000 
20.000000 
20.000000 
20.000000 
20.000000 
20.000000 
20.000000 
20.000000 
20.000000 
20.000000 
20.000000 
20.000000 
20.000000 
20.000000 
20.000000 
20.000000 
20.000000 
20.000000 
20.000000 
20.000000 
20.000000 
20.000000 
20.000000 
20.000000 
20.000000 
20.000000 
20.000000 
20.000000 
20.000000 
20.000000 
20.000000 
20.000000 
20.000000 
20.000000 
20.000000 
20.000000 
20.000000 
20.000000 
20.000000 
20.000000 
20.000000 
20.000000 
20.000000 
20.000000 
20.000000 
20.000000 
20.000000 
20.000000 
20.000000 
20.000000 
20.000000 
20.000000 
20.000000 
20.000000 
20.000000 
20.000000 
20.000000 
20.000000 
20.000000 
20.000000 
20.000000 
20.000000 
20.000000 
20.000000 
20.000000 
20.000000 
SCALARS ELEM_i float 
LOOKUP_TABLE default 
177 
204 
177 
177 
205 
205 
205 
178 
178 
232 
205 
205 
205 
206 
179 
179 
232 
232 
233 
206 
206 
206 
206 
179 
179 
176 
203 
204 
204 
230 
203 
231 
204 
204 
230 
230 
231 
231 
231 
231 
232 
257 
257 
257 
258 
258 
258 
259 
232 
232 
176 
202 
203 
203 
202 
202 
202 
203 
230 
201 
202 
229 
229 
229 
229 
230 
201 
228 
228 
228 
228 
229 
256 
256 
256 
176 
175 
175 
175 
148 
175 
175 
175 
202 
147 
147 
174 
174 
174 
201 
201 
146 
147 
146 
173 
173 
173 
200 
201 
200 
176 
149 
149 
148 
122 
149 
148 
148 
148 
122 
121 
121 
121 
121 
148 
147 
94 
94 
94 
121 
120 
120 
120 
120 
147 
176 
150 
150 
149 
150 
150 
123 
149 
122 
124 
123 
123 
123 
123 
122 
122 
124 
124 
97 
96 
96 
96 
95 
95 
95 
177 
177 
177 
150 
178 
178 
151 
151 
151 
179 
179 
152 
151 
151 
151 
124 
179 
179 
152 
152 
152 
152 
125 
124 
124 
VECTORS VELOCITY float 
0.000000 -3.961670 0.000000 
0.000000 -3.961670 0.000000 
-0.000000 -3.961670 0.000000 
-0.000000 -3.961670 0.000000 
0.000000 -3.961670 0.000000 
0.000000 -3.961670 0.000000 
-0.000000 -3.961670 0.000000 
-0.000000 -3.961670 0.000000 
-0.000000 -3.961670 0.000000 
0.000000 -3.961670 0.000000 
0.000000 -3.961670 0.000000 
0.000000 -3.961670 0.000000 
-0.000000 -3.961670 0.000000 
-0.000000 -3.961670 0.000000 
-0.000000 -3.961670 0.000000 
-0.000000 -3.961670 0.000000 
0.000000 -3.961670 0.000000 
0.000000 -3.961670 0.000000 
0.000000 -3.961670 0.000000 
0.000000 -3.961670 0.000000 
-0.000000 -3.961670 0.000000 
-0.000000 -3.961670 0.000000 
0.000000 -3.961670 0.000000 
-0.000000 -3.961670 0.000000 
-0.000000 -3.961670 0.000000 
0.000000 -3.961670 0.000000 
0.000000 -3.961670 0.000000 
0.000000 -3.961670 0.000000 
0.000000 -3.961670 0.000000 
-0.000000 -3.961670 0.000000 
-0.000000 -3.961670 0.000000 
-0.000000 -3.961670 0.000000 
-0.000000 -3.961670 0.000000 
-0.000000 -3.961670 0.000000 
0.000000 -3.961670 0.000000 
0.000000 -3.961670 0.000000 
0.000000 -3.961670 0.000000 
0.000000 -3.961670 0.000000 
0.000000 -3.961670 0.000000 
-0.000000 -3.961670 0.000000 
0.000000 -3.961670 0.000000 
-0.000000 -3.961670 0.000000 
0.000000 -3.961670 0.000000 
-0.000000 -3.961670 0.000000 
0.000000 -3.961670 0.000000 
-0.000000 -3.961670 0.000000 
0.000000 -3.961670 0.000000 
0.000000 -3.961670 0.000000 
0.000000 -3.961670 0.000000 
0.000000 -3.961670 0.000000 
0.000000 -3.961670 0.000000 
-0.000000 -3.961670 0.000000 
0.000000 -3.961670 0.000000 
0.000000 -3.961670 0.000000 
-0.000000 -3.961670 0.000000 
-0.000000 -3.961670 0.000000 
0.000000 -3.961670 0.000000 
-0.000000 -3.961670 0.000000 
-0.000000 -3.961670 0.000000 
-0.000000 -3.961670 0.000000 
-0.000000 -3.961670 0.000000 
-0.000000 -3.961670 0.000000 
0.000000 -3.961670 0.000000 
0.000000 -3.961670 0.000000 
0.000000 -3.961670 0.000000 
0.000000 -3.961670 0.000000 
0.000000 -3.961670 0.000000 
-0.000000 -3.961670 0.000000 
0.000000 -3.961670 0.000000 
-0.000000 -3.961670 0.000000 
-0.000000 -3.961670 0.000000 
-0.000000 -3.961670 0.000000 
-0.000000 -3.961670 0.000000 
-0.000000 -3.961670 0.000000 
-0.000000 -3.961670 0.000000 
0.000000 -3.961670 0.000000 
-0.000000 -3.961670 0.000000 
-0.000000 -3.961670 0.000000 
-0.000000 -3.961670 0.000000 
-0.000000 -3.961670 0.000000 
0.000000 -3.961670 0.000000 
0.000000 -3.961670 0.000000 
-0.000000 -3.961670 0.000000 
-0.000000 -3.961670 0.000000 
-0.000000 -3.961670 0.000000 
-0.000000 -3.961670 0.000000 
-0.000000 -3.961670 0.000000 
-0.000000 -3.961670 0.000000 
0.000000 -3.961670 0.000000 
0.000000 -3.961670 0.000000 
0.000000 -3.961670 0.000000 
-0.000000 -3.961670 0.000000 
-0.000000 -3.961670 0.000000 
0.000000 -3.961670 0.000000 
-0.000000 -3.961670 0.000000 
0.000000 -3.961670 0.000000 
-0.000000 -3.961670 0.000000 
0.000000 -3.961670 0.000000 
-0.000000 -3.961670 0.000000 
0.000000 -3.961670 0.000000 
0.000000 -3.961670 0.000000 
-0.000000 -3.961670 0.000000 
-0.000000 -3.961670 0.000000 
-0.000000 -3.961670 0.000000 
-0.000000 -3.961670 0.000000 
0.000000 -3.961670 0.000000 
0.000000 -3.961670 0.000000 
0.000000 -3.961670 0.000000 
0.000000 -3.961670 0.000000 
0.000000 -3.961670 0.000000 
0.000000 -3.961670 0.000000 
-0.000000 -3.961670 0.000000 
0.000000 -3.961670 0.000000 
-0.000000 -3.961670 0.000000 
-0.000000 -3.961670 0.000000 
-0.000000 -3.961670 0.000000 
-0.000000 -3.961670 0.000000 
-0.000000 -3.961670 0.000000 
-0.000000 -3.961670 0.000000 
-0.000000 -3.961670 0.000000 
0.000000 -3.961670 0.000000 
0.000000 -3.961670 0.000000 
-0.000000 -3.961670 0.000000 
-0.000000 -3.961670 0.000000 
0.000000 -3.961670 0.000000 
0.000000 -3.961670 0.000000 
0.000000 -3.961670 0.000000 
0.000000 -3.961670 0.000000 
-0.000000 -3.961670 0.000000 
0.000000 -3.961670 0.000000 
0.000000 -3.961670 0.000000 
0.000000 -3.961670 0.000000 
-0.000000 -3.961670 0.000000 
0.000000 -3.961670 0.000000 
0.000000 -3.961670 0.000000 
0.000000 -3.961670 0.000000 
-0.000000 -3.961670 0.000000 
0.000000 -3.961670 0.000000 
0.000000 -3.961670 0.000000 
0.000000 -3.961670 0.000000 
0.000000 -3.961670 0.000000 
0.000000 -3.961670 0.000000 
-0.000000 -3.961670 0.000000 
0.000000 -3.961670 0.000000 
-0.000000 -3.961670 0.000000 
-0.000000 -3.961670 0.000000 
-0.000000 -3.961670 0.000000 
0.000000 -3.961670 0.000000 
0.000000 -3.961670 0.000000 
0.000000 -3.961670 0.000000 
0.000000 -3.961670 0.000000 
-0.000000 -3.961670 0.000000 
-0.000000 -3.961670 0.000000 
-0.000000 -3.961670 0.000000 
-0.000000 -3.961670 0.000000 
0.000000 -3.961670 0.000000 
0.000000 -3.961670 0.000000 
0.000000 -3.961670 0.000000 
0.000000 -3.961670 0.000000 
0.000000 -3.961670 0.000000 
0.000000 -3.961670 0.000000 
0.000000 -3.961670 0.000000 
-0.000000 -3.961670 0.000000 
-0.000000 -3.961670 0.000000 
0.000000 -3.961670 0.000000 
0.000000 -3.961670 0.000000 
-0.000000 -3.961670 0.000000 
0.000000 -3.961670 0.000000 
0.000000 -3.961670 0.000000 
0.000000 -3.961670 0.000000 
-0.000000 -3.961670 0.000000 
-0.000000 -3.961670 0.000000 
0.000000 -3.961670 0.000000 
0.000000 -3.961670 0.000000 
0.000000 -3.961670 0.000000 
TENSORS STRESS float 
0.000000 -0.000000 0.000000 
0.000000 0.000000 0.000000 
0.000000 0.000000 0.000000 

0.000000 0.000000 0.000000 
0.000000 0.000000 0.000000 
0.000000 0.000000 0.000000 

0.000000 0.000000 0.000000 
0.000000 0.000000 0.000000 
0.000000 0.000000 0.000000 

-0.000000 0.000000 0.000000 
0.000000 -0.000000 0.000000 
0.000000 0.000000 0.000000 

0.000000 -0.000000 0.000000 
0.000000 0.000000 0.000000 
0.000000 0.000000 0.000000 

0.000000 -0.000000 0.000000 
0.000000 0.000000 0.000000 
0.000000 0.000000 0.000000 

-0.000000 -0.000000 0.000000 
0.000000 -0.000000 0.000000 
0.000000 0.000000 0.000000 

-0.000000 -0.000000 0.000000 
0.000000 0.000000 0.000000 
0.000000 0.000000 0.000000 

-0.000000 -0.000000 0.000000 
0.000000 -0.000000 0.000000 
0.000000 0.000000 0.000000 

-0.000000 0.000000 0.000000 
0.000000 0.000000 0.000000 
0.000000 0.000000 0.000000 

0.000000 -0.000000 0.000000 
0.000000 -0.000000 0.000000 
0.000000 0.000000 0.000000 

-0.000000 0.000000 0.000000 
0.000000 -0.000000 0.000000 
0.000000 0.000000 0.000000 

-0.000000 0.000000 0.000000 
0.000000 0.000000 0.000000 
0.000000 0.000000 0.000000 

-0.000000 -0.000000 0.000000 
0.000000 -0.000000 0.000000 
0.000000 0.000000 0.000000 

-0.000000 -0.000000 0.000000 
0.000000 -0.000000 0.000000 
0.000000 0.000000 0.000000 

-0.000000 0.000000 0.000000 
0.000000 0.000000 0.000000 
0.000000 0.000000 0.000000 

0.000000 -0.000000 0.000000 
0.000000 0.000000 0.000000 
0.000000 0.000000 0.000000 

0.000000 -0.000000 0.000000 
0.000000 0.000000 0.000000 
0.000000 0.000000 0.000000 

0.000000 -0.000000 0.000000 
0.000000 -0.000000 0.000000 
0.000000 0.000000 0.000000 

-0.000000 -0.000000 0.000000 
0.000000 -0.000000 0.000000 
0.000000 0.000000 0.000000 

0.000000 -0.000000 0.000000 
0.000000 0.000000 0.000000 
0.000000 0.000000 0.000000 

0.000000 -0.000000 0.000000 
0.000000 0.000000 0.000000 
0.000000 0.000000 0.000000 

0.000000 -0.000000 0.000000 
0.000000 -0.000000 0.000000 
0.000000 0.000000 0.000000 

-0.000000 -0.000000 0.000000 
0.000000 -0.000000 0.000000 
0.000000 0.000000 0.000000 

-0.000000 -0.000000 0.000000 
0.000000 0.000000 0.000000 
0.000000 0.000000 0.000000 

0.000000 0.000000 0.000000 
0.000000 0.000000 0.000000 
0.000000 0.000000 0.000000 

0.000000 0.000000 0.000000 
0.000000 0.000000 0.000000 
0.000000 0.000000 0.000000 

0.000000 -0.000000 0.000000 
0.000000 0.000000 0.000000 
0.000000 0.000000 0.000000 

-0.000000 -0.000000 0.000000 
0.000000 -0.000000 0.000000 
0.000000 0.000000 0.000000 

-0.000000 0.000000 0.000000 
0.000000 -0.000000 0.000000 
0.000000 0.000000 0.000000 

0.000000 0.000000 0.000000 
0.000000 -0.000000 0.000000 
0.000000 0.000000 0.000000 

-0.000000 -0.000000 0.000000 
0.000000 -0.000000 0.000000 
0.000000 0.000000 0.000000 

-0.000000 -0.000000 0.000000 
0.000000 0.000000 0.000000 
0.000000 0.000000 0.000000 

-0.000000 -0.000000 0.000000 
0.000000 0.000000 0.000000 
0.000000 0.000000 0.000000 

-0.000000 0.000000 0.000000 
0.000000 -0.000000 0.000000 
0.000000 0.000000 0.000000 

-0.000000 0.000000 0.000000 
0.000000 0.000000 0.000000 
0.000000 0.000000 0.000000 

0.000000 -0.000000 0.000000 
0.000000 -0.000000 0.000000 
0.000000 0.000000 0.000000 

0.000000 0.000000 0.000000 
0.000000 -0.000000 0.000000 
0.000000 0.000000 0.000000 

0.000000 -0.000000 0.000000 
0.000000 0.000000 0.000000 
0.000000 0.000000 0.000000 

-0.000000 -0.000000 0.000000 
0.000000 -0.000000 0.000000 
0.000000 0.000000 0.000000 

-0.000000 -0.000000 0.000000 
0.000000 0.000000 0.000000 
0.000000 0.000000 0.000000 

-0.000000 0.000000 0.000000 
0.000000 -0.000000 0.000000 
0.000000 0.000000 0.000000 

-0.000000 0.000000 0.000000 
0.000000 0.000000 0.000000 
0.000000 0.000000 0.000000 

-0.000000 -0.000000 0.000000 
0.000000 -0.000000 0.000000 
0.000000 0.000000 0.000000 

-0.000000 0.000000 0.000000 
0.000000 0.000000 0.000000 
0.000000 0.000000 0.000000 

-0.000000 -0.000000 0.000000 
0.000000 -0.000000 0.000000 
0.000000 0.000000 0.000000 

-0.000000 -0.000000 0.000000 
0.000000 -0.000000 0.000000 
0.000000 0.000000 0.000000 

0.000000 -0.000000 0.000000 
0.000000 -0.000000 0.000000 
0.000000 0.000000 0.000000 

-0.000000 -0.000000 0.000000 
0.000000 0.000000 0.000000 
0.000000 0.000000 0.000000 

-0.000000 0.000000 0.000000 
0.000000 0.000000 0.000000 
0.000000 0.000000 0.000000 

-0.000000 -0.000000 0.000000 
0.000000 0.000000 0.000000 
0.000000 0.000000 0.000000 

-0.000000 0.000000 0.000000 
0.000000 -0.000000 0.000000 
0.000000 0.000000 0.000000 

0.000000 -0.000000 0.000000 
0.000000 -0.000000 0.000000 
0.000000 0.000000 0.000000 

0.000000 0.000000 0.000000 
0.000000 -0.000000 0.000000 
0.000000 0.000000 0.000000 

-0.000000 0.000000 0.000000 
0.000000 -0.000000 0.000000 
0.000000 0.000000 0.000000 

-0.000000 0.000000 0.000000 
0.000000 -0.000000 0.000000 
0.000000 0.000000 0.000000 

0.000000 0.000000 0.000000 
0.000000 0.000000 0.000000 
0.000000 0.000000 0.000000 

0.000000 0.000000 0.000000 
0.000000 0.000000 0.000000 
0.000000 0.000000 0.000000 

0.000000 0.000000 0.000000 
0.000000 0.000000 0.000000 
0.000000 0.000000 0.000000 

0.000000 0.000000 0.000000 
0.000000 0.000000 0.000000 
0.000000 0.000000 0.000000 

0.000000 0.000000 0.000000 
0.000000 0.000000 0.000000 
0.000000 0.000000 0.000000 

-0.000000 0.000000 0.000000 
0.000000 0.000000 0.000000 
0.000000 0.000000 0.000000 

-0.000000 0.000000 0.000000 
0.000000 -0.000000 0.000000 
0.000000 0.000000 0.000000 

0.000000 -0.000000 0.000000 
0.000000 0.000000 0.000000 
0.000000 0.000000 0.000000 

0.000000 -0.000000 0.000000 
0.000000 -0.000000 0.000000 
0.000000 0.000000 0.000000 

-0.000000 -0.000000 0.000000 
0.000000 -0.000000 0.000000 
0.000000 0.000000 0.000000 

-0.000000 -0.000000 0.000000 
0.000000 -0.000000 0.000000 
0.000000 0.000000 0.000000 

-0.000000 -0.000000 0.000000 
0.000000 -0.000000 0.000000 
0.000000 0.000000 0.000000 

-0.000000 0.000000 0.000000 
0.000000 -0.000000 0.000000 
0.000000 0.000000 0.000000 

-0.000000 -0.000000 0.000000 
0.000000 0.000000 0.000000 
0.000000 0.000000 0.000000 

-0.000000 -0.000000 0.000000 
0.000000 0.000000 0.000000 
0.000000 0.000000 0.000000 

0.000000 -0.000000 0.000000 
0.000000 0.000000 0.000000 
0.000000 0.000000 0.000000 

-0.000000 0.000000 0.000000 
0.000000 0.000000 0.000000 
0.000000 0.000000 0.000000 

-0.000000 -0.000000 0.000000 
0.000000 -0.000000 0.000000 
0.000000 0.000000 0.000000 

-0.000000 -0.000000 0.000000 
0.000000 0.000000 0.000000 
0.000000 0.000000 0.000000 

-0.000000 0.000000 0.000000 
0.000000 -0.000000 0.000000 
0.000000 0.000000 0.000000 

-0.000000 0.000000 0.000000 
0.000000 -0.000000 0.000000 
0.000000 0.000000 0.000000 

0.000000 -0.000000 0.000000 
0.000000 -0.000000 0.000000 
0.000000 0.000000 0.000000 

0.000000 -0.000000 0.000000 
0.000000 0.000000 0.000000 
0.000000 0.000000 0.000000 

0.000000 0.000000 0.000000 
0.000000 -0.000000 0.000000 
0.000000 0.000000 0.000000 

0.000000 0.000000 0.000000 
0.000000 0.000000 0.000000 
0.000000 0.000000 0.000000 

-0.000000 0.000000 0.000000 
0.000000 -0.000000 0.000000 
0.000000 0.000000 0.000000 

0.000000 0.000000 0.000000 
0.000000 0.000000 0.000000 
0.000000 0.000000 0.000000 

-0.000000 0.000000 0.000000 
0.000000 -0.000000 0.000000 
0.000000 0.000000 0.000000 

-0.000000 0.000000 0.000000 
0.000000 -0.000000 0.000000 
0.000000 0.000000 0.000000 

0.000000 0.000000 0.000000 
0.000000 -0.000000 0.000000 
0.000000 0.000000 0.000000 

-0.000000 -0.000000 0.000000 
0.000000 0.000000 0.000000 
0.000000 0.000000 0.000000 

-0.000000 -0.000000 0.000000 
0.000000 -0.000000 0.000000 
0.000000 0.000000 0.000000 

-0.000000 0.000000 0.000000 
0.000000 -0.000000 0.000000 
0.000000 0.000000 0.000000 

-0.000000 0.000000 0.000000 
0.000000 -0.000000 0.000000 
0.000000 0.000000 0.000000 

0.000000 0.000000 0.000000 
0.000000 0.000000 0.000000 
0.000000 0.000000 0.000000 

-0.000000 0.000000 0.000000 
0.000000 -0.000000 0.000000 
0.000000 0.000000 0.000000 

-0.000000 0.000000 0.000000 
0.000000 -0.000000 0.000000 
0.000000 0.000000 0.000000 

-0.000000 0.000000 0.000000 
0.000000 0.000000 0.000000 
0.000000 0.000000 0.000000 

-0.000000 0.000000 0.000000 
0.000000 -0.000000 0.000000 
0.000000 0.000000 0.000000 

-0.000000 0.000000 0.000000 
0.000000 0.000000 0.000000 
0.000000 0.000000 0.000000 

-0.000000 0.000000 0.000000 
0.000000 -0.000000 0.000000 
0.000000 0.000000 0.000000 

-0.000000 0.000000 0.000000 
0.000000 -0.000000 0.000000 
0.000000 0.000000 0.000000 

-0.000000 -0.000000 0.000000 
0.000000 -0.000000 0.000000 
0.000000 0.000000 0.000000 

-0.000000 0.000000 0.000000 
0.000000 -0.000000 0.000000 
0.000000 0.000000 0.000000 

-0.000000 -0.000000 0.000000 
0.000000 -0.000000 0.000000 
0.000000 0.000000 0.000000 

-0.000000 0.000000 0.000000 
0.000000 -0.000000 0.000000 
0.000000 0.000000 0.000000 

-0.000000 -0.000000 0.000000 
0.000000 -0.000000 0.000000 
0.000000 0.000000 0.000000 

0.000000 -0.000000 0.000000 
0.000000 0.000000 0.000000 
0.000000 0.000000 0.000000 

-0.000000 -0.000000 0.000000 
0.000000 -0.000000 0.000000 
0.000000 0.000000 0.000000 

0.000000 0.000000 0.000000 
0.000000 0.000000 0.000000 
0.000000 0.000000 0.000000 

-0.000000 0.000000 0.000000 
0.000000 -0.000000 0.000000 
0.000000 0.000000 0.000000 

-0.000000 -0.000000 0.000000 
0.000000 0.000000 0.000000 
0.000000 0.000000 0.000000 

0.000000 0.000000 0.000000 
0.000000 0.000000 0.000000 
0.000000 0.000000 0.000000 

-0.000000 0.000000 0.000000 
0.000000 -0.000000 0.000000 
0.000000 0.000000 0.000000 

-0.000000 -0.000000 0.000000 
0.000000 -0.000000 0.000000 
0.000000 0.000000 0.000000 

-0.000000 0.000000 0.000000 
0.000000 0.000000 0.000000 
0.000000 0.000000 0.000000 

-0.000000 -0.000000 0.000000 
0.000000 -0.000000 0.000000 
0.000000 0.000000 0.000000 

-0.000000 -0.000000 0.000000 
0.000000 -0.000000 0.000000 
0.000000 0.000000 0.000000 

0.000000 0.000000 0.000000 
0.000000 0.000000 0.000000 
0.000000 0.000000 0.000000 

0.000000 -0.000000 0.000000 
0.000000 -0.000000 0.000000 
0.000000 0.000000 0.000000 

-0.000000 -0.000000 0.000000 
0.000000 -0.000000 0.000000 
0.000000 0.000000 0.000000 

0.000000 0.000000 0.000000 
0.000000 0.000000 0.000000 
0.000000 0.000000 0.000000 

0.000000 0.000000 0.000000 
0.000000 0.000000 0.000000 
0.000000 0.000000 0.000000 

-0.000000 -0.000000 0.000000 
0.000000 -0.000000 0.000000 
0.000000 0.000000 0.000000 

0.000000 0.000000 0.000000 
0.000000 0.000000 0.000000 
0.000000 0.000000 0.000000 

0.000000 0.000000 0.000000 
0.000000 0.000000 0.000000 
0.000000 0.000000 0.000000 

-0.000000 -0.000000 0.000000 
0.000000 -0.000000 0.000000 
0.000000 0.000000 0.000000 

-0.000000 -0.000000 0.000000 
0.000000 -0.000000 0.000000 
0.000000 0.000000 0.000000 

-0.000000 0.000000 0.000000 
0.000000 -0.000000 0.000000 
0.000000 0.000000 0.000000 

-0.000000 -0.000000 0.000000 
0.000000 -0.000000 0.000000 
0.000000 0.000000 0.000000 

-0.000000 -0.000000 0.000000 
0.000000 -0.000000 0.000000 
0.000000 0.000000 0.000000 

-0.000000 0.000000 0.000000 
0.000000 0.000000 0.000000 
0.000000 0.000000 0.000000 

-0.000000 0.000000 0.000000 
0.000000 0.000000 0.000000 
0.000000 0.000000 0.000000 

-0.000000 0.000000 0.000000 
0.000000 -0.000000 0.000000 
0.000000 0.000000 0.000000 

0.000000 0.000000 0.000000 
0.000000 0.000000 0.000000 
0.000000 0.000000 0.000000 

-0.000000 -0.000000 0.000000 
0.000000 -0.000000 0.000000 
0.000000 0.000000 0.000000 

-0.000000 -0.000000 0.000000 
0.000000 0.000000 0.000000 
0.000000 0.000000 0.000000 

0.000000 0.000000 0.000000 
0.000000 0.000000 0.000000 
0.000000 0.000000 0.000000 

0.000000 0.000000 0.000000 
0.000000 -0.000000 0.000000 
0.000000 0.000000 0.000000 

0.000000 -0.000000 0.000000 
0.000000 -0.000000 0.000000 
0.000000 0.000000 0.000000 

0.000000 -0.000000 0.000000 
0.000000 -0.000000 0.000000 
0.000000 0.000000 0.000000 

0.000000 0.000000 0.000000 
0.000000 0.000000 0.000000 
0.000000 0.000000 0.000000 

-0.000000 -0.000000 0.000000 
0.000000 -0.000000 0.000000 
0.000000 0.000000 0.000000 

0.000000 -0.000000 0.000000 
0.000000 -0.000000 0.000000 
0.000000 0.000000 0.000000 

0.000000 -0.000000 0.000000 
0.000000 0.000000 0.000000 
0.000000 0.000000 0.000000 

-0.000000 -0.000000 0.000000 
0.000000 -0.000000 0.000000 
0.000000 0.000000 0.000000 

0.000000 -0.000000 0.000000 
0.000000 0.000000 0.000000 
0.000000 0.000000 0.000000 

-0.000000 -0.000000 0.000000 
0.000000 0.000000 0.000000 
0.000000 0.000000 0.000000 

0.000000 -0.000000 0.000000 
0.000000 0.000000 0.000000 
0.000000 0.000000 0.000000 

-0.000000 0.000000 0.000000 
0.000000 -0.000000 0.000000 
0.000000 0.000000 0.000000 

-0.000000 -0.000000 0.000000 
0.000000 -0.000000 0.000000 
0.000000 0.000000 0.000000 

-0.000000 0.000000 0.000000 
0.000000 0.000000 0.000000 
0.000000 0.000000 0.000000 

0.000000 -0.000000 0.000000 
0.000000 0.000000 0.000000 
0.000000 0.000000 0.000000 

-0.000000 -0.000000 0.000000 
0.000000 0.000000 0.000000 
0.000000 0.000000 0.000000 

0.000000 0.000000 0.000000 
0.000000 0.000000 0.000000 
0.000000 0.000000 0.000000 

0.000000 0.000000 0.000000 
0.000000 0.000000 0.000000 
0.000000 0.000000 0.000000 

0.000000 0.000000 0.000000 
0.000000 0.000000 0.000000 
0.000000 0.000000 0.000000 

-0.000000 -0.000000 0.000000 
0.000000 0.000000 0.000000 
0.000000 0.000000 0.000000 

-0.000000 -0.000000 0.000000 
0.000000 -0.000000 0.000000 
0.000000 0.000000 0.000000 

-0.000000 0.000000 0.000000 
0.000000 -0.000000 0.000000 
0.000000 0.000000 0.000000 

-0.000000 0.000000 0.000000 
0.000000 -0.000000 0.000000 
0.000000 0.000000 0.000000 

-0.000000 0.000000 0.000000 
0.000000 -0.000000 0.000000 
0.000000 0.000000 0.000000 

0.000000 0.000000 0.000000 
0.000000 0.000000 0.000000 
0.000000 0.000000 0.000000 

-0.000000 0.000000 0.000000 
0.000000 -0.000000 0.000000 
0.000000 0.000000 0.000000 

-0.000000 -0.000000 0.000000 
0.000000 0.000000 0.000000 
0.000000 0.000000 0.000000 

0.000000 0.000000 0.000000 
0.000000 0.000000 0.000000 
0.000000 0.000000 0.000000 

0.000000 -0.000000 0.000000 
0.000000 -0.000000 0.000000 
0.000000 0.000000 0.000000 

0.000000 0.000000 0.000000 
0.000000 0.000000 0.000000 
0.000000 0.000000 0.000000 

0.000000 -0.000000 0.000000 
0.000000 0.000000 0.000000 
0.000000 0.000000 0.000000 

-0.000000 -0.000000 0.000000 
0.000000 -0.000000 0.000000 
0.000000 0.000000 0.000000 

-0.000000 -0.000000 0.000000 
0.000000 0.000000 0.000000 
0.000000 0.000000 0.000000 

-0.000000 -0.000000 0.000000 
0.000000 0.000000 0.000000 
0.000000 0.000000 0.000000 

-0.000000 0.000000 0.000000 
0.000000 -0.000000 0.000000 
0.000000 0.000000 0.000000 

-0.000000 0.000000 0.000000 
0.000000 -0.000000 0.000000 
0.000000 0.000000 0.000000 

-0.000000 0.000000 0.000000 
0.000000 0.000000 0.000000 
0.000000 0.000000 0.000000 

0.000000 0.000000 0.000000 
0.000000 0.000000 0.000000 
0.000000 0.000000 0.000000 

0.000000 -0.000000 0.000000 
0.000000 0.000000 0.000000 
0.000000 0.000000 0.000000 

-0.000000 -0.000000 0.000000 
0.000000 -0.000000 0.000000 
0.000000 0.000000 0.000000 

-0.000000 -0.000000 0.000000 
0.000000 -0.000000 0.000000 
0.000000 0.000000 0.000000 

TENSORS STRAIN float 
0.000000 -0.000000 0.000000 
0.000000 0.000000 0.000000 
0.000000 0.000000 0.000000 

-0.000000 0.000000 0.000000 
0.000000 0.000000 0.000000 
0.000000 0.000000 0.000000 

0.000000 0.000000 0.000000 
0.000000 0.000000 0.000000 
0.000000 0.000000 0.000000 

-0.000000 0.000000 0.000000 
0.000000 -0.000000 0.000000 
0.000000 0.000000 0.000000 

0.000000 -0.000000 0.000000 
0.000000 0.000000 0.000000 
0.000000 0.000000 0.000000 

0.000000 -0.000000 0.000000 
0.000000 0.000000 0.000000 
0.000000 0.000000 0.000000 

0.000000 -0.000000 0.000000 
0.000000 -0.000000 0.000000 
0.000000 0.000000 0.000000 

-0.000000 -0.000000 0.000000 
0.000000 0.000000 0.000000 
0.000000 0.000000 0.000000 

-0.000000 -0.000000 0.000000 
0.000000 -0.000000 0.000000 
0.000000 0.000000 0.000000 

-0.000000 0.000000 0.000000 
0.000000 0.000000 0.000000 
0.000000 0.000000 0.000000 

0.000000 -0.000000 0.000000 
0.000000 -0.000000 0.000000 
0.000000 0.000000 0.000000 

-0.000000 0.000000 0.000000 
0.000000 -0.000000 0.000000 
0.000000 0.000000 0.000000 

-0.000000 0.000000 0.000000 
0.000000 0.000000 0.000000 
0.000000 0.000000 0.000000 

-0.000000 -0.000000 0.000000 
0.000000 -0.000000 0.000000 
0.000000 0.000000 0.000000 

-0.000000 -0.000000 0.000000 
0.000000 -0.000000 0.000000 
0.000000 0.000000 0.000000 

-0.000000 0.000000 0.000000 
0.000000 0.000000 0.000000 
0.000000 0.000000 0.000000 

0.000000 -0.000000 0.000000 
0.000000 0.000000 0.000000 
0.000000 0.000000 0.000000 

0.000000 -0.000000 0.000000 
0.000000 0.000000 0.000000 
0.000000 0.000000 0.000000 

0.000000 -0.000000 0.000000 
0.000000 -0.000000 0.000000 
0.000000 0.000000 0.000000 

-0.000000 -0.000000 0.000000 
0.000000 -0.000000 0.000000 
0.000000 0.000000 0.000000 

0.000000 -0.000000 0.000000 
0.000000 0.000000 0.000000 
0.000000 0.000000 0.000000 

0.000000 -0.000000 0.000000 
0.000000 0.000000 0.000000 
0.000000 0.000000 0.000000 

0.000000 -0.000000 0.000000 
0.000000 -0.000000 0.000000 
0.000000 0.000000 0.000000 

-0.000000 -0.000000 0.000000 
0.000000 -0.000000 0.000000 
0.000000 0.000000 0.000000 

-0.000000 -0.000000 0.000000 
0.000000 0.000000 0.000000 
0.000000 0.000000 0.000000 

-0.000000 0.000000 0.000000 
0.000000 0.000000 0.000000 
0.000000 0.000000 0.000000 

0.000000 0.000000 0.000000 
0.000000 0.000000 0.000000 
0.000000 0.000000 0.000000 

0.000000 -0.000000 0.000000 
0.000000 0.000000 0.000000 
0.000000 0.000000 0.000000 

-0.000000 -0.000000 0.000000 
0.000000 -0.000000 0.000000 
0.000000 0.000000 0.000000 

-0.000000 0.000000 0.000000 
0.000000 -0.000000 0.000000 
0.000000 0.000000 0.000000 

0.000000 0.000000 0.000000 
0.000000 -0.000000 0.000000 
0.000000 0.000000 0.000000 

0.000000 -0.000000 0.000000 
0.000000 -0.000000 0.000000 
0.000000 0.000000 0.000000 

-0.000000 -0.000000 0.000000 
0.000000 0.000000 0.000000 
0.000000 0.000000 0.000000 

-0.000000 -0.000000 0.000000 
0.000000 0.000000 0.000000 
0.000000 0.000000 0.000000 

-0.000000 0.000000 0.000000 
0.000000 -0.000000 0.000000 
0.000000 0.000000 0.000000 

-0.000000 0.000000 0.000000 
0.000000 0.000000 0.000000 
0.000000 0.000000 0.000000 

0.000000 -0.000000 0.000000 
0.000000 -0.000000 0.000000 
0.000000 0.000000 0.000000 

0.000000 0.000000 0.000000 
0.000000 -0.000000 0.000000 
0.000000 0.000000 0.000000 

-0.000000 -0.000000 0.000000 
0.000000 0.000000 0.000000 
0.000000 0.000000 0.000000 

-0.000000 -0.000000 0.000000 
0.000000 0.000000 0.000000 
0.000000 0.000000 0.000000 

-0.000000 -0.000000 0.000000 
0.000000 0.000000 0.000000 
0.000000 0.000000 0.000000 

-0.000000 0.000000 0.000000 
0.000000 -0.000000 0.000000 
0.000000 0.000000 0.000000 

-0.000000 0.000000 0.000000 
0.000000 0.000000 0.000000 
0.000000 0.000000 0.000000 

-0.000000 -0.000000 0.000000 
0.000000 0.000000 0.000000 
0.000000 0.000000 0.000000 

-0.000000 0.000000 0.000000 
0.000000 0.000000 0.000000 
0.000000 0.000000 0.000000 

-0.000000 -0.000000 0.000000 
0.000000 -0.000000 0.000000 
0.000000 0.000000 0.000000 

-0.000000 -0.000000 0.000000 
0.000000 -0.000000 0.000000 
0.000000 0.000000 0.000000 

0.000000 -0.000000 0.000000 
0.000000 -0.000000 0.000000 
0.000000 0.000000 0.000000 

-0.000000 -0.000000 0.000000 
0.000000 0.000000 0.000000 
0.000000 0.000000 0.000000 

-0.000000 0.000000 0.000000 
0.000000 0.000000 0.000000 
0.000000 0.000000 0.000000 

-0.000000 -0.000000 0.000000 
0.000000 0.000000 0.000000 
0.000000 0.000000 0.000000 

0.000000 0.000000 0.000000 
0.000000 -0.000000 0.000000 
0.000000 0.000000 0.000000 

0.000000 -0.000000 0.000000 
0.000000 -0.000000 0.000000 
0.000000 0.000000 0.000000 

0.000000 0.000000 0.000000 
0.000000 -0.000000 0.000000 
0.000000 0.000000 0.000000 

-0.000000 0.000000 0.000000 
0.000000 -0.000000 0.000000 
0.000000 0.000000 0.000000 

0.000000 0.000000 0.000000 
0.000000 -0.000000 0.000000 
0.000000 0.000000 0.000000 

0.000000 0.000000 0.000000 
0.000000 0.000000 0.000000 
0.000000 0.000000 0.000000 

0.000000 0.000000 0.000000 
0.000000 0.000000 0.000000 
0.000000 0.000000 0.000000 

0.000000 0.000000 0.000000 
0.000000 0.000000 0.000000 
0.000000 0.000000 0.000000 

-0.000000 0.000000 0.000000 
0.000000 0.000000 0.000000 
0.000000 0.000000 0.000000 

-0.000000 0.000000 0.000000 
0.000000 0.000000 0.000000 
0.000000 0.000000 0.000000 

-0.000000 0.000000 0.000000 
0.000000 0.000000 0.000000 
0.000000 0.000000 0.000000 

-0.000000 0.000000 0.000000 
0.000000 -0.000000 0.000000 
0.000000 0.000000 0.000000 

-0.000000 -0.000000 0.000000 
0.000000 0.000000 0.000000 
0.000000 0.000000 0.000000 

0.000000 -0.000000 0.000000 
0.000000 -0.000000 0.000000 
0.000000 0.000000 0.000000 

-0.000000 -0.000000 0.000000 
0.000000 -0.000000 0.000000 
0.000000 0.000000 0.000000 

-0.000000 -0.000000 0.000000 
0.000000 -0.000000 0.000000 
0.000000 0.000000 0.000000 

-0.000000 -0.000000 0.000000 
0.000000 -0.000000 0.000000 
0.000000 0.000000 0.000000 

-0.000000 0.000000 0.000000 
0.000000 -0.000000 0.000000 
0.000000 0.000000 0.000000 

-0.000000 -0.000000 0.000000 
0.000000 0.000000 0.000000 
0.000000 0.000000 0.000000 

-0.000000 -0.000000 0.000000 
0.000000 0.000000 0.000000 
0.000000 0.000000 0.000000 

-0.000000 -0.000000 0.000000 
0.000000 0.000000 0.000000 
0.000000 0.000000 0.000000 

-0.000000 0.000000 0.000000 
0.000000 0.000000 0.000000 
0.000000 0.000000 0.000000 

-0.000000 -0.000000 0.000000 
0.000000 -0.000000 0.000000 
0.000000 0.000000 0.000000 

-0.000000 -0.000000 0.000000 
0.000000 0.000000 0.000000 
0.000000 0.000000 0.000000 

0.000000 0.000000 0.000000 
0.000000 -0.000000 0.000000 
0.000000 0.000000 0.000000 

0.000000 0.000000 0.000000 
0.000000 -0.000000 0.000000 
0.000000 0.000000 0.000000 

0.000000 -0.000000 0.000000 
0.000000 -0.000000 0.000000 
0.000000 0.000000 0.000000 

0.000000 -0.000000 0.000000 
0.000000 0.000000 0.000000 
0.000000 0.000000 0.000000 

0.000000 0.000000 0.000000 
0.000000 -0.000000 0.000000 
0.000000 0.000000 0.000000 

0.000000 0.000000 0.000000 
0.000000 0.000000 0.000000 
0.000000 0.000000 0.000000 

-0.000000 0.000000 0.000000 
0.000000 -0.000000 0.000000 
0.000000 0.000000 0.000000 

0.000000 0.000000 0.000000 
0.000000 -0.000000 0.000000 
0.000000 0.000000 0.000000 

-0.000000 0.000000 0.000000 
0.000000 -0.000000 0.000000 
0.000000 0.000000 0.000000 

-0.000000 0.000000 0.000000 
0.000000 0.000000 0.000000 
0.000000 0.000000 0.000000 

0.000000 0.000000 0.000000 
0.000000 -0.000000 0.000000 
0.000000 0.000000 0.000000 

-0.000000 -0.000000 0.000000 
0.000000 0.000000 0.000000 
0.000000 0.000000 0.000000 

-0.000000 -0.000000 0.000000 
0.000000 -0.000000 0.000000 
0.000000 0.000000 0.000000 

-0.000000 0.000000 0.000000 
0.000000 -0.000000 0.000000 
0.000000 0.000000 0.000000 

-0.000000 0.000000 0.000000 
0.000000 -0.000000 0.000000 
0.000000 0.000000 0.000000 

0.000000 0.000000 0.000000 
0.000000 0.000000 0.000000 
0.000000 0.000000 0.000000 

-0.000000 0.000000 0.000000 
0.000000 -0.000000 0.000000 
0.000000 0.000000 0.000000 

-0.000000 0.000000 0.000000 
0.000000 -0.000000 0.000000 
0.000000 0.000000 0.000000 

-0.000000 0.000000 0.000000 
0.000000 0.000000 0.000000 
0.000000 0.000000 0.000000 

-0.000000 0.000000 0.000000 
0.000000 0.000000 0.000000 
0.000000 0.000000 0.000000 

-0.000000 0.000000 0.000000 
0.000000 0.000000 0.000000 
0.000000 0.000000 0.000000 

-0.000000 0.000000 0.000000 
0.000000 -0.000000 0.000000 
0.000000 0.000000 0.000000 

-0.000000 0.000000 0.000000 
0.000000 -0.000000 0.000000 
0.000000 0.000000 0.000000 

-0.000000 -0.000000 0.000000 
0.000000 -0.000000 0.000000 
0.000000 0.000000 0.000000 

-0.000000 0.000000 0.000000 
0.000000 -0.000000 0.000000 
0.000000 0.000000 0.000000 

-0.000000 -0.000000 0.000000 
0.000000 -0.000000 0.000000 
0.000000 0.000000 0.000000 

0.000000 0.000000 0.000000 
0.000000 -0.000000 0.000000 
0.000000 0.000000 0.000000 

-0.000000 -0.000000 0.000000 
0.000000 -0.000000 0.000000 
0.000000 0.000000 0.000000 

-0.000000 -0.000000 0.000000 
0.000000 0.000000 0.000000 
0.000000 0.000000 0.000000 

0.000000 -0.000000 0.000000 
0.000000 -0.000000 0.000000 
0.000000 0.000000 0.000000 

-0.000000 0.000000 0.000000 
0.000000 0.000000 0.000000 
0.000000 0.000000 0.000000 

-0.000000 0.000000 0.000000 
0.000000 0.000000 0.000000 
0.000000 0.000000 0.000000 

-0.000000 -0.000000 0.000000 
0.000000 0.000000 0.000000 
0.000000 0.000000 0.000000 

0.000000 0.000000 0.000000 
0.000000 0.000000 0.000000 
0.000000 0.000000 0.000000 

-0.000000 0.000000 0.000000 
0.000000 -0.000000 0.000000 
0.000000 0.000000 0.000000 

-0.000000 -0.000000 0.000000 
0.000000 -0.000000 0.000000 
0.000000 0.000000 0.000000 

-0.000000 0.000000 0.000000 
0.000000 0.000000 0.000000 
0.000000 0.000000 0.000000 

-0.000000 -0.000000 0.000000 
0.000000 0.000000 0.000000 
0.000000 0.000000 0.000000 

-0.000000 -0.000000 0.000000 
0.000000 -0.000000 0.000000 
0.000000 0.000000 0.000000 

0.000000 0.000000 0.000000 
0.000000 0.000000 0.000000 
0.000000 0.000000 0.000000 

0.000000 -0.000000 0.000000 
0.000000 -0.000000 0.000000 
0.000000 0.000000 0.000000 

-0.000000 -0.000000 0.000000 
0.000000 0.000000 0.000000 
0.000000 0.000000 0.000000 

0.000000 0.000000 0.000000 
0.000000 0.000000 0.000000 
0.000000 0.000000 0.000000 

0.000000 0.000000 0.000000 
0.000000 0.000000 0.000000 
0.000000 0.000000 0.000000 

-0.000000 -0.000000 0.000000 
0.000000 -0.000000 0.000000 
0.000000 0.000000 0.000000 

-0.000000 0.000000 0.000000 
0.000000 0.000000 0.000000 
0.000000 0.000000 0.000000 

-0.000000 0.000000 0.000000 
0.000000 0.000000 0.000000 
0.000000 0.000000 0.000000 

0.000000 -0.000000 0.000000 
0.000000 -0.000000 0.000000 
0.000000 0.000000 0.000000 

0.000000 -0.000000 0.000000 
0.000000 -0.000000 0.000000 
0.000000 0.000000 0.000000 

-0.000000 0.000000 0.000000 
0.000000 -0.000000 0.000000 
0.000000 0.000000 0.000000 

-0.000000 -0.000000 0.000000 
0.000000 -0.000000 0.000000 
0.000000 0.000000 0.000000 

-0.000000 -0.000000 0.000000 
0.000000 -0.000000 0.000000 
0.000000 0.000000 0.000000 

-0.000000 0.000000 0.000000 
0.000000 0.000000 0.000000 
0.000000 0.000000 0.000000 

-0.000000 0.000000 0.000000 
0.000000 0.000000 0.000000 
0.000000 0.000000 0.000000 

-0.000000 0.000000 0.000000 
0.000000 -0.000000 0.000000 
0.000000 0.000000 0.000000 

-0.000000 0.000000 0.000000 
0.000000 0.000000 0.000000 
0.000000 0.000000 0.000000 

0.000000 -0.000000 0.000000 
0.000000 -0.000000 0.000000 
0.000000 0.000000 0.000000 

-0.000000 -0.000000 0.000000 
0.000000 0.000000 0.000000 
0.000000 0.000000 0.000000 

0.000000 0.000000 0.000000 
0.000000 -0.000000 0.000000 
0.000000 0.000000 0.000000 

0.000000 0.000000 0.000000 
0.000000 -0.000000 0.000000 
0.000000 0.000000 0.000000 

0.000000 -0.000000 0.000000 
0.000000 -0.000000 0.000000 
0.000000 0.000000 0.000000 

0.000000 -0.000000 0.000000 
0.000000 -0.000000 0.000000 
0.000000 0.000000 0.000000 

0.000000 0.000000 0.000000 
0.000000 0.000000 0.000000 
0.000000 0.000000 0.000000 

0.000000 -0.000000 0.000000 
0.000000 -0.000000 0.000000 
0.000000 0.000000 0.000000 

0.000000 -0.000000 0.000000 
0.000000 -0.000000 0.000000 
0.000000 0.000000 0.000000 

0.000000 -0.000000 0.000000 
0.000000 -0.000000 0.000000 
0.000000 0.000000 0.000000 

-0.000000 -0.000000 0.000000 
0.000000 -0.000000 0.000000 
0.000000 0.000000 0.000000 

0.000000 -0.000000 0.000000 
0.000000 0.000000 0.000000 
0.000000 0.000000 0.000000 

-0.000000 -0.000000 0.000000 
0.000000 0.000000 0.000000 
0.000000 0.000000 0.000000 

-0.000000 -0.000000 0.000000 
0.000000 0.000000 0.000000 
0.000000 0.000000 0.000000 

-0.000000 0.000000 0.000000 
0.000000 -0.000000 0.000000 
0.000000 0.000000 0.000000 

-0.000000 -0.000000 0.000000 
0.000000 -0.000000 0.000000 
0.000000 0.000000 0.000000 

-0.000000 0.000000 0.000000 
0.000000 0.000000 0.000000 
0.000000 0.000000 0.000000 

-0.000000 -0.000000 0.000000 
0.000000 0.000000 0.000000 
0.000000 0.000000 0.000000 

-0.000000 -0.000000 0.000000 
0.000000 0.000000 0.000000 
0.000000 0.000000 0.000000 

0.000000 0.000000 0.000000 
0.000000 0.000000 0.000000 
0.000000 0.000000 0.000000 

-0.000000 0.000000 0.000000 
0.000000 0.000000 0.000000 
0.000000 0.000000 0.000000 

0.000000 0.000000 0.000000 
0.000000 0.000000 0.000000 
0.000000 0.000000 0.000000 

-0.000000 -0.000000 0.000000 
0.000000 0.000000 0.000000 
0.000000 0.000000 0.000000 

-0.000000 -0.000000 0.000000 
0.000000 0.000000 0.000000 
0.000000 0.000000 0.000000 

-0.000000 0.000000 0.000000 
0.000000 -0.000000 0.000000 
0.000000 0.000000 0.000000 

0.000000 0.000000 0.000000 
0.000000 -0.000000 0.000000 
0.000000 0.000000 0.000000 

0.000000 0.000000 0.000000 
0.000000 -0.000000 0.000000 
0.000000 0.000000 0.000000 

0.000000 0.000000 0.000000 
0.000000 0.000000 0.000000 
0.000000 0.000000 0.000000 

-0.000000 0.000000 0.000000 
0.000000 -0.000000 0.000000 
0.000000 0.000000 0.000000 

-0.000000 -0.000000 0.000000 
0.000000 0.000000 0.000000 
0.000000 0.000000 0.000000 

0.000000 0.000000 0.000000 
0.000000 0.000000 0.000000 
0.000000 0.000000 0.000000 

0.000000 -0.000000 0.000000 
0.000000 -0.000000 0.000000 
0.000000 0.000000 0.000000 

0.000000 0.000000 0.000000 
0.000000 0.000000 0.000000 
0.000000 0.000000 0.000000 

0.000000 -0.000000 0.000000 
0.000000 0.000000 0.000000 
0.000000 0.000000 0.000000 

-0.000000 -0.000000 0.000000 
0.000000 -0.000000 0.000000 
0.000000 0.000000 0.000000 

-0.000000 -0.000000 0.000000 
0.000000 0.000000 0.000000 
0.000000 0.000000 0.000000 

-0.000000 -0.000000 0.000000 
0.000000 0.000000 0.000000 
0.000000 0.000000 0.000000 

-0.000000 0.000000 0.000000 
0.000000 -0.000000 0.000000 
0.000000 0.000000 0.000000 

-0.000000 0.000000 0.000000 
0.000000 -0.000000 0.000000 
0.000000 0.000000 0.000000 

-0.000000 0.000000 0.000000 
0.000000 0.000000 0.000000 
0.000000 0.000000 0.000000 

-0.000000 0.000000 0.000000 
0.000000 0.000000 0.000000 
0.000000 0.000000 0.000000 

0.000000 -0.000000 0.000000 
0.000000 0.000000 0.000000 
0.000000 0.000000 0.000000 

-0.000000 -0.000000 0.000000 
0.000000 -0.000000 0.000000 
0.000000 0.000000 0.000000 

-0.000000 -0.000000 0.000000 
0.000000 -0.000000 0.000000 
0.000000 0.000000 0.000000 

