# vtk DataFile Version 3.0 
vtk output 
ASCII 
DATASET UNSTRUCTURED_GRID 
POINTS 175 float 
-0.026061 -1.634152 0.000000 
-0.106992 -1.566097 0.000000 
-0.054870 -1.574330 0.000000 
-0.028809 -1.528446 0.000000 
-0.186430 -1.502021 0.000000 
-0.137056 -1.504548 0.000000 
-0.114311 -1.450900 0.000000 
-0.058186 -1.466566 0.000000 
-0.029377 -1.426389 0.000000 
-0.265318 -1.438866 0.000000 
-0.217198 -1.439665 0.000000 
-0.196633 -1.382369 0.000000 
-0.143120 -1.391078 0.000000 
-0.116563 -1.343809 0.000000 
-0.058945 -1.363455 0.000000 
-0.029568 -1.325335 0.000000 
-0.344206 -1.375710 0.000000 
-0.296791 -1.375703 0.000000 
-0.278030 -1.315760 0.000000 
-0.225992 -1.321626 0.000000 
-0.201664 -1.269509 0.000000 
-0.145749 -1.282983 0.000000 
-0.117890 -1.238641 0.000000 
-0.059328 -1.261346 0.000000 
-0.029759 -1.224280 0.000000 
-0.058559 -1.674903 0.000000 
-0.162226 -1.695746 0.000000 
-0.123292 -1.660128 0.000000 
-0.142917 -1.611145 0.000000 
-0.261851 -1.717902 0.000000 
-0.229092 -1.680875 0.000000 
-0.256854 -1.629644 0.000000 
-0.209613 -1.595531 0.000000 
-0.223062 -1.547957 0.000000 
-0.360414 -1.740202 0.000000 
-0.329787 -1.703079 0.000000 
-0.361761 -1.651277 0.000000 
-0.321587 -1.614869 0.000000 
-0.341985 -1.564635 0.000000 
-0.290702 -1.531836 0.000000 
-0.302189 -1.485100 0.000000 
-0.458977 -1.762502 0.000000 
-0.429420 -1.725428 0.000000 
-0.464588 -1.673386 0.000000 
-0.427556 -1.636359 0.000000 
-0.453135 -1.584844 0.000000 
-0.407738 -1.549528 0.000000 
-0.425037 -1.500100 0.000000 
-0.370772 -1.468471 0.000000 
-0.381315 -1.422244 0.000000 
-0.046960 -1.725718 0.000000 
-0.095301 -1.819764 0.000000 
-0.098873 -1.767117 0.000000 
-0.149405 -1.751919 0.000000 
-0.140093 -1.911468 0.000000 
-0.148617 -1.862770 0.000000 
-0.205981 -1.852533 0.000000 
-0.203197 -1.794329 0.000000 
-0.248777 -1.775183 0.000000 
-0.184111 -2.002432 0.000000 
-0.194039 -1.955341 0.000000 
-0.254475 -1.948041 0.000000 
-0.257893 -1.893931 0.000000 
-0.309886 -1.878559 0.000000 
-0.303554 -1.818014 0.000000 
-0.347255 -1.797856 0.000000 
-0.228129 -2.093396 0.000000 
-0.238687 -2.047171 0.000000 
-0.301302 -2.042219 0.000000 
-0.307162 -1.990180 0.000000 
-0.363386 -1.978059 0.000000 
-0.362692 -1.920548 0.000000 
-0.412122 -1.903255 0.000000 
-0.403017 -1.841108 0.000000 
-0.445733 -1.820529 0.000000 
-0.000000 -1.748333 0.000000 
0.043388 -1.844764 0.000000 
-0.000000 -1.814732 0.000000 
-0.043388 -1.844764 0.000000 
0.087158 -1.936961 0.000000 
0.043769 -1.913262 0.000000 
-0.000000 -1.951728 0.000000 
-0.043769 -1.913262 0.000000 
-0.087158 -1.936961 0.000000 
0.130831 -2.028090 0.000000 
0.087824 -2.006491 0.000000 
0.044436 -2.049191 0.000000 
-0.000000 -2.018126 0.000000 
-0.044436 -2.049191 0.000000 
-0.087824 -2.006491 0.000000 
-0.130831 -2.028090 0.000000 
0.174505 -2.119220 0.000000 
0.131782 -2.098654 0.000000 
0.088871 -2.144520 0.000000 
0.044532 -2.116656 0.000000 
-0.000000 -2.153057 0.000000 
-0.044532 -2.116656 0.000000 
-0.088871 -2.144520 0.000000 
-0.131782 -2.098654 0.000000 
-0.174505 -2.119220 0.000000 
0.046960 -1.725718 0.000000 
0.149405 -1.751919 0.000000 
0.098873 -1.767117 0.000000 
0.095301 -1.819764 0.000000 
0.248777 -1.775183 0.000000 
0.203197 -1.794329 0.000000 
0.205981 -1.852533 0.000000 
0.148617 -1.862770 0.000000 
0.140093 -1.911468 0.000000 
0.347255 -1.797856 0.000000 
0.303554 -1.818014 0.000000 
0.309886 -1.878559 0.000000 
0.257893 -1.893931 0.000000 
0.254475 -1.948041 0.000000 
0.194039 -1.955341 0.000000 
0.184111 -2.002432 0.000000 
0.445733 -1.820529 0.000000 
0.403017 -1.841108 0.000000 
0.412122 -1.903255 0.000000 
0.362692 -1.920548 0.000000 
0.363386 -1.978059 0.000000 
0.307162 -1.990180 0.000000 
0.301302 -2.042219 0.000000 
0.238687 -2.047171 0.000000 
0.228129 -2.093396 0.000000 
0.058559 -1.674903 0.000000 
0.142917 -1.611145 0.000000 
0.123292 -1.660128 0.000000 
0.162226 -1.695746 0.000000 
0.223062 -1.547957 0.000000 
0.209613 -1.595531 0.000000 
0.256854 -1.629644 0.000000 
0.229092 -1.680875 0.000000 
0.261851 -1.717902 0.000000 
0.302189 -1.485100 0.000000 
0.290702 -1.531836 0.000000 
0.341985 -1.564635 0.000000 
0.321587 -1.614869 0.000000 
0.361761 -1.651277 0.000000 
0.329787 -1.703079 0.000000 
0.360414 -1.740202 0.000000 
0.381315 -1.422244 0.000000 
0.370772 -1.468471 0.000000 
0.425037 -1.500100 0.000000 
0.407738 -1.549528 0.000000 
0.453135 -1.584844 0.000000 
0.427556 -1.636359 0.000000 
0.464588 -1.673386 0.000000 
0.429420 -1.725428 0.000000 
0.458977 -1.762502 0.000000 
0.026061 -1.634152 0.000000 
0.028809 -1.528446 0.000000 
0.054870 -1.574330 0.000000 
0.106992 -1.566097 0.000000 
0.029377 -1.426389 0.000000 
0.058186 -1.466566 0.000000 
0.114311 -1.450900 0.000000 
0.137056 -1.504548 0.000000 
0.186430 -1.502021 0.000000 
0.029568 -1.325335 0.000000 
0.058945 -1.363455 0.000000 
0.116563 -1.343809 0.000000 
0.143120 -1.391078 0.000000 
0.196633 -1.382369 0.000000 
0.217198 -1.439665 0.000000 
0.265318 -1.438866 0.000000 
0.029759 -1.224280 0.000000 
0.059328 -1.261346 0.000000 
0.117890 -1.238641 0.000000 
0.145749 -1.282983 0.000000 
0.201664 -1.269509 0.000000 
0.225992 -1.321626 0.000000 
0.278030 -1.315760 0.000000 
0.296791 -1.375703 0.000000 
0.344206 -1.375710 0.000000 
CELLS 175 350 
1 0 
1 1 
1 2 
1 3 
1 4 
1 5 
1 6 
1 7 
1 8 
1 9 
1 10 
1 11 
1 12 
1 13 
1 14 
1 15 
1 16 
1 17 
1 18 
1 19 
1 20 
1 21 
1 22 
1 23 
1 24 
1 25 
1 26 
1 27 
1 28 
1 29 
1 30 
1 31 
1 32 
1 33 
1 34 
1 35 
1 36 
1 37 
1 38 
1 39 
1 40 
1 41 
1 42 
1 43 
1 44 
1 45 
1 46 
1 47 
1 48 
1 49 
1 50 
1 51 
1 52 
1 53 
1 54 
1 55 
1 56 
1 57 
1 58 
1 59 
1 60 
1 61 
1 62 
1 63 
1 64 
1 65 
1 66 
1 67 
1 68 
1 69 
1 70 
1 71 
1 72 
1 73 
1 74 
1 75 
1 76 
1 77 
1 78 
1 79 
1 80 
1 81 
1 82 
1 83 
1 84 
1 85 
1 86 
1 87 
1 88 
1 89 
1 90 
1 91 
1 92 
1 93 
1 94 
1 95 
1 96 
1 97 
1 98 
1 99 
1 100 
1 101 
1 102 
1 103 
1 104 
1 105 
1 106 
1 107 
1 108 
1 109 
1 110 
1 111 
1 112 
1 113 
1 114 
1 115 
1 116 
1 117 
1 118 
1 119 
1 120 
1 121 
1 122 
1 123 
1 124 
1 125 
1 126 
1 127 
1 128 
1 129 
1 130 
1 131 
1 132 
1 133 
1 134 
1 135 
1 136 
1 137 
1 138 
1 139 
1 140 
1 141 
1 142 
1 143 
1 144 
1 145 
1 146 
1 147 
1 148 
1 149 
1 150 
1 151 
1 152 
1 153 
1 154 
1 155 
1 156 
1 157 
1 158 
1 159 
1 160 
1 161 
1 162 
1 163 
1 164 
1 165 
1 166 
1 167 
1 168 
1 169 
1 170 
1 171 
1 172 
1 173 
1 174 
CELL_TYPES 175 
1 
1 
1 
1 
1 
1 
1 
1 
1 
1 
1 
1 
1 
1 
1 
1 
1 
1 
1 
1 
1 
1 
1 
1 
1 
1 
1 
1 
1 
1 
1 
1 
1 
1 
1 
1 
1 
1 
1 
1 
1 
1 
1 
1 
1 
1 
1 
1 
1 
1 
1 
1 
1 
1 
1 
1 
1 
1 
1 
1 
1 
1 
1 
1 
1 
1 
1 
1 
1 
1 
1 
1 
1 
1 
1 
1 
1 
1 
1 
1 
1 
1 
1 
1 
1 
1 
1 
1 
1 
1 
1 
1 
1 
1 
1 
1 
1 
1 
1 
1 
1 
1 
1 
1 
1 
1 
1 
1 
1 
1 
1 
1 
1 
1 
1 
1 
1 
1 
1 
1 
1 
1 
1 
1 
1 
1 
1 
1 
1 
1 
1 
1 
1 
1 
1 
1 
1 
1 
1 
1 
1 
1 
1 
1 
1 
1 
1 
1 
1 
1 
1 
1 
1 
1 
1 
1 
1 
1 
1 
1 
1 
1 
1 
1 
1 
1 
1 
1 
1 
1 
1 
1 
1 
1 
1 
POINT_DATA 175 
VECTORS X_GC float 
-0.026061 -1.634152 0.000000 
-0.106992 -1.566097 0.000000 
-0.054870 -1.574330 0.000000 
-0.028809 -1.528446 0.000000 
-0.186430 -1.502021 0.000000 
-0.137056 -1.504548 0.000000 
-0.114311 -1.450900 0.000000 
-0.058186 -1.466566 0.000000 
-0.029377 -1.426389 0.000000 
-0.265318 -1.438866 0.000000 
-0.217198 -1.439665 0.000000 
-0.196633 -1.382369 0.000000 
-0.143120 -1.391078 0.000000 
-0.116563 -1.343809 0.000000 
-0.058945 -1.363455 0.000000 
-0.029568 -1.325335 0.000000 
-0.344206 -1.375710 0.000000 
-0.296791 -1.375703 0.000000 
-0.278030 -1.315760 0.000000 
-0.225992 -1.321626 0.000000 
-0.201664 -1.269509 0.000000 
-0.145749 -1.282983 0.000000 
-0.117890 -1.238641 0.000000 
-0.059328 -1.261346 0.000000 
-0.029759 -1.224280 0.000000 
-0.058559 -1.674903 0.000000 
-0.162226 -1.695746 0.000000 
-0.123292 -1.660128 0.000000 
-0.142917 -1.611145 0.000000 
-0.261851 -1.717902 0.000000 
-0.229092 -1.680875 0.000000 
-0.256854 -1.629644 0.000000 
-0.209613 -1.595531 0.000000 
-0.223062 -1.547957 0.000000 
-0.360414 -1.740202 0.000000 
-0.329787 -1.703079 0.000000 
-0.361761 -1.651277 0.000000 
-0.321587 -1.614869 0.000000 
-0.341985 -1.564635 0.000000 
-0.290702 -1.531836 0.000000 
-0.302189 -1.485100 0.000000 
-0.458977 -1.762502 0.000000 
-0.429420 -1.725428 0.000000 
-0.464588 -1.673386 0.000000 
-0.427556 -1.636359 0.000000 
-0.453135 -1.584844 0.000000 
-0.407738 -1.549528 0.000000 
-0.425037 -1.500100 0.000000 
-0.370772 -1.468471 0.000000 
-0.381315 -1.422244 0.000000 
-0.046960 -1.725718 0.000000 
-0.095301 -1.819764 0.000000 
-0.098873 -1.767117 0.000000 
-0.149405 -1.751919 0.000000 
-0.140093 -1.911468 0.000000 
-0.148617 -1.862770 0.000000 
-0.205981 -1.852533 0.000000 
-0.203197 -1.794329 0.000000 
-0.248777 -1.775183 0.000000 
-0.184111 -2.002432 0.000000 
-0.194039 -1.955341 0.000000 
-0.254475 -1.948041 0.000000 
-0.257893 -1.893931 0.000000 
-0.309886 -1.878559 0.000000 
-0.303554 -1.818014 0.000000 
-0.347255 -1.797856 0.000000 
-0.228129 -2.093396 0.000000 
-0.238687 -2.047171 0.000000 
-0.301302 -2.042219 0.000000 
-0.307162 -1.990180 0.000000 
-0.363386 -1.978059 0.000000 
-0.362692 -1.920548 0.000000 
-0.412122 -1.903255 0.000000 
-0.403017 -1.841108 0.000000 
-0.445733 -1.820529 0.000000 
-0.000000 -1.748333 0.000000 
0.043388 -1.844764 0.000000 
-0.000000 -1.814732 0.000000 
-0.043388 -1.844764 0.000000 
0.087158 -1.936961 0.000000 
0.043769 -1.913262 0.000000 
-0.000000 -1.951728 0.000000 
-0.043769 -1.913262 0.000000 
-0.087158 -1.936961 0.000000 
0.130831 -2.028090 0.000000 
0.087824 -2.006491 0.000000 
0.044436 -2.049191 0.000000 
-0.000000 -2.018126 0.000000 
-0.044436 -2.049191 0.000000 
-0.087824 -2.006491 0.000000 
-0.130831 -2.028090 0.000000 
0.174505 -2.119220 0.000000 
0.131782 -2.098654 0.000000 
0.088871 -2.144520 0.000000 
0.044532 -2.116656 0.000000 
-0.000000 -2.153057 0.000000 
-0.044532 -2.116656 0.000000 
-0.088871 -2.144520 0.000000 
-0.131782 -2.098654 0.000000 
-0.174505 -2.119220 0.000000 
0.046960 -1.725718 0.000000 
0.149405 -1.751919 0.000000 
0.098873 -1.767117 0.000000 
0.095301 -1.819764 0.000000 
0.248777 -1.775183 0.000000 
0.203197 -1.794329 0.000000 
0.205981 -1.852533 0.000000 
0.148617 -1.862770 0.000000 
0.140093 -1.911468 0.000000 
0.347255 -1.797856 0.000000 
0.303554 -1.818014 0.000000 
0.309886 -1.878559 0.000000 
0.257893 -1.893931 0.000000 
0.254475 -1.948041 0.000000 
0.194039 -1.955341 0.000000 
0.184111 -2.002432 0.000000 
0.445733 -1.820529 0.000000 
0.403017 -1.841108 0.000000 
0.412122 -1.903255 0.000000 
0.362692 -1.920548 0.000000 
0.363386 -1.978059 0.000000 
0.307162 -1.990180 0.000000 
0.301302 -2.042219 0.000000 
0.238687 -2.047171 0.000000 
0.228129 -2.093396 0.000000 
0.058559 -1.674903 0.000000 
0.142917 -1.611145 0.000000 
0.123292 -1.660128 0.000000 
0.162226 -1.695746 0.000000 
0.223062 -1.547957 0.000000 
0.209613 -1.595531 0.000000 
0.256854 -1.629644 0.000000 
0.229092 -1.680875 0.000000 
0.261851 -1.717902 0.000000 
0.302189 -1.485100 0.000000 
0.290702 -1.531836 0.000000 
0.341985 -1.564635 0.000000 
0.321587 -1.614869 0.000000 
0.361761 -1.651277 0.000000 
0.329787 -1.703079 0.000000 
0.360414 -1.740202 0.000000 
0.381315 -1.422244 0.000000 
0.370772 -1.468471 0.000000 
0.425037 -1.500100 0.000000 
0.407738 -1.549528 0.000000 
0.453135 -1.584844 0.000000 
0.427556 -1.636359 0.000000 
0.464588 -1.673386 0.000000 
0.429420 -1.725428 0.000000 
0.458977 -1.762502 0.000000 
0.026061 -1.634152 0.000000 
0.028809 -1.528446 0.000000 
0.054870 -1.574330 0.000000 
0.106992 -1.566097 0.000000 
0.029377 -1.426389 0.000000 
0.058186 -1.466566 0.000000 
0.114311 -1.450900 0.000000 
0.137056 -1.504548 0.000000 
0.186430 -1.502021 0.000000 
0.029568 -1.325335 0.000000 
0.058945 -1.363455 0.000000 
0.116563 -1.343809 0.000000 
0.143120 -1.391078 0.000000 
0.196633 -1.382369 0.000000 
0.217198 -1.439665 0.000000 
0.265318 -1.438866 0.000000 
0.029759 -1.224280 0.000000 
0.059328 -1.261346 0.000000 
0.117890 -1.238641 0.000000 
0.145749 -1.282983 0.000000 
0.201664 -1.269509 0.000000 
0.225992 -1.321626 0.000000 
0.278030 -1.315760 0.000000 
0.296791 -1.375703 0.000000 
0.344206 -1.375710 0.000000 
VECTORS X_EC float 
0.338794 0.561057 0.000000 
-0.609100 -0.357691 0.000000 
0.713312 -0.246550 0.000000 
0.374519 -0.865980 0.000000 
0.423588 0.777290 0.000000 
-0.218274 0.811393 0.000000 
-0.513962 0.087154 0.000000 
0.756418 0.298640 0.000000 
0.381900 -0.243752 0.000000 
-0.550868 -0.075313 0.000000 
0.823577 -0.064518 0.000000 
0.556234 -0.838022 0.000000 
-0.139443 -0.720453 0.000000 
-0.484677 0.641422 0.000000 
0.766286 0.906638 0.000000 
0.384386 0.392017 0.000000 
0.474677 -0.927917 0.000000 
-0.141715 -0.928013 0.000000 
-0.385608 0.262759 0.000000 
0.937896 0.341954 0.000000 
0.621631 -0.361626 0.000000 
-0.105264 -0.179727 0.000000 
-0.467428 -0.778353 0.000000 
0.771260 -0.471824 0.000000 
0.386873 -0.972214 0.000000 
0.761262 -0.888808 0.000000 
0.108942 -0.607432 0.000000 
-0.397202 0.911729 0.000000 
-0.142083 0.250454 0.000000 
-0.595936 -0.308321 0.000000 
0.978194 -0.808187 0.000000 
-0.660903 0.500188 0.000000 
0.724964 0.039668 0.000000 
0.899809 -0.602580 0.000000 
0.685384 -0.007269 0.000000 
0.287229 -0.508427 0.000000 
0.702895 0.792244 0.000000 
0.180633 0.300726 0.000000 
0.445811 -0.377434 0.000000 
-0.220880 -0.820220 0.000000 
-0.071546 0.548855 0.000000 
-0.033296 0.293784 0.000000 
-0.417537 -0.206726 0.000000 
0.039645 -0.909289 0.000000 
-0.441768 0.590840 0.000000 
-0.109248 -0.104611 0.000000 
-0.699407 -0.581366 0.000000 
-0.474522 0.751355 0.000000 
0.820030 0.324361 0.000000 
0.957100 -0.299710 0.000000 
0.610485 -0.202802 0.000000 
-0.761092 -0.933182 0.000000 
-0.714655 0.356080 0.000000 
-0.057734 0.150913 0.000000 
-0.178789 0.304822 0.000000 
-0.067979 -0.352604 0.000000 
0.677748 -0.490808 0.000000 
0.641556 0.723447 0.000000 
-0.765897 0.464969 0.000000 
0.393446 -0.467169 0.000000 
0.522510 0.897101 0.000000 
-0.691820 0.798557 0.000000 
-0.647393 0.068074 0.000000 
0.028512 -0.139452 0.000000 
-0.053800 -0.956813 0.000000 
0.514316 0.771056 0.000000 
0.965681 0.760840 0.000000 
-0.897068 0.136811 0.000000 
-0.083078 0.069958 0.000000 
-0.006893 -0.632566 0.000000 
0.724017 -0.796199 0.000000 
0.714996 0.427397 0.000000 
-0.642413 0.193940 0.000000 
-0.760780 -0.645041 0.000000 
-0.205471 -0.922856 0.000000 
0.000000 0.102500 0.000000 
-0.564049 -0.595687 0.000000 
0.000000 0.998877 0.000000 
0.564049 -0.595687 0.000000 
0.866949 0.648968 0.000000 
-0.569003 0.329037 0.000000 
0.000000 0.848325 0.000000 
0.569003 0.329037 0.000000 
-0.866949 0.648968 0.000000 
0.299194 -0.120782 0.000000 
0.858290 -0.412366 0.000000 
-0.577662 0.164080 0.000000 
0.000000 -0.255298 0.000000 
0.577662 0.164080 0.000000 
-0.858290 -0.412366 0.000000 
-0.299194 -0.120782 0.000000 
-0.268560 -0.890532 0.000000 
0.286830 0.831827 0.000000 
0.844677 -0.548975 0.000000 
-0.578910 -0.925138 0.000000 
0.000000 -0.433734 0.000000 
0.578910 -0.925138 0.000000 
-0.844677 -0.548975 0.000000 
-0.286830 0.831827 0.000000 
0.268560 -0.890532 0.000000 
-0.610485 -0.202802 0.000000 
0.057734 0.150913 0.000000 
0.714655 0.356080 0.000000 
0.761092 -0.933182 0.000000 
0.765897 0.464969 0.000000 
-0.641556 0.723447 0.000000 
-0.677748 -0.490808 0.000000 
0.067979 -0.352604 0.000000 
0.178789 0.304822 0.000000 
-0.514316 0.771056 0.000000 
0.053800 -0.956813 0.000000 
-0.028512 -0.139452 0.000000 
0.647393 0.068074 0.000000 
0.691820 0.798557 0.000000 
-0.522510 0.897101 0.000000 
-0.393446 -0.467169 0.000000 
0.205471 -0.922856 0.000000 
0.760780 -0.645041 0.000000 
0.642413 0.193940 0.000000 
-0.714996 0.427397 0.000000 
-0.724017 -0.796199 0.000000 
0.006894 -0.632566 0.000000 
0.083078 0.069958 0.000000 
0.897068 0.136811 0.000000 
-0.965681 0.760840 0.000000 
-0.761262 -0.888808 0.000000 
0.142083 0.250454 0.000000 
0.397202 0.911729 0.000000 
-0.108942 -0.607432 0.000000 
-0.899809 -0.602580 0.000000 
-0.724964 0.039668 0.000000 
0.660903 0.500188 0.000000 
-0.978194 -0.808187 0.000000 
0.595936 -0.308321 0.000000 
0.071546 0.548855 0.000000 
0.220880 -0.820220 0.000000 
-0.445811 -0.377434 0.000000 
-0.180633 0.300726 0.000000 
-0.702895 0.792244 0.000000 
-0.287229 -0.508427 0.000000 
-0.685384 -0.007269 0.000000 
-0.957100 -0.299710 0.000000 
-0.820030 0.324361 0.000000 
0.474522 0.751355 0.000000 
0.699407 -0.581366 0.000000 
0.109248 -0.104611 0.000000 
0.441768 0.590840 0.000000 
-0.039645 -0.909289 0.000000 
0.417537 -0.206726 0.000000 
0.033296 0.293784 0.000000 
-0.338794 0.561057 0.000000 
-0.374519 -0.865980 0.000000 
-0.713312 -0.246550 0.000000 
0.609100 -0.357691 0.000000 
-0.381900 -0.243752 0.000000 
-0.756418 0.298640 0.000000 
0.513962 0.087154 0.000000 
0.218274 0.811393 0.000000 
-0.423588 0.777290 0.000000 
-0.384386 0.392017 0.000000 
-0.766286 0.906638 0.000000 
0.484677 0.641422 0.000000 
0.139443 -0.720453 0.000000 
-0.556234 -0.838022 0.000000 
-0.823577 -0.064518 0.000000 
0.550868 -0.075313 0.000000 
-0.386873 -0.972214 0.000000 
-0.771260 -0.471824 0.000000 
0.467428 -0.778353 0.000000 
0.105264 -0.179727 0.000000 
-0.621631 -0.361626 0.000000 
-0.937896 0.341954 0.000000 
0.385608 0.262759 0.000000 
0.141715 -0.928013 0.000000 
-0.474677 -0.927917 0.000000 
CELL_DATA 175 
SCALARS MASS float 
LOOKUP_TABLE default 
0.078183 
0.086427 
0.094672 
0.086427 
0.088131 
0.092111 
0.085854 
0.092111 
0.088131 
0.088705 
0.091000 
0.086983 
0.091556 
0.086983 
0.091000 
0.088705 
0.089278 
0.091574 
0.089278 
0.092722 
0.089278 
0.092722 
0.089278 
0.091574 
0.089278 
0.078183 
0.086427 
0.094672 
0.086427 
0.088131 
0.092111 
0.085854 
0.092111 
0.088131 
0.088705 
0.091000 
0.086983 
0.091556 
0.086983 
0.091000 
0.088705 
0.089278 
0.091574 
0.089278 
0.092722 
0.089278 
0.092722 
0.089278 
0.091574 
0.089278 
0.078183 
0.086427 
0.094672 
0.086427 
0.088131 
0.092111 
0.085854 
0.092111 
0.088131 
0.088705 
0.091000 
0.086983 
0.091556 
0.086983 
0.091000 
0.088705 
0.089278 
0.091574 
0.089278 
0.092722 
0.089278 
0.092722 
0.089278 
0.091574 
0.089278 
0.078183 
0.086427 
0.094672 
0.086427 
0.088131 
0.092111 
0.085854 
0.092111 
0.088131 
0.088705 
0.091000 
0.086983 
0.091556 
0.086983 
0.091000 
0.088705 
0.089278 
0.091574 
0.089278 
0.092722 
0.089278 
0.092722 
0.089278 
0.091574 
0.089278 
0.078183 
0.086427 
0.094672 
0.086427 
0.088131 
0.092111 
0.085854 
0.092111 
0.088131 
0.088705 
0.091000 
0.086983 
0.091556 
0.086983 
0.091000 
0.088705 
0.089278 
0.091574 
0.089278 
0.092722 
0.089278 
0.092722 
0.089278 
0.091574 
0.089278 
0.078183 
0.086427 
0.094672 
0.086427 
0.088131 
0.092111 
0.085854 
0.092111 
0.088131 
0.088705 
0.091000 
0.086983 
0.091556 
0.086983 
0.091000 
0.088705 
0.089278 
0.091574 
0.089278 
0.092722 
0.089278 
0.092722 
0.089278 
0.091574 
0.089278 
0.078183 
0.086427 
0.094672 
0.086427 
0.088131 
0.092111 
0.085854 
0.092111 
0.088131 
0.088705 
0.091000 
0.086983 
0.091556 
0.086983 
0.091000 
0.088705 
0.089278 
0.091574 
0.089278 
0.092722 
0.089278 
0.092722 
0.089278 
0.091574 
0.089278 
SCALARS MASS float 
LOOKUP_TABLE default 
0.078183 
0.086427 
0.094672 
0.086427 
0.088131 
0.092111 
0.085854 
0.092111 
0.088131 
0.088705 
0.091000 
0.086983 
0.091556 
0.086983 
0.091000 
0.088705 
0.089278 
0.091574 
0.089278 
0.092722 
0.089278 
0.092722 
0.089278 
0.091574 
0.089278 
0.078183 
0.086427 
0.094672 
0.086427 
0.088131 
0.092111 
0.085854 
0.092111 
0.088131 
0.088705 
0.091000 
0.086983 
0.091556 
0.086983 
0.091000 
0.088705 
0.089278 
0.091574 
0.089278 
0.092722 
0.089278 
0.092722 
0.089278 
0.091574 
0.089278 
0.078183 
0.086427 
0.094672 
0.086427 
0.088131 
0.092111 
0.085854 
0.092111 
0.088131 
0.088705 
0.091000 
0.086983 
0.091556 
0.086983 
0.091000 
0.088705 
0.089278 
0.091574 
0.089278 
0.092722 
0.089278 
0.092722 
0.089278 
0.091574 
0.089278 
0.078183 
0.086427 
0.094672 
0.086427 
0.088131 
0.092111 
0.085854 
0.092111 
0.088131 
0.088705 
0.091000 
0.086983 
0.091556 
0.086983 
0.091000 
0.088705 
0.089278 
0.091574 
0.089278 
0.092722 
0.089278 
0.092722 
0.089278 
0.091574 
0.089278 
0.078183 
0.086427 
0.094672 
0.086427 
0.088131 
0.092111 
0.085854 
0.092111 
0.088131 
0.088705 
0.091000 
0.086983 
0.091556 
0.086983 
0.091000 
0.088705 
0.089278 
0.091574 
0.089278 
0.092722 
0.089278 
0.092722 
0.089278 
0.091574 
0.089278 
0.078183 
0.086427 
0.094672 
0.086427 
0.088131 
0.092111 
0.085854 
0.092111 
0.088131 
0.088705 
0.091000 
0.086983 
0.091556 
0.086983 
0.091000 
0.088705 
0.089278 
0.091574 
0.089278 
0.092722 
0.089278 
0.092722 
0.089278 
0.091574 
0.089278 
0.078183 
0.086427 
0.094672 
0.086427 
0.088131 
0.092111 
0.085854 
0.092111 
0.088131 
0.088705 
0.091000 
0.086983 
0.091556 
0.086983 
0.091000 
0.088705 
0.089278 
0.091574 
0.089278 
0.092722 
0.089278 
0.092722 
0.089278 
0.091574 
0.089278 
SCALARS DENSITY float 
LOOKUP_TABLE default 
20.000000 
20.000000 
20.000000 
20.000000 
20.000000 
20.000000 
20.000000 
20.000000 
20.000000 
20.000000 
20.000000 
20.000000 
20.000000 
20.000000 
20.000000 
20.000000 
20.000000 
20.000000 
20.000000 
20.000000 
20.000000 
20.000000 
20.000000 
20.000000 
20.000000 
20.000000 
20.000000 
20.000000 
20.000000 
20.000000 
20.000000 
20.000000 
20.000000 
20.000000 
20.000000 
20.000000 
20.000000 
20.000000 
20.000000 
20.000000 
20.000000 
20.000000 
20.000000 
20.000000 
20.000000 
20.000000 
20.000000 
20.000000 
20.000000 
20.000000 
20.000000 
20.000000 
20.000000 
20.000000 
20.000000 
20.000000 
20.000000 
20.000000 
20.000000 
20.000000 
20.000000 
20.000000 
20.000000 
20.000000 
20.000000 
20.000000 
20.000000 
20.000000 
20.000000 
20.000000 
20.000000 
20.000000 
20.000000 
20.000000 
20.000000 
20.000000 
20.000000 
20.000000 
20.000000 
20.000000 
20.000000 
20.000000 
20.000000 
20.000000 
20.000000 
20.000000 
20.000000 
20.000000 
20.000000 
20.000000 
20.000000 
20.000000 
20.000000 
20.000000 
20.000000 
20.000000 
20.000000 
20.000000 
20.000000 
20.000000 
20.000000 
20.000000 
20.000000 
20.000000 
20.000000 
20.000000 
20.000000 
20.000000 
20.000000 
20.000000 
20.000000 
20.000000 
20.000000 
20.000000 
20.000000 
20.000000 
20.000000 
20.000000 
20.000000 
20.000000 
20.000000 
20.000000 
20.000000 
20.000000 
20.000000 
20.000000 
20.000000 
20.000000 
20.000000 
20.000000 
20.000000 
20.000000 
20.000000 
20.000000 
20.000000 
20.000000 
20.000000 
20.000000 
20.000000 
20.000000 
20.000000 
20.000000 
20.000000 
20.000000 
20.000000 
20.000000 
20.000000 
20.000000 
20.000000 
20.000000 
20.000000 
20.000000 
20.000000 
20.000000 
20.000000 
20.000000 
20.000000 
20.000000 
20.000000 
20.000000 
20.000000 
20.000000 
20.000000 
20.000000 
20.000000 
20.000000 
20.000000 
20.000000 
20.000000 
20.000000 
20.000000 
20.000000 
20.000000 
20.000000 
20.000000 
SCALARS ELEM_i float 
LOOKUP_TABLE default 
171 
198 
171 
171 
199 
199 
199 
172 
172 
226 
199 
199 
199 
200 
173 
173 
226 
226 
227 
200 
200 
200 
200 
173 
173 
170 
197 
198 
198 
224 
197 
225 
198 
198 
224 
224 
225 
225 
225 
225 
226 
251 
251 
251 
252 
252 
252 
253 
226 
226 
170 
196 
197 
197 
196 
196 
196 
197 
224 
195 
196 
223 
223 
223 
223 
224 
195 
222 
222 
222 
222 
223 
250 
250 
250 
170 
169 
170 
169 
142 
169 
169 
169 
196 
141 
141 
168 
168 
168 
195 
195 
140 
141 
140 
167 
167 
167 
194 
195 
194 
170 
143 
143 
142 
116 
143 
142 
142 
142 
116 
115 
115 
115 
115 
142 
141 
88 
88 
88 
115 
114 
114 
114 
114 
141 
170 
144 
144 
143 
144 
144 
117 
143 
116 
118 
117 
117 
117 
117 
116 
116 
118 
118 
91 
90 
90 
90 
89 
89 
89 
171 
171 
171 
144 
172 
172 
145 
145 
145 
173 
173 
146 
145 
145 
145 
118 
173 
173 
146 
146 
146 
146 
119 
118 
118 
VECTORS VELOCITY float 
0.000000 -5.754938 0.000000 
0.000000 -5.754938 0.000000 
0.000000 -5.754938 0.000000 
-0.000000 -5.754938 0.000000 
0.000000 -5.754938 0.000000 
0.000000 -5.754938 0.000000 
-0.000000 -5.754938 0.000000 
-0.000000 -5.754938 0.000000 
0.000000 -5.754938 0.000000 
0.000000 -5.754938 0.000000 
0.000000 -5.754938 0.000000 
0.000000 -5.754938 0.000000 
0.000000 -5.754938 0.000000 
0.000000 -5.754938 0.000000 
0.000000 -5.754938 0.000000 
0.000000 -5.754938 0.000000 
-0.000000 -5.754938 0.000000 
-0.000000 -5.754938 0.000000 
-0.000000 -5.754938 0.000000 
-0.000000 -5.754938 0.000000 
-0.000000 -5.754938 0.000000 
0.000000 -5.754938 0.000000 
0.000000 -5.754938 0.000000 
0.000000 -5.754938 0.000000 
0.000000 -5.754938 0.000000 
0.000000 -5.754938 0.000000 
0.000000 -5.754938 0.000000 
0.000000 -5.754938 0.000000 
0.000000 -5.754938 0.000000 
0.000000 -5.754938 0.000000 
0.000000 -5.754938 0.000000 
0.000000 -5.754938 0.000000 
0.000000 -5.754938 0.000000 
0.000000 -5.754938 0.000000 
0.000000 -5.754938 0.000000 
0.000000 -5.754938 0.000000 
0.000000 -5.754938 0.000000 
0.000000 -5.754938 0.000000 
0.000000 -5.754938 0.000000 
0.000000 -5.754938 0.000000 
0.000000 -5.754938 0.000000 
-0.000000 -5.754938 0.000000 
-0.000000 -5.754938 0.000000 
-0.000000 -5.754938 0.000000 
-0.000000 -5.754938 0.000000 
-0.000000 -5.754938 0.000000 
0.000000 -5.754938 0.000000 
-0.000000 -5.754938 0.000000 
-0.000000 -5.754938 0.000000 
-0.000000 -5.754938 0.000000 
-0.000000 -5.754938 0.000000 
0.000000 -5.754938 0.000000 
0.000000 -5.754938 0.000000 
-0.000000 -5.754938 0.000000 
0.000000 -5.754938 0.000000 
0.000000 -5.754938 0.000000 
-0.000000 -5.754938 0.000000 
-0.000000 -5.754938 0.000000 
-0.000000 -5.754938 0.000000 
0.000000 -5.754938 0.000000 
0.000000 -5.754938 0.000000 
0.000000 -5.754938 0.000000 
0.000000 -5.754938 0.000000 
-0.000000 -5.754938 0.000000 
-0.000000 -5.754938 0.000000 
-0.000000 -5.754938 0.000000 
0.000000 -5.754938 0.000000 
0.000000 -5.754938 0.000000 
-0.000000 -5.754938 0.000000 
-0.000000 -5.754938 0.000000 
-0.000000 -5.754938 0.000000 
-0.000000 -5.754938 0.000000 
0.000000 -5.754938 0.000000 
0.000000 -5.754938 0.000000 
0.000000 -5.754938 0.000000 
0.000000 -5.754938 0.000000 
0.000000 -5.754938 0.000000 
0.000000 -5.754938 0.000000 
0.000000 -5.754938 0.000000 
-0.000000 -5.754938 0.000000 
-0.000000 -5.754938 0.000000 
-0.000000 -5.754938 0.000000 
0.000000 -5.754938 0.000000 
-0.000000 -5.754938 0.000000 
0.000000 -5.754938 0.000000 
-0.000000 -5.754938 0.000000 
0.000000 -5.754938 0.000000 
-0.000000 -5.754938 0.000000 
-0.000000 -5.754938 0.000000 
-0.000000 -5.754938 0.000000 
-0.000000 -5.754938 0.000000 
-0.000000 -5.754938 0.000000 
-0.000000 -5.754938 0.000000 
-0.000000 -5.754938 0.000000 
-0.000000 -5.754938 0.000000 
-0.000000 -5.754938 0.000000 
-0.000000 -5.754938 0.000000 
-0.000000 -5.754938 0.000000 
-0.000000 -5.754938 0.000000 
0.000000 -5.754938 0.000000 
0.000000 -5.754938 0.000000 
-0.000000 -5.754938 0.000000 
0.000000 -5.754938 0.000000 
0.000000 -5.754938 0.000000 
-0.000000 -5.754938 0.000000 
-0.000000 -5.754938 0.000000 
0.000000 -5.754938 0.000000 
0.000000 -5.754938 0.000000 
-0.000000 -5.754938 0.000000 
0.000000 -5.754938 0.000000 
-0.000000 -5.754938 0.000000 
-0.000000 -5.754938 0.000000 
0.000000 -5.754938 0.000000 
0.000000 -5.754938 0.000000 
0.000000 -5.754938 0.000000 
-0.000000 -5.754938 0.000000 
-0.000000 -5.754938 0.000000 
-0.000000 -5.754938 0.000000 
-0.000000 -5.754938 0.000000 
-0.000000 -5.754938 0.000000 
0.000000 -5.754938 0.000000 
-0.000000 -5.754938 0.000000 
0.000000 -5.754938 0.000000 
-0.000000 -5.754938 0.000000 
-0.000000 -5.754938 0.000000 
-0.000000 -5.754938 0.000000 
-0.000000 -5.754938 0.000000 
-0.000000 -5.754938 0.000000 
-0.000000 -5.754938 0.000000 
-0.000000 -5.754938 0.000000 
-0.000000 -5.754938 0.000000 
-0.000000 -5.754938 0.000000 
0.000000 -5.754938 0.000000 
0.000000 -5.754938 0.000000 
0.000000 -5.754938 0.000000 
-0.000000 -5.754938 0.000000 
-0.000000 -5.754938 0.000000 
-0.000000 -5.754938 0.000000 
-0.000000 -5.754938 0.000000 
0.000000 -5.754938 0.000000 
0.000000 -5.754938 0.000000 
-0.000000 -5.754938 0.000000 
0.000000 -5.754938 0.000000 
-0.000000 -5.754938 0.000000 
0.000000 -5.754938 0.000000 
0.000000 -5.754938 0.000000 
-0.000000 -5.754938 0.000000 
-0.000000 -5.754938 0.000000 
-0.000000 -5.754938 0.000000 
0.000000 -5.754938 0.000000 
0.000000 -5.754938 0.000000 
-0.000000 -5.754938 0.000000 
-0.000000 -5.754938 0.000000 
-0.000000 -5.754938 0.000000 
0.000000 -5.754938 0.000000 
0.000000 -5.754938 0.000000 
0.000000 -5.754938 0.000000 
-0.000000 -5.754938 0.000000 
-0.000000 -5.754938 0.000000 
0.000000 -5.754938 0.000000 
0.000000 -5.754938 0.000000 
0.000000 -5.754938 0.000000 
0.000000 -5.754938 0.000000 
0.000000 -5.754938 0.000000 
0.000000 -5.754938 0.000000 
0.000000 -5.754938 0.000000 
0.000000 -5.754938 0.000000 
0.000000 -5.754938 0.000000 
-0.000000 -5.754938 0.000000 
0.000000 -5.754938 0.000000 
0.000000 -5.754938 0.000000 
0.000000 -5.754938 0.000000 
-0.000000 -5.754938 0.000000 
0.000000 -5.754938 0.000000 
0.000000 -5.754938 0.000000 
TENSORS STRESS float 
-0.000000 -0.000000 0.000000 
0.000000 -0.000000 0.000000 
0.000000 0.000000 0.000000 

0.000000 -0.000000 0.000000 
0.000000 0.000000 0.000000 
0.000000 0.000000 0.000000 

-0.000000 0.000000 0.000000 
0.000000 -0.000000 0.000000 
0.000000 0.000000 0.000000 

-0.000000 -0.000000 0.000000 
0.000000 -0.000000 0.000000 
0.000000 0.000000 0.000000 

-0.000000 0.000000 0.000000 
0.000000 -0.000000 0.000000 
0.000000 0.000000 0.000000 

-0.000000 -0.000000 0.000000 
0.000000 0.000000 0.000000 
0.000000 0.000000 0.000000 

-0.000000 -0.000000 0.000000 
0.000000 0.000000 0.000000 
0.000000 0.000000 0.000000 

-0.000000 -0.000000 0.000000 
0.000000 0.000000 0.000000 
0.000000 0.000000 0.000000 

-0.000000 0.000000 0.000000 
0.000000 -0.000000 0.000000 
0.000000 0.000000 0.000000 

0.000000 -0.000000 0.000000 
0.000000 0.000000 0.000000 
0.000000 0.000000 0.000000 

-0.000000 -0.000000 0.000000 
0.000000 0.000000 0.000000 
0.000000 0.000000 0.000000 

-0.000000 0.000000 0.000000 
0.000000 0.000000 0.000000 
0.000000 0.000000 0.000000 

-0.000000 0.000000 0.000000 
0.000000 0.000000 0.000000 
0.000000 0.000000 0.000000 

-0.000000 -0.000000 0.000000 
0.000000 0.000000 0.000000 
0.000000 0.000000 0.000000 

-0.000000 -0.000000 0.000000 
0.000000 0.000000 0.000000 
0.000000 0.000000 0.000000 

-0.000000 0.000000 0.000000 
0.000000 -0.000000 0.000000 
0.000000 0.000000 0.000000 

-0.000000 -0.000000 0.000000 
0.000000 0.000000 0.000000 
0.000000 0.000000 0.000000 

0.000000 -0.000000 0.000000 
0.000000 0.000000 0.000000 
0.000000 0.000000 0.000000 

-0.000000 -0.000000 0.000000 
0.000000 0.000000 0.000000 
0.000000 0.000000 0.000000 

-0.000000 -0.000000 0.000000 
0.000000 -0.000000 0.000000 
0.000000 0.000000 0.000000 

0.000000 0.000000 0.000000 
0.000000 -0.000000 0.000000 
0.000000 0.000000 0.000000 

0.000000 0.000000 0.000000 
0.000000 -0.000000 0.000000 
0.000000 0.000000 0.000000 

-0.000000 0.000000 0.000000 
0.000000 -0.000000 0.000000 
0.000000 0.000000 0.000000 

0.000000 0.000000 0.000000 
0.000000 0.000000 0.000000 
0.000000 0.000000 0.000000 

-0.000000 -0.000000 0.000000 
0.000000 -0.000000 0.000000 
0.000000 0.000000 0.000000 

0.000000 0.000000 0.000000 
0.000000 0.000000 0.000000 
0.000000 0.000000 0.000000 

0.000000 -0.000000 0.000000 
0.000000 0.000000 0.000000 
0.000000 0.000000 0.000000 

0.000000 -0.000000 0.000000 
0.000000 0.000000 0.000000 
0.000000 0.000000 0.000000 

0.000000 -0.000000 0.000000 
0.000000 0.000000 0.000000 
0.000000 0.000000 0.000000 

0.000000 0.000000 0.000000 
0.000000 0.000000 0.000000 
0.000000 0.000000 0.000000 

-0.000000 -0.000000 0.000000 
0.000000 -0.000000 0.000000 
0.000000 0.000000 0.000000 

0.000000 -0.000000 0.000000 
0.000000 0.000000 0.000000 
0.000000 0.000000 0.000000 

0.000000 -0.000000 0.000000 
0.000000 0.000000 0.000000 
0.000000 0.000000 0.000000 

0.000000 -0.000000 0.000000 
0.000000 0.000000 0.000000 
0.000000 0.000000 0.000000 

-0.000000 -0.000000 0.000000 
0.000000 -0.000000 0.000000 
0.000000 0.000000 0.000000 

0.000000 0.000000 0.000000 
0.000000 0.000000 0.000000 
0.000000 0.000000 0.000000 

0.000000 0.000000 0.000000 
0.000000 0.000000 0.000000 
0.000000 0.000000 0.000000 

0.000000 0.000000 0.000000 
0.000000 0.000000 0.000000 
0.000000 0.000000 0.000000 

-0.000000 0.000000 0.000000 
0.000000 -0.000000 0.000000 
0.000000 0.000000 0.000000 

0.000000 0.000000 0.000000 
0.000000 0.000000 0.000000 
0.000000 0.000000 0.000000 

0.000000 0.000000 0.000000 
0.000000 0.000000 0.000000 
0.000000 0.000000 0.000000 

-0.000000 -0.000000 0.000000 
0.000000 -0.000000 0.000000 
0.000000 0.000000 0.000000 

-0.000000 -0.000000 0.000000 
0.000000 -0.000000 0.000000 
0.000000 0.000000 0.000000 

-0.000000 0.000000 0.000000 
0.000000 0.000000 0.000000 
0.000000 0.000000 0.000000 

-0.000000 0.000000 0.000000 
0.000000 -0.000000 0.000000 
0.000000 0.000000 0.000000 

-0.000000 -0.000000 0.000000 
0.000000 -0.000000 0.000000 
0.000000 0.000000 0.000000 

-0.000000 -0.000000 0.000000 
0.000000 0.000000 0.000000 
0.000000 0.000000 0.000000 

-0.000000 -0.000000 0.000000 
0.000000 -0.000000 0.000000 
0.000000 0.000000 0.000000 

0.000000 -0.000000 0.000000 
0.000000 0.000000 0.000000 
0.000000 0.000000 0.000000 

-0.000000 -0.000000 0.000000 
0.000000 -0.000000 0.000000 
0.000000 0.000000 0.000000 

-0.000000 -0.000000 0.000000 
0.000000 0.000000 0.000000 
0.000000 0.000000 0.000000 

0.000000 -0.000000 0.000000 
0.000000 0.000000 0.000000 
0.000000 0.000000 0.000000 

0.000000 -0.000000 0.000000 
0.000000 0.000000 0.000000 
0.000000 0.000000 0.000000 

0.000000 0.000000 0.000000 
0.000000 0.000000 0.000000 
0.000000 0.000000 0.000000 

-0.000000 0.000000 0.000000 
0.000000 -0.000000 0.000000 
0.000000 0.000000 0.000000 

-0.000000 -0.000000 0.000000 
0.000000 -0.000000 0.000000 
0.000000 0.000000 0.000000 

-0.000000 0.000000 0.000000 
0.000000 -0.000000 0.000000 
0.000000 0.000000 0.000000 

-0.000000 0.000000 0.000000 
0.000000 -0.000000 0.000000 
0.000000 0.000000 0.000000 

0.000000 -0.000000 0.000000 
0.000000 0.000000 0.000000 
0.000000 0.000000 0.000000 

-0.000000 0.000000 0.000000 
0.000000 -0.000000 0.000000 
0.000000 0.000000 0.000000 

0.000000 -0.000000 0.000000 
0.000000 -0.000000 0.000000 
0.000000 0.000000 0.000000 

0.000000 0.000000 0.000000 
0.000000 -0.000000 0.000000 
0.000000 0.000000 0.000000 

0.000000 0.000000 0.000000 
0.000000 -0.000000 0.000000 
0.000000 0.000000 0.000000 

0.000000 -0.000000 0.000000 
0.000000 0.000000 0.000000 
0.000000 0.000000 0.000000 

0.000000 -0.000000 0.000000 
0.000000 0.000000 0.000000 
0.000000 0.000000 0.000000 

-0.000000 -0.000000 0.000000 
0.000000 -0.000000 0.000000 
0.000000 0.000000 0.000000 

-0.000000 -0.000000 0.000000 
0.000000 -0.000000 0.000000 
0.000000 0.000000 0.000000 

0.000000 0.000000 0.000000 
0.000000 -0.000000 0.000000 
0.000000 0.000000 0.000000 

-0.000000 0.000000 0.000000 
0.000000 -0.000000 0.000000 
0.000000 0.000000 0.000000 

0.000000 -0.000000 0.000000 
0.000000 0.000000 0.000000 
0.000000 0.000000 0.000000 

0.000000 -0.000000 0.000000 
0.000000 0.000000 0.000000 
0.000000 0.000000 0.000000 

0.000000 0.000000 0.000000 
0.000000 0.000000 0.000000 
0.000000 0.000000 0.000000 

-0.000000 0.000000 0.000000 
0.000000 -0.000000 0.000000 
0.000000 0.000000 0.000000 

0.000000 0.000000 0.000000 
0.000000 0.000000 0.000000 
0.000000 0.000000 0.000000 

0.000000 -0.000000 0.000000 
0.000000 0.000000 0.000000 
0.000000 0.000000 0.000000 

-0.000000 0.000000 0.000000 
0.000000 -0.000000 0.000000 
0.000000 0.000000 0.000000 

-0.000000 0.000000 0.000000 
0.000000 -0.000000 0.000000 
0.000000 0.000000 0.000000 

-0.000000 -0.000000 0.000000 
0.000000 -0.000000 0.000000 
0.000000 0.000000 0.000000 

-0.000000 0.000000 0.000000 
0.000000 -0.000000 0.000000 
0.000000 0.000000 0.000000 

0.000000 -0.000000 0.000000 
0.000000 0.000000 0.000000 
0.000000 0.000000 0.000000 

-0.000000 -0.000000 0.000000 
0.000000 -0.000000 0.000000 
0.000000 0.000000 0.000000 

-0.000000 -0.000000 0.000000 
0.000000 -0.000000 0.000000 
0.000000 0.000000 0.000000 

-0.000000 0.000000 0.000000 
0.000000 -0.000000 0.000000 
0.000000 0.000000 0.000000 

0.000000 -0.000000 0.000000 
0.000000 0.000000 0.000000 
0.000000 0.000000 0.000000 

-0.000000 0.000000 0.000000 
0.000000 0.000000 0.000000 
0.000000 0.000000 0.000000 

-0.000000 -0.000000 0.000000 
0.000000 -0.000000 0.000000 
0.000000 0.000000 0.000000 

0.000000 0.000000 0.000000 
0.000000 0.000000 0.000000 
0.000000 0.000000 0.000000 

-0.000000 -0.000000 0.000000 
0.000000 -0.000000 0.000000 
0.000000 0.000000 0.000000 

0.000000 0.000000 0.000000 
0.000000 -0.000000 0.000000 
0.000000 0.000000 0.000000 

0.000000 0.000000 0.000000 
0.000000 -0.000000 0.000000 
0.000000 0.000000 0.000000 

0.000000 0.000000 0.000000 
0.000000 -0.000000 0.000000 
0.000000 0.000000 0.000000 

0.000000 -0.000000 0.000000 
0.000000 0.000000 0.000000 
0.000000 0.000000 0.000000 

-0.000000 0.000000 0.000000 
0.000000 -0.000000 0.000000 
0.000000 0.000000 0.000000 

0.000000 0.000000 0.000000 
0.000000 -0.000000 0.000000 
0.000000 0.000000 0.000000 

0.000000 0.000000 0.000000 
0.000000 0.000000 0.000000 
0.000000 0.000000 0.000000 

-0.000000 0.000000 0.000000 
0.000000 -0.000000 0.000000 
0.000000 0.000000 0.000000 

0.000000 0.000000 0.000000 
0.000000 0.000000 0.000000 
0.000000 0.000000 0.000000 

-0.000000 -0.000000 0.000000 
0.000000 -0.000000 0.000000 
0.000000 0.000000 0.000000 

0.000000 -0.000000 0.000000 
0.000000 -0.000000 0.000000 
0.000000 0.000000 0.000000 

0.000000 -0.000000 0.000000 
0.000000 0.000000 0.000000 
0.000000 0.000000 0.000000 

-0.000000 0.000000 0.000000 
0.000000 -0.000000 0.000000 
0.000000 0.000000 0.000000 

0.000000 0.000000 0.000000 
0.000000 0.000000 0.000000 
0.000000 0.000000 0.000000 

-0.000000 0.000000 0.000000 
0.000000 0.000000 0.000000 
0.000000 0.000000 0.000000 

-0.000000 0.000000 0.000000 
0.000000 -0.000000 0.000000 
0.000000 0.000000 0.000000 

-0.000000 0.000000 0.000000 
0.000000 -0.000000 0.000000 
0.000000 0.000000 0.000000 

-0.000000 0.000000 0.000000 
0.000000 0.000000 0.000000 
0.000000 0.000000 0.000000 

0.000000 0.000000 0.000000 
0.000000 0.000000 0.000000 
0.000000 0.000000 0.000000 

-0.000000 -0.000000 0.000000 
0.000000 0.000000 0.000000 
0.000000 0.000000 0.000000 

-0.000000 -0.000000 0.000000 
0.000000 0.000000 0.000000 
0.000000 0.000000 0.000000 

0.000000 0.000000 0.000000 
0.000000 0.000000 0.000000 
0.000000 0.000000 0.000000 

0.000000 -0.000000 0.000000 
0.000000 0.000000 0.000000 
0.000000 0.000000 0.000000 

-0.000000 0.000000 0.000000 
0.000000 -0.000000 0.000000 
0.000000 0.000000 0.000000 

-0.000000 0.000000 0.000000 
0.000000 -0.000000 0.000000 
0.000000 0.000000 0.000000 

-0.000000 -0.000000 0.000000 
0.000000 -0.000000 0.000000 
0.000000 0.000000 0.000000 

0.000000 -0.000000 0.000000 
0.000000 0.000000 0.000000 
0.000000 0.000000 0.000000 

-0.000000 -0.000000 0.000000 
0.000000 -0.000000 0.000000 
0.000000 0.000000 0.000000 

-0.000000 -0.000000 0.000000 
0.000000 -0.000000 0.000000 
0.000000 0.000000 0.000000 

-0.000000 0.000000 0.000000 
0.000000 -0.000000 0.000000 
0.000000 0.000000 0.000000 

-0.000000 0.000000 0.000000 
0.000000 0.000000 0.000000 
0.000000 0.000000 0.000000 

-0.000000 -0.000000 0.000000 
0.000000 -0.000000 0.000000 
0.000000 0.000000 0.000000 

0.000000 0.000000 0.000000 
0.000000 0.000000 0.000000 
0.000000 0.000000 0.000000 

0.000000 -0.000000 0.000000 
0.000000 0.000000 0.000000 
0.000000 0.000000 0.000000 

-0.000000 -0.000000 0.000000 
0.000000 -0.000000 0.000000 
0.000000 0.000000 0.000000 

-0.000000 -0.000000 0.000000 
0.000000 -0.000000 0.000000 
0.000000 0.000000 0.000000 

-0.000000 0.000000 0.000000 
0.000000 -0.000000 0.000000 
0.000000 0.000000 0.000000 

0.000000 -0.000000 0.000000 
0.000000 0.000000 0.000000 
0.000000 0.000000 0.000000 

-0.000000 0.000000 0.000000 
0.000000 -0.000000 0.000000 
0.000000 0.000000 0.000000 

-0.000000 0.000000 0.000000 
0.000000 -0.000000 0.000000 
0.000000 0.000000 0.000000 

-0.000000 0.000000 0.000000 
0.000000 0.000000 0.000000 
0.000000 0.000000 0.000000 

-0.000000 0.000000 0.000000 
0.000000 -0.000000 0.000000 
0.000000 0.000000 0.000000 

-0.000000 0.000000 0.000000 
0.000000 -0.000000 0.000000 
0.000000 0.000000 0.000000 

0.000000 -0.000000 0.000000 
0.000000 -0.000000 0.000000 
0.000000 0.000000 0.000000 

-0.000000 0.000000 0.000000 
0.000000 -0.000000 0.000000 
0.000000 0.000000 0.000000 

0.000000 0.000000 0.000000 
0.000000 -0.000000 0.000000 
0.000000 0.000000 0.000000 

-0.000000 -0.000000 0.000000 
0.000000 -0.000000 0.000000 
0.000000 0.000000 0.000000 

0.000000 -0.000000 0.000000 
0.000000 -0.000000 0.000000 
0.000000 0.000000 0.000000 

0.000000 0.000000 0.000000 
0.000000 0.000000 0.000000 
0.000000 0.000000 0.000000 

0.000000 0.000000 0.000000 
0.000000 0.000000 0.000000 
0.000000 0.000000 0.000000 

0.000000 -0.000000 0.000000 
0.000000 0.000000 0.000000 
0.000000 0.000000 0.000000 

0.000000 -0.000000 0.000000 
0.000000 0.000000 0.000000 
0.000000 0.000000 0.000000 

0.000000 -0.000000 0.000000 
0.000000 0.000000 0.000000 
0.000000 0.000000 0.000000 

-0.000000 0.000000 0.000000 
0.000000 0.000000 0.000000 
0.000000 0.000000 0.000000 

0.000000 0.000000 0.000000 
0.000000 0.000000 0.000000 
0.000000 0.000000 0.000000 

-0.000000 0.000000 0.000000 
0.000000 0.000000 0.000000 
0.000000 0.000000 0.000000 

-0.000000 -0.000000 0.000000 
0.000000 -0.000000 0.000000 
0.000000 0.000000 0.000000 

0.000000 -0.000000 0.000000 
0.000000 0.000000 0.000000 
0.000000 0.000000 0.000000 

0.000000 -0.000000 0.000000 
0.000000 0.000000 0.000000 
0.000000 0.000000 0.000000 

0.000000 -0.000000 0.000000 
0.000000 0.000000 0.000000 
0.000000 0.000000 0.000000 

-0.000000 0.000000 0.000000 
0.000000 -0.000000 0.000000 
0.000000 0.000000 0.000000 

0.000000 0.000000 0.000000 
0.000000 0.000000 0.000000 
0.000000 0.000000 0.000000 

-0.000000 -0.000000 0.000000 
0.000000 -0.000000 0.000000 
0.000000 0.000000 0.000000 

-0.000000 -0.000000 0.000000 
0.000000 -0.000000 0.000000 
0.000000 0.000000 0.000000 

-0.000000 -0.000000 0.000000 
0.000000 -0.000000 0.000000 
0.000000 0.000000 0.000000 

-0.000000 -0.000000 0.000000 
0.000000 -0.000000 0.000000 
0.000000 0.000000 0.000000 

0.000000 0.000000 0.000000 
0.000000 0.000000 0.000000 
0.000000 0.000000 0.000000 

0.000000 0.000000 0.000000 
0.000000 0.000000 0.000000 
0.000000 0.000000 0.000000 

0.000000 0.000000 0.000000 
0.000000 0.000000 0.000000 
0.000000 0.000000 0.000000 

0.000000 -0.000000 0.000000 
0.000000 0.000000 0.000000 
0.000000 0.000000 0.000000 

0.000000 -0.000000 0.000000 
0.000000 0.000000 0.000000 
0.000000 0.000000 0.000000 

-0.000000 0.000000 0.000000 
0.000000 -0.000000 0.000000 
0.000000 0.000000 0.000000 

0.000000 0.000000 0.000000 
0.000000 0.000000 0.000000 
0.000000 0.000000 0.000000 

0.000000 0.000000 0.000000 
0.000000 0.000000 0.000000 
0.000000 0.000000 0.000000 

0.000000 -0.000000 0.000000 
0.000000 -0.000000 0.000000 
0.000000 0.000000 0.000000 

0.000000 -0.000000 0.000000 
0.000000 0.000000 0.000000 
0.000000 0.000000 0.000000 

0.000000 0.000000 0.000000 
0.000000 0.000000 0.000000 
0.000000 0.000000 0.000000 

-0.000000 0.000000 0.000000 
0.000000 -0.000000 0.000000 
0.000000 0.000000 0.000000 

-0.000000 -0.000000 0.000000 
0.000000 0.000000 0.000000 
0.000000 0.000000 0.000000 

0.000000 0.000000 0.000000 
0.000000 0.000000 0.000000 
0.000000 0.000000 0.000000 

0.000000 0.000000 0.000000 
0.000000 0.000000 0.000000 
0.000000 0.000000 0.000000 

0.000000 -0.000000 0.000000 
0.000000 0.000000 0.000000 
0.000000 0.000000 0.000000 

0.000000 -0.000000 0.000000 
0.000000 0.000000 0.000000 
0.000000 0.000000 0.000000 

0.000000 0.000000 0.000000 
0.000000 0.000000 0.000000 
0.000000 0.000000 0.000000 

0.000000 0.000000 0.000000 
0.000000 -0.000000 0.000000 
0.000000 0.000000 0.000000 

-0.000000 0.000000 0.000000 
0.000000 -0.000000 0.000000 
0.000000 0.000000 0.000000 

-0.000000 0.000000 0.000000 
0.000000 -0.000000 0.000000 
0.000000 0.000000 0.000000 

TENSORS STRAIN float 
-0.000000 -0.000000 0.000000 
0.000000 -0.000000 0.000000 
0.000000 0.000000 0.000000 

0.000000 -0.000000 0.000000 
0.000000 0.000000 0.000000 
0.000000 0.000000 0.000000 

-0.000000 0.000000 0.000000 
0.000000 0.000000 0.000000 
0.000000 0.000000 0.000000 

-0.000000 -0.000000 0.000000 
0.000000 -0.000000 0.000000 
0.000000 0.000000 0.000000 

-0.000000 0.000000 0.000000 
0.000000 -0.000000 0.000000 
0.000000 0.000000 0.000000 

-0.000000 -0.000000 0.000000 
0.000000 0.000000 0.000000 
0.000000 0.000000 0.000000 

-0.000000 -0.000000 0.000000 
0.000000 0.000000 0.000000 
0.000000 0.000000 0.000000 

-0.000000 -0.000000 0.000000 
0.000000 0.000000 0.000000 
0.000000 0.000000 0.000000 

-0.000000 0.000000 0.000000 
0.000000 -0.000000 0.000000 
0.000000 0.000000 0.000000 

-0.000000 -0.000000 0.000000 
0.000000 0.000000 0.000000 
0.000000 0.000000 0.000000 

-0.000000 -0.000000 0.000000 
0.000000 0.000000 0.000000 
0.000000 0.000000 0.000000 

-0.000000 0.000000 0.000000 
0.000000 0.000000 0.000000 
0.000000 0.000000 0.000000 

-0.000000 0.000000 0.000000 
0.000000 0.000000 0.000000 
0.000000 0.000000 0.000000 

-0.000000 -0.000000 0.000000 
0.000000 0.000000 0.000000 
0.000000 0.000000 0.000000 

-0.000000 -0.000000 0.000000 
0.000000 0.000000 0.000000 
0.000000 0.000000 0.000000 

-0.000000 0.000000 0.000000 
0.000000 -0.000000 0.000000 
0.000000 0.000000 0.000000 

-0.000000 -0.000000 0.000000 
0.000000 0.000000 0.000000 
0.000000 0.000000 0.000000 

-0.000000 -0.000000 0.000000 
0.000000 0.000000 0.000000 
0.000000 0.000000 0.000000 

-0.000000 -0.000000 0.000000 
0.000000 0.000000 0.000000 
0.000000 0.000000 0.000000 

-0.000000 -0.000000 0.000000 
0.000000 -0.000000 0.000000 
0.000000 0.000000 0.000000 

0.000000 0.000000 0.000000 
0.000000 -0.000000 0.000000 
0.000000 0.000000 0.000000 

0.000000 0.000000 0.000000 
0.000000 -0.000000 0.000000 
0.000000 0.000000 0.000000 

0.000000 0.000000 0.000000 
0.000000 -0.000000 0.000000 
0.000000 0.000000 0.000000 

-0.000000 0.000000 0.000000 
0.000000 0.000000 0.000000 
0.000000 0.000000 0.000000 

-0.000000 -0.000000 0.000000 
0.000000 -0.000000 0.000000 
0.000000 0.000000 0.000000 

-0.000000 0.000000 0.000000 
0.000000 0.000000 0.000000 
0.000000 0.000000 0.000000 

-0.000000 -0.000000 0.000000 
0.000000 0.000000 0.000000 
0.000000 0.000000 0.000000 

-0.000000 -0.000000 0.000000 
0.000000 0.000000 0.000000 
0.000000 0.000000 0.000000 

-0.000000 -0.000000 0.000000 
0.000000 0.000000 0.000000 
0.000000 0.000000 0.000000 

-0.000000 0.000000 0.000000 
0.000000 0.000000 0.000000 
0.000000 0.000000 0.000000 

0.000000 -0.000000 0.000000 
0.000000 -0.000000 0.000000 
0.000000 0.000000 0.000000 

-0.000000 -0.000000 0.000000 
0.000000 0.000000 0.000000 
0.000000 0.000000 0.000000 

-0.000000 -0.000000 0.000000 
0.000000 0.000000 0.000000 
0.000000 0.000000 0.000000 

-0.000000 -0.000000 0.000000 
0.000000 0.000000 0.000000 
0.000000 0.000000 0.000000 

-0.000000 -0.000000 0.000000 
0.000000 -0.000000 0.000000 
0.000000 0.000000 0.000000 

-0.000000 0.000000 0.000000 
0.000000 0.000000 0.000000 
0.000000 0.000000 0.000000 

0.000000 0.000000 0.000000 
0.000000 0.000000 0.000000 
0.000000 0.000000 0.000000 

0.000000 0.000000 0.000000 
0.000000 0.000000 0.000000 
0.000000 0.000000 0.000000 

0.000000 0.000000 0.000000 
0.000000 -0.000000 0.000000 
0.000000 0.000000 0.000000 

0.000000 0.000000 0.000000 
0.000000 0.000000 0.000000 
0.000000 0.000000 0.000000 

-0.000000 0.000000 0.000000 
0.000000 0.000000 0.000000 
0.000000 0.000000 0.000000 

-0.000000 -0.000000 0.000000 
0.000000 -0.000000 0.000000 
0.000000 0.000000 0.000000 

0.000000 -0.000000 0.000000 
0.000000 -0.000000 0.000000 
0.000000 0.000000 0.000000 

-0.000000 0.000000 0.000000 
0.000000 0.000000 0.000000 
0.000000 0.000000 0.000000 

-0.000000 0.000000 0.000000 
0.000000 -0.000000 0.000000 
0.000000 0.000000 0.000000 

-0.000000 -0.000000 0.000000 
0.000000 0.000000 0.000000 
0.000000 0.000000 0.000000 

-0.000000 -0.000000 0.000000 
0.000000 0.000000 0.000000 
0.000000 0.000000 0.000000 

-0.000000 -0.000000 0.000000 
0.000000 -0.000000 0.000000 
0.000000 0.000000 0.000000 

-0.000000 -0.000000 0.000000 
0.000000 0.000000 0.000000 
0.000000 0.000000 0.000000 

-0.000000 -0.000000 0.000000 
0.000000 -0.000000 0.000000 
0.000000 0.000000 0.000000 

-0.000000 -0.000000 0.000000 
0.000000 0.000000 0.000000 
0.000000 0.000000 0.000000 

0.000000 -0.000000 0.000000 
0.000000 0.000000 0.000000 
0.000000 0.000000 0.000000 

0.000000 -0.000000 0.000000 
0.000000 -0.000000 0.000000 
0.000000 0.000000 0.000000 

0.000000 0.000000 0.000000 
0.000000 0.000000 0.000000 
0.000000 0.000000 0.000000 

0.000000 0.000000 0.000000 
0.000000 -0.000000 0.000000 
0.000000 0.000000 0.000000 

0.000000 -0.000000 0.000000 
0.000000 -0.000000 0.000000 
0.000000 0.000000 0.000000 

0.000000 0.000000 0.000000 
0.000000 -0.000000 0.000000 
0.000000 0.000000 0.000000 

0.000000 0.000000 0.000000 
0.000000 -0.000000 0.000000 
0.000000 0.000000 0.000000 

0.000000 -0.000000 0.000000 
0.000000 0.000000 0.000000 
0.000000 0.000000 0.000000 

0.000000 0.000000 0.000000 
0.000000 -0.000000 0.000000 
0.000000 0.000000 0.000000 

0.000000 -0.000000 0.000000 
0.000000 -0.000000 0.000000 
0.000000 0.000000 0.000000 

0.000000 0.000000 0.000000 
0.000000 -0.000000 0.000000 
0.000000 0.000000 0.000000 

0.000000 0.000000 0.000000 
0.000000 -0.000000 0.000000 
0.000000 0.000000 0.000000 

0.000000 -0.000000 0.000000 
0.000000 0.000000 0.000000 
0.000000 0.000000 0.000000 

-0.000000 -0.000000 0.000000 
0.000000 0.000000 0.000000 
0.000000 0.000000 0.000000 

-0.000000 -0.000000 0.000000 
0.000000 -0.000000 0.000000 
0.000000 0.000000 0.000000 

0.000000 -0.000000 0.000000 
0.000000 -0.000000 0.000000 
0.000000 0.000000 0.000000 

0.000000 0.000000 0.000000 
0.000000 -0.000000 0.000000 
0.000000 0.000000 0.000000 

0.000000 0.000000 0.000000 
0.000000 -0.000000 0.000000 
0.000000 0.000000 0.000000 

0.000000 -0.000000 0.000000 
0.000000 0.000000 0.000000 
0.000000 0.000000 0.000000 

0.000000 -0.000000 0.000000 
0.000000 0.000000 0.000000 
0.000000 0.000000 0.000000 

0.000000 0.000000 0.000000 
0.000000 -0.000000 0.000000 
0.000000 0.000000 0.000000 

0.000000 0.000000 0.000000 
0.000000 -0.000000 0.000000 
0.000000 0.000000 0.000000 

0.000000 0.000000 0.000000 
0.000000 0.000000 0.000000 
0.000000 0.000000 0.000000 

0.000000 -0.000000 0.000000 
0.000000 0.000000 0.000000 
0.000000 0.000000 0.000000 

-0.000000 0.000000 0.000000 
0.000000 -0.000000 0.000000 
0.000000 0.000000 0.000000 

-0.000000 0.000000 0.000000 
0.000000 -0.000000 0.000000 
0.000000 0.000000 0.000000 

-0.000000 -0.000000 0.000000 
0.000000 -0.000000 0.000000 
0.000000 0.000000 0.000000 

-0.000000 0.000000 0.000000 
0.000000 -0.000000 0.000000 
0.000000 0.000000 0.000000 

-0.000000 -0.000000 0.000000 
0.000000 0.000000 0.000000 
0.000000 0.000000 0.000000 

-0.000000 -0.000000 0.000000 
0.000000 -0.000000 0.000000 
0.000000 0.000000 0.000000 

-0.000000 -0.000000 0.000000 
0.000000 -0.000000 0.000000 
0.000000 0.000000 0.000000 

-0.000000 0.000000 0.000000 
0.000000 -0.000000 0.000000 
0.000000 0.000000 0.000000 

0.000000 -0.000000 0.000000 
0.000000 0.000000 0.000000 
0.000000 0.000000 0.000000 

-0.000000 0.000000 0.000000 
0.000000 0.000000 0.000000 
0.000000 0.000000 0.000000 

-0.000000 -0.000000 0.000000 
0.000000 -0.000000 0.000000 
0.000000 0.000000 0.000000 

0.000000 0.000000 0.000000 
0.000000 0.000000 0.000000 
0.000000 0.000000 0.000000 

-0.000000 -0.000000 0.000000 
0.000000 -0.000000 0.000000 
0.000000 0.000000 0.000000 

0.000000 0.000000 0.000000 
0.000000 -0.000000 0.000000 
0.000000 0.000000 0.000000 

0.000000 0.000000 0.000000 
0.000000 -0.000000 0.000000 
0.000000 0.000000 0.000000 

0.000000 0.000000 0.000000 
0.000000 -0.000000 0.000000 
0.000000 0.000000 0.000000 

-0.000000 -0.000000 0.000000 
0.000000 0.000000 0.000000 
0.000000 0.000000 0.000000 

0.000000 0.000000 0.000000 
0.000000 -0.000000 0.000000 
0.000000 0.000000 0.000000 

0.000000 0.000000 0.000000 
0.000000 -0.000000 0.000000 
0.000000 0.000000 0.000000 

0.000000 0.000000 0.000000 
0.000000 0.000000 0.000000 
0.000000 0.000000 0.000000 

0.000000 0.000000 0.000000 
0.000000 -0.000000 0.000000 
0.000000 0.000000 0.000000 

0.000000 0.000000 0.000000 
0.000000 0.000000 0.000000 
0.000000 0.000000 0.000000 

-0.000000 -0.000000 0.000000 
0.000000 -0.000000 0.000000 
0.000000 0.000000 0.000000 

0.000000 -0.000000 0.000000 
0.000000 -0.000000 0.000000 
0.000000 0.000000 0.000000 

-0.000000 -0.000000 0.000000 
0.000000 0.000000 0.000000 
0.000000 0.000000 0.000000 

-0.000000 0.000000 0.000000 
0.000000 -0.000000 0.000000 
0.000000 0.000000 0.000000 

-0.000000 0.000000 0.000000 
0.000000 0.000000 0.000000 
0.000000 0.000000 0.000000 

-0.000000 0.000000 0.000000 
0.000000 0.000000 0.000000 
0.000000 0.000000 0.000000 

-0.000000 0.000000 0.000000 
0.000000 -0.000000 0.000000 
0.000000 0.000000 0.000000 

0.000000 0.000000 0.000000 
0.000000 -0.000000 0.000000 
0.000000 0.000000 0.000000 

-0.000000 0.000000 0.000000 
0.000000 0.000000 0.000000 
0.000000 0.000000 0.000000 

-0.000000 0.000000 0.000000 
0.000000 0.000000 0.000000 
0.000000 0.000000 0.000000 

-0.000000 -0.000000 0.000000 
0.000000 0.000000 0.000000 
0.000000 0.000000 0.000000 

-0.000000 -0.000000 0.000000 
0.000000 0.000000 0.000000 
0.000000 0.000000 0.000000 

0.000000 0.000000 0.000000 
0.000000 0.000000 0.000000 
0.000000 0.000000 0.000000 

-0.000000 -0.000000 0.000000 
0.000000 0.000000 0.000000 
0.000000 0.000000 0.000000 

-0.000000 0.000000 0.000000 
0.000000 -0.000000 0.000000 
0.000000 0.000000 0.000000 

-0.000000 0.000000 0.000000 
0.000000 -0.000000 0.000000 
0.000000 0.000000 0.000000 

-0.000000 -0.000000 0.000000 
0.000000 -0.000000 0.000000 
0.000000 0.000000 0.000000 

-0.000000 -0.000000 0.000000 
0.000000 0.000000 0.000000 
0.000000 0.000000 0.000000 

-0.000000 -0.000000 0.000000 
0.000000 -0.000000 0.000000 
0.000000 0.000000 0.000000 

-0.000000 -0.000000 0.000000 
0.000000 0.000000 0.000000 
0.000000 0.000000 0.000000 

-0.000000 0.000000 0.000000 
0.000000 -0.000000 0.000000 
0.000000 0.000000 0.000000 

-0.000000 0.000000 0.000000 
0.000000 0.000000 0.000000 
0.000000 0.000000 0.000000 

-0.000000 -0.000000 0.000000 
0.000000 0.000000 0.000000 
0.000000 0.000000 0.000000 

-0.000000 0.000000 0.000000 
0.000000 0.000000 0.000000 
0.000000 0.000000 0.000000 

-0.000000 -0.000000 0.000000 
0.000000 0.000000 0.000000 
0.000000 0.000000 0.000000 

-0.000000 -0.000000 0.000000 
0.000000 -0.000000 0.000000 
0.000000 0.000000 0.000000 

-0.000000 -0.000000 0.000000 
0.000000 0.000000 0.000000 
0.000000 0.000000 0.000000 

0.000000 0.000000 0.000000 
0.000000 -0.000000 0.000000 
0.000000 0.000000 0.000000 

-0.000000 -0.000000 0.000000 
0.000000 0.000000 0.000000 
0.000000 0.000000 0.000000 

-0.000000 0.000000 0.000000 
0.000000 -0.000000 0.000000 
0.000000 0.000000 0.000000 

-0.000000 0.000000 0.000000 
0.000000 0.000000 0.000000 
0.000000 0.000000 0.000000 

-0.000000 0.000000 0.000000 
0.000000 0.000000 0.000000 
0.000000 0.000000 0.000000 

-0.000000 0.000000 0.000000 
0.000000 -0.000000 0.000000 
0.000000 0.000000 0.000000 

-0.000000 0.000000 0.000000 
0.000000 -0.000000 0.000000 
0.000000 0.000000 0.000000 

0.000000 -0.000000 0.000000 
0.000000 -0.000000 0.000000 
0.000000 0.000000 0.000000 

-0.000000 0.000000 0.000000 
0.000000 -0.000000 0.000000 
0.000000 0.000000 0.000000 

0.000000 0.000000 0.000000 
0.000000 -0.000000 0.000000 
0.000000 0.000000 0.000000 

0.000000 -0.000000 0.000000 
0.000000 -0.000000 0.000000 
0.000000 0.000000 0.000000 

0.000000 -0.000000 0.000000 
0.000000 -0.000000 0.000000 
0.000000 0.000000 0.000000 

0.000000 0.000000 0.000000 
0.000000 -0.000000 0.000000 
0.000000 0.000000 0.000000 

0.000000 0.000000 0.000000 
0.000000 0.000000 0.000000 
0.000000 0.000000 0.000000 

0.000000 -0.000000 0.000000 
0.000000 0.000000 0.000000 
0.000000 0.000000 0.000000 

0.000000 -0.000000 0.000000 
0.000000 0.000000 0.000000 
0.000000 0.000000 0.000000 

0.000000 -0.000000 0.000000 
0.000000 -0.000000 0.000000 
0.000000 0.000000 0.000000 

-0.000000 0.000000 0.000000 
0.000000 0.000000 0.000000 
0.000000 0.000000 0.000000 

-0.000000 0.000000 0.000000 
0.000000 0.000000 0.000000 
0.000000 0.000000 0.000000 

-0.000000 0.000000 0.000000 
0.000000 0.000000 0.000000 
0.000000 0.000000 0.000000 

-0.000000 -0.000000 0.000000 
0.000000 0.000000 0.000000 
0.000000 0.000000 0.000000 

-0.000000 -0.000000 0.000000 
0.000000 0.000000 0.000000 
0.000000 0.000000 0.000000 

0.000000 -0.000000 0.000000 
0.000000 0.000000 0.000000 
0.000000 0.000000 0.000000 

0.000000 -0.000000 0.000000 
0.000000 -0.000000 0.000000 
0.000000 0.000000 0.000000 

0.000000 0.000000 0.000000 
0.000000 -0.000000 0.000000 
0.000000 0.000000 0.000000 

-0.000000 0.000000 0.000000 
0.000000 0.000000 0.000000 
0.000000 0.000000 0.000000 

-0.000000 -0.000000 0.000000 
0.000000 -0.000000 0.000000 
0.000000 0.000000 0.000000 

-0.000000 -0.000000 0.000000 
0.000000 0.000000 0.000000 
0.000000 0.000000 0.000000 

-0.000000 -0.000000 0.000000 
0.000000 -0.000000 0.000000 
0.000000 0.000000 0.000000 

-0.000000 -0.000000 0.000000 
0.000000 -0.000000 0.000000 
0.000000 0.000000 0.000000 

-0.000000 0.000000 0.000000 
0.000000 0.000000 0.000000 
0.000000 0.000000 0.000000 

-0.000000 0.000000 0.000000 
0.000000 0.000000 0.000000 
0.000000 0.000000 0.000000 

0.000000 0.000000 0.000000 
0.000000 0.000000 0.000000 
0.000000 0.000000 0.000000 

-0.000000 -0.000000 0.000000 
0.000000 0.000000 0.000000 
0.000000 0.000000 0.000000 

-0.000000 -0.000000 0.000000 
0.000000 0.000000 0.000000 
0.000000 0.000000 0.000000 

-0.000000 0.000000 0.000000 
0.000000 -0.000000 0.000000 
0.000000 0.000000 0.000000 

-0.000000 0.000000 0.000000 
0.000000 0.000000 0.000000 
0.000000 0.000000 0.000000 

0.000000 0.000000 0.000000 
0.000000 0.000000 0.000000 
0.000000 0.000000 0.000000 

0.000000 -0.000000 0.000000 
0.000000 -0.000000 0.000000 
0.000000 0.000000 0.000000 

0.000000 -0.000000 0.000000 
0.000000 0.000000 0.000000 
0.000000 0.000000 0.000000 

0.000000 0.000000 0.000000 
0.000000 0.000000 0.000000 
0.000000 0.000000 0.000000 

-0.000000 0.000000 0.000000 
0.000000 -0.000000 0.000000 
0.000000 0.000000 0.000000 

-0.000000 -0.000000 0.000000 
0.000000 0.000000 0.000000 
0.000000 0.000000 0.000000 

-0.000000 0.000000 0.000000 
0.000000 0.000000 0.000000 
0.000000 0.000000 0.000000 

-0.000000 0.000000 0.000000 
0.000000 0.000000 0.000000 
0.000000 0.000000 0.000000 

0.000000 -0.000000 0.000000 
0.000000 0.000000 0.000000 
0.000000 0.000000 0.000000 

-0.000000 -0.000000 0.000000 
0.000000 0.000000 0.000000 
0.000000 0.000000 0.000000 

0.000000 0.000000 0.000000 
0.000000 0.000000 0.000000 
0.000000 0.000000 0.000000 

0.000000 0.000000 0.000000 
0.000000 -0.000000 0.000000 
0.000000 0.000000 0.000000 

-0.000000 0.000000 0.000000 
0.000000 -0.000000 0.000000 
0.000000 0.000000 0.000000 

-0.000000 0.000000 0.000000 
0.000000 -0.000000 0.000000 
0.000000 0.000000 0.000000 

