# vtk DataFile Version 3.0 
vtk output 
ASCII 
DATASET UNSTRUCTURED_GRID 
POINTS 175 float 
-0.026061 0.024060 0.000000 
-0.106992 0.092115 0.000000 
-0.054870 0.083882 0.000000 
-0.028809 0.129766 0.000000 
-0.186430 0.156191 0.000000 
-0.137056 0.153664 0.000000 
-0.114311 0.207312 0.000000 
-0.058186 0.191646 0.000000 
-0.029377 0.231823 0.000000 
-0.265318 0.219346 0.000000 
-0.217198 0.218547 0.000000 
-0.196633 0.275843 0.000000 
-0.143120 0.267135 0.000000 
-0.116563 0.314403 0.000000 
-0.058945 0.294757 0.000000 
-0.029568 0.332877 0.000000 
-0.344206 0.282502 0.000000 
-0.296791 0.282509 0.000000 
-0.278030 0.342452 0.000000 
-0.225992 0.336586 0.000000 
-0.201664 0.388703 0.000000 
-0.145749 0.375229 0.000000 
-0.117890 0.419572 0.000000 
-0.059328 0.396866 0.000000 
-0.029759 0.433932 0.000000 
-0.058559 -0.016691 0.000000 
-0.162226 -0.037534 0.000000 
-0.123292 -0.001916 0.000000 
-0.142917 0.047067 0.000000 
-0.261851 -0.059690 0.000000 
-0.229092 -0.022663 0.000000 
-0.256854 0.028569 0.000000 
-0.209613 0.062681 0.000000 
-0.223062 0.110255 0.000000 
-0.360414 -0.081990 0.000000 
-0.329787 -0.044867 0.000000 
-0.361761 0.006935 0.000000 
-0.321587 0.043344 0.000000 
-0.341985 0.093578 0.000000 
-0.290702 0.126377 0.000000 
-0.302189 0.173112 0.000000 
-0.458977 -0.104290 0.000000 
-0.429420 -0.067216 0.000000 
-0.464588 -0.015174 0.000000 
-0.427556 0.021854 0.000000 
-0.453135 0.073368 0.000000 
-0.407738 0.108684 0.000000 
-0.425037 0.158112 0.000000 
-0.370772 0.189741 0.000000 
-0.381315 0.235968 0.000000 
-0.046960 -0.067506 0.000000 
-0.095301 -0.161552 0.000000 
-0.098873 -0.108905 0.000000 
-0.149405 -0.093707 0.000000 
-0.140093 -0.253256 0.000000 
-0.148617 -0.204558 0.000000 
-0.205981 -0.194321 0.000000 
-0.203197 -0.136117 0.000000 
-0.248777 -0.116971 0.000000 
-0.184111 -0.344220 0.000000 
-0.194039 -0.297129 0.000000 
-0.254475 -0.289829 0.000000 
-0.257893 -0.235719 0.000000 
-0.309886 -0.220347 0.000000 
-0.303554 -0.159802 0.000000 
-0.347255 -0.139644 0.000000 
-0.228129 -0.435183 0.000000 
-0.238687 -0.388959 0.000000 
-0.301302 -0.384007 0.000000 
-0.307162 -0.331968 0.000000 
-0.363386 -0.319847 0.000000 
-0.362692 -0.262336 0.000000 
-0.412122 -0.245043 0.000000 
-0.403017 -0.182896 0.000000 
-0.445733 -0.162317 0.000000 
-0.000000 -0.090121 0.000000 
0.043388 -0.186552 0.000000 
-0.000000 -0.156520 0.000000 
-0.043388 -0.186552 0.000000 
0.087158 -0.278749 0.000000 
0.043769 -0.255050 0.000000 
-0.000000 -0.293516 0.000000 
-0.043769 -0.255050 0.000000 
-0.087158 -0.278749 0.000000 
0.130831 -0.369878 0.000000 
0.087824 -0.348279 0.000000 
0.044436 -0.390979 0.000000 
-0.000000 -0.359914 0.000000 
-0.044436 -0.390979 0.000000 
-0.087824 -0.348279 0.000000 
-0.130831 -0.369878 0.000000 
0.174505 -0.461008 0.000000 
0.131782 -0.440442 0.000000 
0.088871 -0.486308 0.000000 
0.044532 -0.458444 0.000000 
-0.000000 -0.494845 0.000000 
-0.044532 -0.458444 0.000000 
-0.088871 -0.486308 0.000000 
-0.131782 -0.440442 0.000000 
-0.174505 -0.461008 0.000000 
0.046960 -0.067506 0.000000 
0.149405 -0.093707 0.000000 
0.098873 -0.108905 0.000000 
0.095301 -0.161552 0.000000 
0.248777 -0.116971 0.000000 
0.203197 -0.136117 0.000000 
0.205981 -0.194321 0.000000 
0.148617 -0.204558 0.000000 
0.140093 -0.253256 0.000000 
0.347255 -0.139644 0.000000 
0.303554 -0.159802 0.000000 
0.309886 -0.220347 0.000000 
0.257893 -0.235719 0.000000 
0.254475 -0.289829 0.000000 
0.194039 -0.297129 0.000000 
0.184111 -0.344220 0.000000 
0.445733 -0.162317 0.000000 
0.403017 -0.182896 0.000000 
0.412122 -0.245043 0.000000 
0.362692 -0.262336 0.000000 
0.363386 -0.319847 0.000000 
0.307162 -0.331968 0.000000 
0.301302 -0.384007 0.000000 
0.238687 -0.388959 0.000000 
0.228129 -0.435183 0.000000 
0.058559 -0.016691 0.000000 
0.142917 0.047067 0.000000 
0.123292 -0.001916 0.000000 
0.162226 -0.037534 0.000000 
0.223062 0.110255 0.000000 
0.209613 0.062681 0.000000 
0.256854 0.028569 0.000000 
0.229092 -0.022663 0.000000 
0.261851 -0.059690 0.000000 
0.302189 0.173112 0.000000 
0.290702 0.126377 0.000000 
0.341985 0.093578 0.000000 
0.321587 0.043344 0.000000 
0.361761 0.006935 0.000000 
0.329787 -0.044867 0.000000 
0.360414 -0.081990 0.000000 
0.381315 0.235968 0.000000 
0.370772 0.189741 0.000000 
0.425037 0.158112 0.000000 
0.407738 0.108684 0.000000 
0.453135 0.073368 0.000000 
0.427556 0.021854 0.000000 
0.464588 -0.015174 0.000000 
0.429420 -0.067216 0.000000 
0.458977 -0.104290 0.000000 
0.026061 0.024060 0.000000 
0.028809 0.129766 0.000000 
0.054870 0.083882 0.000000 
0.106992 0.092115 0.000000 
0.029377 0.231823 0.000000 
0.058186 0.191646 0.000000 
0.114311 0.207312 0.000000 
0.137056 0.153664 0.000000 
0.186430 0.156191 0.000000 
0.029568 0.332877 0.000000 
0.058945 0.294757 0.000000 
0.116563 0.314403 0.000000 
0.143120 0.267135 0.000000 
0.196633 0.275843 0.000000 
0.217198 0.218547 0.000000 
0.265318 0.219346 0.000000 
0.029759 0.433932 0.000000 
0.059328 0.396866 0.000000 
0.117890 0.419572 0.000000 
0.145749 0.375229 0.000000 
0.201664 0.388703 0.000000 
0.225992 0.336586 0.000000 
0.278030 0.342452 0.000000 
0.296791 0.282509 0.000000 
0.344206 0.282502 0.000000 
CELLS 175 350 
1 0 
1 1 
1 2 
1 3 
1 4 
1 5 
1 6 
1 7 
1 8 
1 9 
1 10 
1 11 
1 12 
1 13 
1 14 
1 15 
1 16 
1 17 
1 18 
1 19 
1 20 
1 21 
1 22 
1 23 
1 24 
1 25 
1 26 
1 27 
1 28 
1 29 
1 30 
1 31 
1 32 
1 33 
1 34 
1 35 
1 36 
1 37 
1 38 
1 39 
1 40 
1 41 
1 42 
1 43 
1 44 
1 45 
1 46 
1 47 
1 48 
1 49 
1 50 
1 51 
1 52 
1 53 
1 54 
1 55 
1 56 
1 57 
1 58 
1 59 
1 60 
1 61 
1 62 
1 63 
1 64 
1 65 
1 66 
1 67 
1 68 
1 69 
1 70 
1 71 
1 72 
1 73 
1 74 
1 75 
1 76 
1 77 
1 78 
1 79 
1 80 
1 81 
1 82 
1 83 
1 84 
1 85 
1 86 
1 87 
1 88 
1 89 
1 90 
1 91 
1 92 
1 93 
1 94 
1 95 
1 96 
1 97 
1 98 
1 99 
1 100 
1 101 
1 102 
1 103 
1 104 
1 105 
1 106 
1 107 
1 108 
1 109 
1 110 
1 111 
1 112 
1 113 
1 114 
1 115 
1 116 
1 117 
1 118 
1 119 
1 120 
1 121 
1 122 
1 123 
1 124 
1 125 
1 126 
1 127 
1 128 
1 129 
1 130 
1 131 
1 132 
1 133 
1 134 
1 135 
1 136 
1 137 
1 138 
1 139 
1 140 
1 141 
1 142 
1 143 
1 144 
1 145 
1 146 
1 147 
1 148 
1 149 
1 150 
1 151 
1 152 
1 153 
1 154 
1 155 
1 156 
1 157 
1 158 
1 159 
1 160 
1 161 
1 162 
1 163 
1 164 
1 165 
1 166 
1 167 
1 168 
1 169 
1 170 
1 171 
1 172 
1 173 
1 174 
CELL_TYPES 175 
1 
1 
1 
1 
1 
1 
1 
1 
1 
1 
1 
1 
1 
1 
1 
1 
1 
1 
1 
1 
1 
1 
1 
1 
1 
1 
1 
1 
1 
1 
1 
1 
1 
1 
1 
1 
1 
1 
1 
1 
1 
1 
1 
1 
1 
1 
1 
1 
1 
1 
1 
1 
1 
1 
1 
1 
1 
1 
1 
1 
1 
1 
1 
1 
1 
1 
1 
1 
1 
1 
1 
1 
1 
1 
1 
1 
1 
1 
1 
1 
1 
1 
1 
1 
1 
1 
1 
1 
1 
1 
1 
1 
1 
1 
1 
1 
1 
1 
1 
1 
1 
1 
1 
1 
1 
1 
1 
1 
1 
1 
1 
1 
1 
1 
1 
1 
1 
1 
1 
1 
1 
1 
1 
1 
1 
1 
1 
1 
1 
1 
1 
1 
1 
1 
1 
1 
1 
1 
1 
1 
1 
1 
1 
1 
1 
1 
1 
1 
1 
1 
1 
1 
1 
1 
1 
1 
1 
1 
1 
1 
1 
1 
1 
1 
1 
1 
1 
1 
1 
1 
1 
1 
1 
1 
1 
POINT_DATA 175 
VECTORS X_GC float 
-0.026061 0.024060 0.000000 
-0.106992 0.092115 0.000000 
-0.054870 0.083882 0.000000 
-0.028809 0.129766 0.000000 
-0.186430 0.156191 0.000000 
-0.137056 0.153664 0.000000 
-0.114311 0.207312 0.000000 
-0.058186 0.191646 0.000000 
-0.029377 0.231823 0.000000 
-0.265318 0.219346 0.000000 
-0.217198 0.218547 0.000000 
-0.196633 0.275843 0.000000 
-0.143120 0.267135 0.000000 
-0.116563 0.314403 0.000000 
-0.058945 0.294757 0.000000 
-0.029568 0.332877 0.000000 
-0.344206 0.282502 0.000000 
-0.296791 0.282509 0.000000 
-0.278030 0.342452 0.000000 
-0.225992 0.336586 0.000000 
-0.201664 0.388703 0.000000 
-0.145749 0.375229 0.000000 
-0.117890 0.419572 0.000000 
-0.059328 0.396866 0.000000 
-0.029759 0.433932 0.000000 
-0.058559 -0.016691 0.000000 
-0.162226 -0.037534 0.000000 
-0.123292 -0.001916 0.000000 
-0.142917 0.047067 0.000000 
-0.261851 -0.059690 0.000000 
-0.229092 -0.022663 0.000000 
-0.256854 0.028569 0.000000 
-0.209613 0.062681 0.000000 
-0.223062 0.110255 0.000000 
-0.360414 -0.081990 0.000000 
-0.329787 -0.044867 0.000000 
-0.361761 0.006935 0.000000 
-0.321587 0.043344 0.000000 
-0.341985 0.093578 0.000000 
-0.290702 0.126377 0.000000 
-0.302189 0.173112 0.000000 
-0.458977 -0.104290 0.000000 
-0.429420 -0.067216 0.000000 
-0.464588 -0.015174 0.000000 
-0.427556 0.021854 0.000000 
-0.453135 0.073368 0.000000 
-0.407738 0.108684 0.000000 
-0.425037 0.158112 0.000000 
-0.370772 0.189741 0.000000 
-0.381315 0.235968 0.000000 
-0.046960 -0.067506 0.000000 
-0.095301 -0.161552 0.000000 
-0.098873 -0.108905 0.000000 
-0.149405 -0.093707 0.000000 
-0.140093 -0.253256 0.000000 
-0.148617 -0.204558 0.000000 
-0.205981 -0.194321 0.000000 
-0.203197 -0.136117 0.000000 
-0.248777 -0.116971 0.000000 
-0.184111 -0.344220 0.000000 
-0.194039 -0.297129 0.000000 
-0.254475 -0.289829 0.000000 
-0.257893 -0.235719 0.000000 
-0.309886 -0.220347 0.000000 
-0.303554 -0.159802 0.000000 
-0.347255 -0.139644 0.000000 
-0.228129 -0.435183 0.000000 
-0.238687 -0.388959 0.000000 
-0.301302 -0.384007 0.000000 
-0.307162 -0.331968 0.000000 
-0.363386 -0.319847 0.000000 
-0.362692 -0.262336 0.000000 
-0.412122 -0.245043 0.000000 
-0.403017 -0.182896 0.000000 
-0.445733 -0.162317 0.000000 
-0.000000 -0.090121 0.000000 
0.043388 -0.186552 0.000000 
-0.000000 -0.156520 0.000000 
-0.043388 -0.186552 0.000000 
0.087158 -0.278749 0.000000 
0.043769 -0.255050 0.000000 
-0.000000 -0.293516 0.000000 
-0.043769 -0.255050 0.000000 
-0.087158 -0.278749 0.000000 
0.130831 -0.369878 0.000000 
0.087824 -0.348279 0.000000 
0.044436 -0.390979 0.000000 
-0.000000 -0.359914 0.000000 
-0.044436 -0.390979 0.000000 
-0.087824 -0.348279 0.000000 
-0.130831 -0.369878 0.000000 
0.174505 -0.461008 0.000000 
0.131782 -0.440442 0.000000 
0.088871 -0.486308 0.000000 
0.044532 -0.458444 0.000000 
-0.000000 -0.494845 0.000000 
-0.044532 -0.458444 0.000000 
-0.088871 -0.486308 0.000000 
-0.131782 -0.440442 0.000000 
-0.174505 -0.461008 0.000000 
0.046960 -0.067506 0.000000 
0.149405 -0.093707 0.000000 
0.098873 -0.108905 0.000000 
0.095301 -0.161552 0.000000 
0.248777 -0.116971 0.000000 
0.203197 -0.136117 0.000000 
0.205981 -0.194321 0.000000 
0.148617 -0.204558 0.000000 
0.140093 -0.253256 0.000000 
0.347255 -0.139644 0.000000 
0.303554 -0.159802 0.000000 
0.309886 -0.220347 0.000000 
0.257893 -0.235719 0.000000 
0.254475 -0.289829 0.000000 
0.194039 -0.297129 0.000000 
0.184111 -0.344220 0.000000 
0.445733 -0.162317 0.000000 
0.403017 -0.182896 0.000000 
0.412122 -0.245043 0.000000 
0.362692 -0.262336 0.000000 
0.363386 -0.319847 0.000000 
0.307162 -0.331968 0.000000 
0.301302 -0.384007 0.000000 
0.238687 -0.388959 0.000000 
0.228129 -0.435183 0.000000 
0.058559 -0.016691 0.000000 
0.142917 0.047067 0.000000 
0.123292 -0.001916 0.000000 
0.162226 -0.037534 0.000000 
0.223062 0.110255 0.000000 
0.209613 0.062681 0.000000 
0.256854 0.028569 0.000000 
0.229092 -0.022663 0.000000 
0.261851 -0.059690 0.000000 
0.302189 0.173112 0.000000 
0.290702 0.126377 0.000000 
0.341985 0.093578 0.000000 
0.321587 0.043344 0.000000 
0.361761 0.006935 0.000000 
0.329787 -0.044867 0.000000 
0.360414 -0.081990 0.000000 
0.381315 0.235968 0.000000 
0.370772 0.189741 0.000000 
0.425037 0.158112 0.000000 
0.407738 0.108684 0.000000 
0.453135 0.073368 0.000000 
0.427556 0.021854 0.000000 
0.464588 -0.015174 0.000000 
0.429420 -0.067216 0.000000 
0.458977 -0.104290 0.000000 
0.026061 0.024060 0.000000 
0.028809 0.129766 0.000000 
0.054870 0.083882 0.000000 
0.106992 0.092115 0.000000 
0.029377 0.231823 0.000000 
0.058186 0.191646 0.000000 
0.114311 0.207312 0.000000 
0.137056 0.153664 0.000000 
0.186430 0.156191 0.000000 
0.029568 0.332877 0.000000 
0.058945 0.294757 0.000000 
0.116563 0.314403 0.000000 
0.143120 0.267135 0.000000 
0.196633 0.275843 0.000000 
0.217198 0.218547 0.000000 
0.265318 0.219346 0.000000 
0.029759 0.433932 0.000000 
0.059328 0.396866 0.000000 
0.117890 0.419572 0.000000 
0.145749 0.375229 0.000000 
0.201664 0.388703 0.000000 
0.225992 0.336586 0.000000 
0.278030 0.342452 0.000000 
0.296791 0.282509 0.000000 
0.344206 0.282502 0.000000 
VECTORS X_EC float 
0.338794 0.175194 0.000000 
-0.609100 -0.743554 0.000000 
0.713312 -0.632413 0.000000 
0.374519 0.748157 0.000000 
0.423588 0.391427 0.000000 
-0.218274 0.425530 0.000000 
-0.513962 -0.298709 0.000000 
0.756418 -0.087223 0.000000 
0.381900 -0.629615 0.000000 
-0.550868 -0.461177 0.000000 
0.823577 -0.450381 0.000000 
0.556234 0.776115 0.000000 
-0.139443 0.893684 0.000000 
-0.484677 0.255559 0.000000 
0.766286 0.520774 0.000000 
0.384386 0.006154 0.000000 
0.474677 0.686220 0.000000 
-0.141715 0.686124 0.000000 
-0.385608 -0.123104 0.000000 
0.937896 -0.043909 0.000000 
0.621631 -0.747489 0.000000 
-0.105264 -0.565590 0.000000 
-0.467428 0.835784 0.000000 
0.771260 -0.857687 0.000000 
0.386873 0.641923 0.000000 
0.761262 0.725329 0.000000 
0.108942 -0.993295 0.000000 
-0.397202 0.525866 0.000000 
-0.142083 -0.135409 0.000000 
-0.595936 -0.694184 0.000000 
0.978194 0.805950 0.000000 
-0.660903 0.114325 0.000000 
0.724964 -0.346195 0.000000 
0.899809 -0.988444 0.000000 
0.685384 -0.393132 0.000000 
0.287229 -0.894290 0.000000 
0.702895 0.406381 0.000000 
0.180633 -0.085137 0.000000 
0.445811 -0.763297 0.000000 
-0.220880 0.793917 0.000000 
-0.071546 0.162992 0.000000 
-0.033296 -0.092080 0.000000 
-0.417537 -0.592589 0.000000 
0.039645 0.704848 0.000000 
-0.441768 0.204977 0.000000 
-0.109248 -0.490474 0.000000 
-0.699407 -0.967229 0.000000 
-0.474522 0.365492 0.000000 
0.820030 -0.061502 0.000000 
0.957100 -0.685573 0.000000 
0.610485 -0.588665 0.000000 
-0.761092 0.680955 0.000000 
-0.714655 -0.029783 0.000000 
-0.057734 -0.234950 0.000000 
-0.178789 -0.081041 0.000000 
-0.067979 -0.738467 0.000000 
0.677748 -0.876671 0.000000 
0.641556 0.337584 0.000000 
-0.765897 0.079105 0.000000 
0.393446 -0.853032 0.000000 
0.522510 0.511238 0.000000 
-0.691820 0.412694 0.000000 
-0.647393 -0.317789 0.000000 
0.028512 -0.525316 0.000000 
-0.053800 0.657324 0.000000 
0.514316 0.385193 0.000000 
0.965681 0.374977 0.000000 
-0.897068 -0.249052 0.000000 
-0.083078 -0.315905 0.000000 
-0.006893 0.981570 0.000000 
0.724017 0.817938 0.000000 
0.714996 0.041534 0.000000 
-0.642413 -0.191923 0.000000 
-0.760780 0.969096 0.000000 
-0.205471 0.691281 0.000000 
0.000000 -0.283363 0.000000 
-0.564049 -0.981550 0.000000 
0.000000 0.613014 0.000000 
0.564049 -0.981550 0.000000 
0.866949 0.263105 0.000000 
-0.569003 -0.056826 0.000000 
0.000000 0.462462 0.000000 
0.569003 -0.056826 0.000000 
-0.866949 0.263105 0.000000 
0.299194 -0.506645 0.000000 
0.858290 -0.798229 0.000000 
-0.577662 -0.221783 0.000000 
0.000000 -0.641161 0.000000 
0.577662 -0.221783 0.000000 
-0.858290 -0.798229 0.000000 
-0.299194 -0.506645 0.000000 
-0.268560 0.723605 0.000000 
0.286830 0.445963 0.000000 
0.844677 -0.934838 0.000000 
-0.578910 0.688999 0.000000 
0.000000 -0.819597 0.000000 
0.578910 0.688999 0.000000 
-0.844677 -0.934838 0.000000 
-0.286830 0.445963 0.000000 
0.268560 0.723605 0.000000 
-0.610485 -0.588665 0.000000 
0.057734 -0.234950 0.000000 
0.714655 -0.029783 0.000000 
0.761092 0.680955 0.000000 
0.765897 0.079105 0.000000 
-0.641556 0.337584 0.000000 
-0.677748 -0.876671 0.000000 
0.067979 -0.738467 0.000000 
0.178789 -0.081041 0.000000 
-0.514316 0.385193 0.000000 
0.053800 0.657324 0.000000 
-0.028512 -0.525316 0.000000 
0.647393 -0.317789 0.000000 
0.691820 0.412694 0.000000 
-0.522510 0.511238 0.000000 
-0.393446 -0.853032 0.000000 
0.205471 0.691281 0.000000 
0.760780 0.969096 0.000000 
0.642413 -0.191923 0.000000 
-0.714996 0.041534 0.000000 
-0.724017 0.817938 0.000000 
0.006894 0.981571 0.000000 
0.083078 -0.315905 0.000000 
0.897068 -0.249052 0.000000 
-0.965681 0.374977 0.000000 
-0.761262 0.725329 0.000000 
0.142083 -0.135409 0.000000 
0.397202 0.525866 0.000000 
-0.108942 -0.993295 0.000000 
-0.899809 -0.988444 0.000000 
-0.724964 -0.346195 0.000000 
0.660903 0.114325 0.000000 
-0.978194 0.805950 0.000000 
0.595936 -0.694184 0.000000 
0.071546 0.162992 0.000000 
0.220880 0.793917 0.000000 
-0.445811 -0.763297 0.000000 
-0.180633 -0.085137 0.000000 
-0.702895 0.406381 0.000000 
-0.287229 -0.894290 0.000000 
-0.685384 -0.393132 0.000000 
-0.957100 -0.685573 0.000000 
-0.820030 -0.061502 0.000000 
0.474522 0.365492 0.000000 
0.699407 -0.967229 0.000000 
0.109248 -0.490474 0.000000 
0.441768 0.204977 0.000000 
-0.039645 0.704848 0.000000 
0.417537 -0.592589 0.000000 
0.033296 -0.092080 0.000000 
-0.338794 0.175194 0.000000 
-0.374519 0.748157 0.000000 
-0.713312 -0.632413 0.000000 
0.609100 -0.743554 0.000000 
-0.381900 -0.629615 0.000000 
-0.756418 -0.087223 0.000000 
0.513962 -0.298709 0.000000 
0.218274 0.425530 0.000000 
-0.423588 0.391427 0.000000 
-0.384386 0.006154 0.000000 
-0.766286 0.520774 0.000000 
0.484677 0.255559 0.000000 
0.139443 0.893684 0.000000 
-0.556234 0.776115 0.000000 
-0.823577 -0.450381 0.000000 
0.550868 -0.461177 0.000000 
-0.386873 0.641923 0.000000 
-0.771260 -0.857687 0.000000 
0.467428 0.835784 0.000000 
0.105264 -0.565590 0.000000 
-0.621631 -0.747489 0.000000 
-0.937896 -0.043909 0.000000 
0.385608 -0.123104 0.000000 
0.141715 0.686124 0.000000 
-0.474677 0.686220 0.000000 
CELL_DATA 175 
SCALARS MASS float 
LOOKUP_TABLE default 
0.078183 
0.086427 
0.094672 
0.086427 
0.088131 
0.092111 
0.085854 
0.092111 
0.088131 
0.088705 
0.091000 
0.086983 
0.091556 
0.086983 
0.091000 
0.088705 
0.089278 
0.091574 
0.089278 
0.092722 
0.089278 
0.092722 
0.089278 
0.091574 
0.089278 
0.078183 
0.086427 
0.094672 
0.086427 
0.088131 
0.092111 
0.085854 
0.092111 
0.088131 
0.088705 
0.091000 
0.086983 
0.091556 
0.086983 
0.091000 
0.088705 
0.089278 
0.091574 
0.089278 
0.092722 
0.089278 
0.092722 
0.089278 
0.091574 
0.089278 
0.078183 
0.086427 
0.094672 
0.086427 
0.088131 
0.092111 
0.085854 
0.092111 
0.088131 
0.088705 
0.091000 
0.086983 
0.091556 
0.086983 
0.091000 
0.088705 
0.089278 
0.091574 
0.089278 
0.092722 
0.089278 
0.092722 
0.089278 
0.091574 
0.089278 
0.078183 
0.086427 
0.094672 
0.086427 
0.088131 
0.092111 
0.085854 
0.092111 
0.088131 
0.088705 
0.091000 
0.086983 
0.091556 
0.086983 
0.091000 
0.088705 
0.089278 
0.091574 
0.089278 
0.092722 
0.089278 
0.092722 
0.089278 
0.091574 
0.089278 
0.078183 
0.086427 
0.094672 
0.086427 
0.088131 
0.092111 
0.085854 
0.092111 
0.088131 
0.088705 
0.091000 
0.086983 
0.091556 
0.086983 
0.091000 
0.088705 
0.089278 
0.091574 
0.089278 
0.092722 
0.089278 
0.092722 
0.089278 
0.091574 
0.089278 
0.078183 
0.086427 
0.094672 
0.086427 
0.088131 
0.092111 
0.085854 
0.092111 
0.088131 
0.088705 
0.091000 
0.086983 
0.091556 
0.086983 
0.091000 
0.088705 
0.089278 
0.091574 
0.089278 
0.092722 
0.089278 
0.092722 
0.089278 
0.091574 
0.089278 
0.078183 
0.086427 
0.094672 
0.086427 
0.088131 
0.092111 
0.085854 
0.092111 
0.088131 
0.088705 
0.091000 
0.086983 
0.091556 
0.086983 
0.091000 
0.088705 
0.089278 
0.091574 
0.089278 
0.092722 
0.089278 
0.092722 
0.089278 
0.091574 
0.089278 
SCALARS MASS float 
LOOKUP_TABLE default 
0.078183 
0.086427 
0.094672 
0.086427 
0.088131 
0.092111 
0.085854 
0.092111 
0.088131 
0.088705 
0.091000 
0.086983 
0.091556 
0.086983 
0.091000 
0.088705 
0.089278 
0.091574 
0.089278 
0.092722 
0.089278 
0.092722 
0.089278 
0.091574 
0.089278 
0.078183 
0.086427 
0.094672 
0.086427 
0.088131 
0.092111 
0.085854 
0.092111 
0.088131 
0.088705 
0.091000 
0.086983 
0.091556 
0.086983 
0.091000 
0.088705 
0.089278 
0.091574 
0.089278 
0.092722 
0.089278 
0.092722 
0.089278 
0.091574 
0.089278 
0.078183 
0.086427 
0.094672 
0.086427 
0.088131 
0.092111 
0.085854 
0.092111 
0.088131 
0.088705 
0.091000 
0.086983 
0.091556 
0.086983 
0.091000 
0.088705 
0.089278 
0.091574 
0.089278 
0.092722 
0.089278 
0.092722 
0.089278 
0.091574 
0.089278 
0.078183 
0.086427 
0.094672 
0.086427 
0.088131 
0.092111 
0.085854 
0.092111 
0.088131 
0.088705 
0.091000 
0.086983 
0.091556 
0.086983 
0.091000 
0.088705 
0.089278 
0.091574 
0.089278 
0.092722 
0.089278 
0.092722 
0.089278 
0.091574 
0.089278 
0.078183 
0.086427 
0.094672 
0.086427 
0.088131 
0.092111 
0.085854 
0.092111 
0.088131 
0.088705 
0.091000 
0.086983 
0.091556 
0.086983 
0.091000 
0.088705 
0.089278 
0.091574 
0.089278 
0.092722 
0.089278 
0.092722 
0.089278 
0.091574 
0.089278 
0.078183 
0.086427 
0.094672 
0.086427 
0.088131 
0.092111 
0.085854 
0.092111 
0.088131 
0.088705 
0.091000 
0.086983 
0.091556 
0.086983 
0.091000 
0.088705 
0.089278 
0.091574 
0.089278 
0.092722 
0.089278 
0.092722 
0.089278 
0.091574 
0.089278 
0.078183 
0.086427 
0.094672 
0.086427 
0.088131 
0.092111 
0.085854 
0.092111 
0.088131 
0.088705 
0.091000 
0.086983 
0.091556 
0.086983 
0.091000 
0.088705 
0.089278 
0.091574 
0.089278 
0.092722 
0.089278 
0.092722 
0.089278 
0.091574 
0.089278 
SCALARS DENSITY float 
LOOKUP_TABLE default 
20.000000 
20.000000 
20.000000 
20.000000 
20.000000 
20.000000 
20.000000 
20.000000 
20.000000 
20.000000 
20.000000 
20.000000 
20.000000 
20.000000 
20.000000 
20.000000 
20.000000 
20.000000 
20.000000 
20.000000 
20.000000 
20.000000 
20.000000 
20.000000 
20.000000 
20.000000 
20.000000 
20.000000 
20.000000 
20.000000 
20.000000 
20.000000 
20.000000 
20.000000 
20.000000 
20.000000 
20.000000 
20.000000 
20.000000 
20.000000 
20.000000 
20.000000 
20.000000 
20.000000 
20.000000 
20.000000 
20.000000 
20.000000 
20.000000 
20.000000 
20.000000 
20.000000 
20.000000 
20.000000 
20.000000 
20.000000 
20.000000 
20.000000 
20.000000 
20.000000 
20.000000 
20.000000 
20.000000 
20.000000 
20.000000 
20.000000 
20.000000 
20.000000 
20.000000 
20.000000 
20.000000 
20.000000 
20.000000 
20.000000 
20.000000 
20.000000 
20.000000 
20.000000 
20.000000 
20.000000 
20.000000 
20.000000 
20.000000 
20.000000 
20.000000 
20.000000 
20.000000 
20.000000 
20.000000 
20.000000 
20.000000 
20.000000 
20.000000 
20.000000 
20.000000 
20.000000 
20.000000 
20.000000 
20.000000 
20.000000 
20.000000 
20.000000 
20.000000 
20.000000 
20.000000 
20.000000 
20.000000 
20.000000 
20.000000 
20.000000 
20.000000 
20.000000 
20.000000 
20.000000 
20.000000 
20.000000 
20.000000 
20.000000 
20.000000 
20.000000 
20.000000 
20.000000 
20.000000 
20.000000 
20.000000 
20.000000 
20.000000 
20.000000 
20.000000 
20.000000 
20.000000 
20.000000 
20.000000 
20.000000 
20.000000 
20.000000 
20.000000 
20.000000 
20.000000 
20.000000 
20.000000 
20.000000 
20.000000 
20.000000 
20.000000 
20.000000 
20.000000 
20.000000 
20.000000 
20.000000 
20.000000 
20.000000 
20.000000 
20.000000 
20.000000 
20.000000 
20.000000 
20.000000 
20.000000 
20.000000 
20.000000 
20.000000 
20.000000 
20.000000 
20.000000 
20.000000 
20.000000 
20.000000 
20.000000 
20.000000 
20.000000 
20.000000 
20.000000 
20.000000 
20.000000 
SCALARS ELEM_i float 
LOOKUP_TABLE default 
182 
209 
182 
183 
210 
210 
210 
183 
183 
237 
210 
211 
211 
211 
184 
184 
238 
238 
238 
211 
211 
211 
212 
184 
185 
182 
208 
209 
209 
235 
209 
236 
209 
209 
235 
235 
236 
236 
236 
237 
237 
262 
262 
263 
263 
263 
263 
264 
237 
237 
181 
208 
208 
208 
207 
207 
207 
208 
235 
206 
207 
234 
234 
234 
235 
235 
206 
233 
233 
234 
234 
234 
261 
262 
262 
181 
180 
181 
180 
153 
180 
180 
180 
207 
152 
152 
179 
179 
179 
206 
206 
152 
152 
151 
179 
178 
179 
205 
206 
206 
181 
154 
154 
154 
127 
154 
153 
153 
153 
127 
127 
126 
126 
126 
153 
152 
100 
100 
99 
126 
126 
126 
125 
125 
152 
182 
155 
155 
154 
155 
155 
128 
155 
127 
129 
129 
128 
128 
128 
127 
127 
129 
129 
102 
101 
101 
101 
101 
100 
100 
182 
183 
182 
155 
183 
183 
156 
156 
156 
184 
184 
157 
157 
157 
156 
129 
185 
184 
158 
157 
157 
157 
130 
130 
130 
VECTORS VELOCITY float 
-0.000000 -0.767534 0.000000 
-0.000000 -0.767534 0.000000 
-0.000000 -0.767534 0.000000 
-0.000000 -0.767534 0.000000 
0.000000 -0.767534 0.000000 
0.000000 -0.767534 0.000000 
0.000000 -0.767534 0.000000 
-0.000000 -0.767534 0.000000 
-0.000000 -0.767534 0.000000 
0.000000 -0.767534 0.000000 
0.000000 -0.767534 0.000000 
0.000000 -0.767534 0.000000 
0.000000 -0.767534 0.000000 
0.000000 -0.767534 0.000000 
0.000000 -0.767534 0.000000 
0.000000 -0.767534 0.000000 
0.000000 -0.767534 0.000000 
0.000000 -0.767534 0.000000 
0.000000 -0.767534 0.000000 
0.000000 -0.767534 0.000000 
0.000000 -0.767534 0.000000 
0.000000 -0.767534 0.000000 
0.000000 -0.767534 0.000000 
0.000000 -0.767534 0.000000 
-0.000000 -0.767534 0.000000 
-0.000000 -0.767534 0.000000 
0.000000 -0.767534 0.000000 
-0.000000 -0.767534 0.000000 
-0.000000 -0.767534 0.000000 
0.000000 -0.767534 0.000000 
0.000000 -0.767534 0.000000 
0.000000 -0.767534 0.000000 
-0.000000 -0.767534 0.000000 
-0.000000 -0.767534 0.000000 
-0.000000 -0.767534 0.000000 
-0.000000 -0.767534 0.000000 
-0.000000 -0.767534 0.000000 
0.000000 -0.767534 0.000000 
0.000000 -0.767534 0.000000 
0.000000 -0.767534 0.000000 
0.000000 -0.767534 0.000000 
-0.000000 -0.767534 0.000000 
-0.000000 -0.767534 0.000000 
-0.000000 -0.767534 0.000000 
-0.000000 -0.767534 0.000000 
-0.000000 -0.767534 0.000000 
0.000000 -0.767534 0.000000 
0.000000 -0.767534 0.000000 
0.000000 -0.767534 0.000000 
-0.000000 -0.767534 0.000000 
-0.000000 -0.767534 0.000000 
-0.000000 -0.767534 0.000000 
-0.000000 -0.767534 0.000000 
-0.000000 -0.767534 0.000000 
-0.000000 -0.767534 0.000000 
-0.000000 -0.767534 0.000000 
0.000000 -0.767534 0.000000 
0.000000 -0.767534 0.000000 
0.000000 -0.767534 0.000000 
-0.000000 -0.767534 0.000000 
-0.000000 -0.767534 0.000000 
0.000000 -0.767534 0.000000 
0.000000 -0.767534 0.000000 
0.000000 -0.767534 0.000000 
0.000000 -0.767534 0.000000 
-0.000000 -0.767534 0.000000 
-0.000000 -0.767534 0.000000 
-0.000000 -0.767534 0.000000 
-0.000000 -0.767534 0.000000 
0.000000 -0.767534 0.000000 
0.000000 -0.767534 0.000000 
0.000000 -0.767534 0.000000 
0.000000 -0.767534 0.000000 
-0.000000 -0.767534 0.000000 
0.000000 -0.767534 0.000000 
-0.000000 -0.767534 0.000000 
-0.000000 -0.767534 0.000000 
-0.000000 -0.767534 0.000000 
-0.000000 -0.767534 0.000000 
-0.000000 -0.767534 0.000000 
-0.000000 -0.767534 0.000000 
-0.000000 -0.767534 0.000000 
-0.000000 -0.767534 0.000000 
-0.000000 -0.767534 0.000000 
0.000000 -0.767534 0.000000 
0.000000 -0.767534 0.000000 
0.000000 -0.767534 0.000000 
-0.000000 -0.767534 0.000000 
-0.000000 -0.767534 0.000000 
-0.000000 -0.767534 0.000000 
-0.000000 -0.767534 0.000000 
-0.000000 -0.767534 0.000000 
-0.000000 -0.767534 0.000000 
0.000000 -0.767534 0.000000 
0.000000 -0.767534 0.000000 
0.000000 -0.767534 0.000000 
-0.000000 -0.767534 0.000000 
0.000000 -0.767534 0.000000 
-0.000000 -0.767534 0.000000 
-0.000000 -0.767534 0.000000 
0.000000 -0.767534 0.000000 
-0.000000 -0.767534 0.000000 
-0.000000 -0.767534 0.000000 
-0.000000 -0.767534 0.000000 
-0.000000 -0.767534 0.000000 
-0.000000 -0.767534 0.000000 
0.000000 -0.767534 0.000000 
-0.000000 -0.767534 0.000000 
0.000000 -0.767534 0.000000 
-0.000000 -0.767534 0.000000 
-0.000000 -0.767534 0.000000 
0.000000 -0.767534 0.000000 
0.000000 -0.767534 0.000000 
0.000000 -0.767534 0.000000 
0.000000 -0.767534 0.000000 
0.000000 -0.767534 0.000000 
0.000000 -0.767534 0.000000 
0.000000 -0.767534 0.000000 
0.000000 -0.767534 0.000000 
0.000000 -0.767534 0.000000 
0.000000 -0.767534 0.000000 
0.000000 -0.767534 0.000000 
0.000000 -0.767534 0.000000 
0.000000 -0.767534 0.000000 
-0.000000 -0.767534 0.000000 
0.000000 -0.767534 0.000000 
0.000000 -0.767534 0.000000 
0.000000 -0.767534 0.000000 
0.000000 -0.767534 0.000000 
0.000000 -0.767534 0.000000 
0.000000 -0.767534 0.000000 
-0.000000 -0.767534 0.000000 
-0.000000 -0.767534 0.000000 
-0.000000 -0.767534 0.000000 
-0.000000 -0.767534 0.000000 
-0.000000 -0.767534 0.000000 
-0.000000 -0.767534 0.000000 
-0.000000 -0.767534 0.000000 
-0.000000 -0.767534 0.000000 
-0.000000 -0.767534 0.000000 
-0.000000 -0.767534 0.000000 
-0.000000 -0.767534 0.000000 
-0.000000 -0.767534 0.000000 
0.000000 -0.767534 0.000000 
-0.000000 -0.767534 0.000000 
-0.000000 -0.767534 0.000000 
-0.000000 -0.767534 0.000000 
-0.000000 -0.767534 0.000000 
-0.000000 -0.767534 0.000000 
0.000000 -0.767534 0.000000 
0.000000 -0.767534 0.000000 
-0.000000 -0.767534 0.000000 
-0.000000 -0.767534 0.000000 
-0.000000 -0.767534 0.000000 
-0.000000 -0.767534 0.000000 
-0.000000 -0.767534 0.000000 
-0.000000 -0.767534 0.000000 
-0.000000 -0.767534 0.000000 
0.000000 -0.767534 0.000000 
-0.000000 -0.767534 0.000000 
-0.000000 -0.767534 0.000000 
-0.000000 -0.767534 0.000000 
-0.000000 -0.767534 0.000000 
-0.000000 -0.767534 0.000000 
0.000000 -0.767534 0.000000 
0.000000 -0.767534 0.000000 
0.000000 -0.767534 0.000000 
-0.000000 -0.767534 0.000000 
0.000000 -0.767534 0.000000 
-0.000000 -0.767534 0.000000 
-0.000000 -0.767534 0.000000 
-0.000000 -0.767534 0.000000 
-0.000000 -0.767534 0.000000 
-0.000000 -0.767534 0.000000 
-0.000000 -0.767534 0.000000 
TENSORS STRESS float 
0.000000 -0.000000 0.000000 
0.000000 0.000000 0.000000 
0.000000 0.000000 0.000000 

-0.000000 -0.000000 0.000000 
0.000000 -0.000000 0.000000 
0.000000 0.000000 0.000000 

0.000000 -0.000000 0.000000 
0.000000 0.000000 0.000000 
0.000000 0.000000 0.000000 

0.000000 0.000000 0.000000 
0.000000 -0.000000 0.000000 
0.000000 0.000000 0.000000 

-0.000000 0.000000 0.000000 
0.000000 -0.000000 0.000000 
0.000000 0.000000 0.000000 

0.000000 0.000000 0.000000 
0.000000 0.000000 0.000000 
0.000000 0.000000 0.000000 

-0.000000 0.000000 0.000000 
0.000000 -0.000000 0.000000 
0.000000 0.000000 0.000000 

0.000000 -0.000000 0.000000 
0.000000 -0.000000 0.000000 
0.000000 0.000000 0.000000 

-0.000000 -0.000000 0.000000 
0.000000 -0.000000 0.000000 
0.000000 0.000000 0.000000 

0.000000 0.000000 0.000000 
0.000000 0.000000 0.000000 
0.000000 0.000000 0.000000 

-0.000000 0.000000 0.000000 
0.000000 -0.000000 0.000000 
0.000000 0.000000 0.000000 

-0.000000 0.000000 0.000000 
0.000000 -0.000000 0.000000 
0.000000 0.000000 0.000000 

-0.000000 0.000000 0.000000 
0.000000 0.000000 0.000000 
0.000000 0.000000 0.000000 

0.000000 0.000000 0.000000 
0.000000 0.000000 0.000000 
0.000000 0.000000 0.000000 

-0.000000 -0.000000 0.000000 
0.000000 0.000000 0.000000 
0.000000 0.000000 0.000000 

-0.000000 -0.000000 0.000000 
0.000000 -0.000000 0.000000 
0.000000 0.000000 0.000000 

0.000000 -0.000000 0.000000 
0.000000 -0.000000 0.000000 
0.000000 0.000000 0.000000 

0.000000 0.000000 0.000000 
0.000000 0.000000 0.000000 
0.000000 0.000000 0.000000 

0.000000 -0.000000 0.000000 
0.000000 0.000000 0.000000 
0.000000 0.000000 0.000000 

-0.000000 0.000000 0.000000 
0.000000 -0.000000 0.000000 
0.000000 0.000000 0.000000 

0.000000 -0.000000 0.000000 
0.000000 0.000000 0.000000 
0.000000 0.000000 0.000000 

-0.000000 0.000000 0.000000 
0.000000 -0.000000 0.000000 
0.000000 0.000000 0.000000 

-0.000000 0.000000 0.000000 
0.000000 -0.000000 0.000000 
0.000000 0.000000 0.000000 

-0.000000 0.000000 0.000000 
0.000000 0.000000 0.000000 
0.000000 0.000000 0.000000 

-0.000000 -0.000000 0.000000 
0.000000 -0.000000 0.000000 
0.000000 0.000000 0.000000 

0.000000 -0.000000 0.000000 
0.000000 -0.000000 0.000000 
0.000000 0.000000 0.000000 

0.000000 0.000000 0.000000 
0.000000 0.000000 0.000000 
0.000000 0.000000 0.000000 

0.000000 0.000000 0.000000 
0.000000 0.000000 0.000000 
0.000000 0.000000 0.000000 

0.000000 -0.000000 0.000000 
0.000000 0.000000 0.000000 
0.000000 0.000000 0.000000 

-0.000000 -0.000000 0.000000 
0.000000 -0.000000 0.000000 
0.000000 0.000000 0.000000 

0.000000 0.000000 0.000000 
0.000000 0.000000 0.000000 
0.000000 0.000000 0.000000 

0.000000 0.000000 0.000000 
0.000000 0.000000 0.000000 
0.000000 0.000000 0.000000 

0.000000 0.000000 0.000000 
0.000000 0.000000 0.000000 
0.000000 0.000000 0.000000 

-0.000000 -0.000000 0.000000 
0.000000 0.000000 0.000000 
0.000000 0.000000 0.000000 

0.000000 -0.000000 0.000000 
0.000000 0.000000 0.000000 
0.000000 0.000000 0.000000 

0.000000 -0.000000 0.000000 
0.000000 0.000000 0.000000 
0.000000 0.000000 0.000000 

0.000000 0.000000 0.000000 
0.000000 0.000000 0.000000 
0.000000 0.000000 0.000000 

0.000000 0.000000 0.000000 
0.000000 0.000000 0.000000 
0.000000 0.000000 0.000000 

-0.000000 0.000000 0.000000 
0.000000 -0.000000 0.000000 
0.000000 0.000000 0.000000 

-0.000000 0.000000 0.000000 
0.000000 0.000000 0.000000 
0.000000 0.000000 0.000000 

-0.000000 0.000000 0.000000 
0.000000 -0.000000 0.000000 
0.000000 0.000000 0.000000 

-0.000000 -0.000000 0.000000 
0.000000 0.000000 0.000000 
0.000000 0.000000 0.000000 

-0.000000 -0.000000 0.000000 
0.000000 0.000000 0.000000 
0.000000 0.000000 0.000000 

-0.000000 0.000000 0.000000 
0.000000 0.000000 0.000000 
0.000000 0.000000 0.000000 

-0.000000 0.000000 0.000000 
0.000000 -0.000000 0.000000 
0.000000 0.000000 0.000000 

-0.000000 -0.000000 0.000000 
0.000000 0.000000 0.000000 
0.000000 0.000000 0.000000 

-0.000000 0.000000 0.000000 
0.000000 0.000000 0.000000 
0.000000 0.000000 0.000000 

-0.000000 -0.000000 0.000000 
0.000000 0.000000 0.000000 
0.000000 0.000000 0.000000 

0.000000 0.000000 0.000000 
0.000000 0.000000 0.000000 
0.000000 0.000000 0.000000 

-0.000000 0.000000 0.000000 
0.000000 0.000000 0.000000 
0.000000 0.000000 0.000000 

0.000000 -0.000000 0.000000 
0.000000 0.000000 0.000000 
0.000000 0.000000 0.000000 

0.000000 0.000000 0.000000 
0.000000 -0.000000 0.000000 
0.000000 0.000000 0.000000 

0.000000 0.000000 0.000000 
0.000000 -0.000000 0.000000 
0.000000 0.000000 0.000000 

0.000000 0.000000 0.000000 
0.000000 0.000000 0.000000 
0.000000 0.000000 0.000000 

0.000000 0.000000 0.000000 
0.000000 0.000000 0.000000 
0.000000 0.000000 0.000000 

0.000000 0.000000 0.000000 
0.000000 -0.000000 0.000000 
0.000000 0.000000 0.000000 

0.000000 0.000000 0.000000 
0.000000 0.000000 0.000000 
0.000000 0.000000 0.000000 

0.000000 0.000000 0.000000 
0.000000 -0.000000 0.000000 
0.000000 0.000000 0.000000 

-0.000000 -0.000000 0.000000 
0.000000 -0.000000 0.000000 
0.000000 0.000000 0.000000 

-0.000000 0.000000 0.000000 
0.000000 -0.000000 0.000000 
0.000000 0.000000 0.000000 

-0.000000 0.000000 0.000000 
0.000000 0.000000 0.000000 
0.000000 0.000000 0.000000 

-0.000000 -0.000000 0.000000 
0.000000 0.000000 0.000000 
0.000000 0.000000 0.000000 

-0.000000 -0.000000 0.000000 
0.000000 0.000000 0.000000 
0.000000 0.000000 0.000000 

-0.000000 0.000000 0.000000 
0.000000 0.000000 0.000000 
0.000000 0.000000 0.000000 

-0.000000 -0.000000 0.000000 
0.000000 -0.000000 0.000000 
0.000000 0.000000 0.000000 

-0.000000 -0.000000 0.000000 
0.000000 0.000000 0.000000 
0.000000 0.000000 0.000000 

-0.000000 0.000000 0.000000 
0.000000 -0.000000 0.000000 
0.000000 0.000000 0.000000 

-0.000000 0.000000 0.000000 
0.000000 -0.000000 0.000000 
0.000000 0.000000 0.000000 

-0.000000 0.000000 0.000000 
0.000000 -0.000000 0.000000 
0.000000 0.000000 0.000000 

-0.000000 0.000000 0.000000 
0.000000 0.000000 0.000000 
0.000000 0.000000 0.000000 

-0.000000 0.000000 0.000000 
0.000000 0.000000 0.000000 
0.000000 0.000000 0.000000 

-0.000000 0.000000 0.000000 
0.000000 -0.000000 0.000000 
0.000000 0.000000 0.000000 

-0.000000 -0.000000 0.000000 
0.000000 -0.000000 0.000000 
0.000000 0.000000 0.000000 

-0.000000 -0.000000 0.000000 
0.000000 0.000000 0.000000 
0.000000 0.000000 0.000000 

-0.000000 -0.000000 0.000000 
0.000000 0.000000 0.000000 
0.000000 0.000000 0.000000 

0.000000 -0.000000 0.000000 
0.000000 -0.000000 0.000000 
0.000000 0.000000 0.000000 

0.000000 -0.000000 0.000000 
0.000000 0.000000 0.000000 
0.000000 0.000000 0.000000 

0.000000 -0.000000 0.000000 
0.000000 0.000000 0.000000 
0.000000 0.000000 0.000000 

0.000000 -0.000000 0.000000 
0.000000 -0.000000 0.000000 
0.000000 0.000000 0.000000 

-0.000000 0.000000 0.000000 
0.000000 -0.000000 0.000000 
0.000000 0.000000 0.000000 

0.000000 -0.000000 0.000000 
0.000000 0.000000 0.000000 
0.000000 0.000000 0.000000 

0.000000 -0.000000 0.000000 
0.000000 0.000000 0.000000 
0.000000 0.000000 0.000000 

0.000000 -0.000000 0.000000 
0.000000 0.000000 0.000000 
0.000000 0.000000 0.000000 

-0.000000 0.000000 0.000000 
0.000000 0.000000 0.000000 
0.000000 0.000000 0.000000 

0.000000 0.000000 0.000000 
0.000000 0.000000 0.000000 
0.000000 0.000000 0.000000 

0.000000 0.000000 0.000000 
0.000000 0.000000 0.000000 
0.000000 0.000000 0.000000 

0.000000 -0.000000 0.000000 
0.000000 0.000000 0.000000 
0.000000 0.000000 0.000000 

0.000000 -0.000000 0.000000 
0.000000 0.000000 0.000000 
0.000000 0.000000 0.000000 

0.000000 -0.000000 0.000000 
0.000000 0.000000 0.000000 
0.000000 0.000000 0.000000 

-0.000000 -0.000000 0.000000 
0.000000 0.000000 0.000000 
0.000000 0.000000 0.000000 

-0.000000 0.000000 0.000000 
0.000000 -0.000000 0.000000 
0.000000 0.000000 0.000000 

0.000000 -0.000000 0.000000 
0.000000 0.000000 0.000000 
0.000000 0.000000 0.000000 

0.000000 -0.000000 0.000000 
0.000000 0.000000 0.000000 
0.000000 0.000000 0.000000 

0.000000 -0.000000 0.000000 
0.000000 0.000000 0.000000 
0.000000 0.000000 0.000000 

-0.000000 -0.000000 0.000000 
0.000000 -0.000000 0.000000 
0.000000 0.000000 0.000000 

0.000000 -0.000000 0.000000 
0.000000 0.000000 0.000000 
0.000000 0.000000 0.000000 

-0.000000 -0.000000 0.000000 
0.000000 -0.000000 0.000000 
0.000000 0.000000 0.000000 

0.000000 0.000000 0.000000 
0.000000 0.000000 0.000000 
0.000000 0.000000 0.000000 

-0.000000 -0.000000 0.000000 
0.000000 0.000000 0.000000 
0.000000 0.000000 0.000000 

-0.000000 -0.000000 0.000000 
0.000000 0.000000 0.000000 
0.000000 0.000000 0.000000 

0.000000 -0.000000 0.000000 
0.000000 0.000000 0.000000 
0.000000 0.000000 0.000000 

-0.000000 -0.000000 0.000000 
0.000000 0.000000 0.000000 
0.000000 0.000000 0.000000 

-0.000000 -0.000000 0.000000 
0.000000 0.000000 0.000000 
0.000000 0.000000 0.000000 

0.000000 -0.000000 0.000000 
0.000000 0.000000 0.000000 
0.000000 0.000000 0.000000 

0.000000 -0.000000 0.000000 
0.000000 -0.000000 0.000000 
0.000000 0.000000 0.000000 

-0.000000 -0.000000 0.000000 
0.000000 -0.000000 0.000000 
0.000000 0.000000 0.000000 

-0.000000 0.000000 0.000000 
0.000000 0.000000 0.000000 
0.000000 0.000000 0.000000 

-0.000000 0.000000 0.000000 
0.000000 0.000000 0.000000 
0.000000 0.000000 0.000000 

-0.000000 0.000000 0.000000 
0.000000 -0.000000 0.000000 
0.000000 0.000000 0.000000 

0.000000 -0.000000 0.000000 
0.000000 0.000000 0.000000 
0.000000 0.000000 0.000000 

0.000000 -0.000000 0.000000 
0.000000 0.000000 0.000000 
0.000000 0.000000 0.000000 

-0.000000 -0.000000 0.000000 
0.000000 -0.000000 0.000000 
0.000000 0.000000 0.000000 

-0.000000 -0.000000 0.000000 
0.000000 -0.000000 0.000000 
0.000000 0.000000 0.000000 

-0.000000 0.000000 0.000000 
0.000000 -0.000000 0.000000 
0.000000 0.000000 0.000000 

-0.000000 0.000000 0.000000 
0.000000 -0.000000 0.000000 
0.000000 0.000000 0.000000 

0.000000 0.000000 0.000000 
0.000000 0.000000 0.000000 
0.000000 0.000000 0.000000 

0.000000 0.000000 0.000000 
0.000000 0.000000 0.000000 
0.000000 0.000000 0.000000 

-0.000000 0.000000 0.000000 
0.000000 0.000000 0.000000 
0.000000 0.000000 0.000000 

-0.000000 0.000000 0.000000 
0.000000 -0.000000 0.000000 
0.000000 0.000000 0.000000 

-0.000000 -0.000000 0.000000 
0.000000 -0.000000 0.000000 
0.000000 0.000000 0.000000 

-0.000000 0.000000 0.000000 
0.000000 -0.000000 0.000000 
0.000000 0.000000 0.000000 

-0.000000 0.000000 0.000000 
0.000000 -0.000000 0.000000 
0.000000 0.000000 0.000000 

0.000000 0.000000 0.000000 
0.000000 0.000000 0.000000 
0.000000 0.000000 0.000000 

0.000000 0.000000 0.000000 
0.000000 0.000000 0.000000 
0.000000 0.000000 0.000000 

0.000000 -0.000000 0.000000 
0.000000 0.000000 0.000000 
0.000000 0.000000 0.000000 

0.000000 -0.000000 0.000000 
0.000000 0.000000 0.000000 
0.000000 0.000000 0.000000 

-0.000000 -0.000000 0.000000 
0.000000 -0.000000 0.000000 
0.000000 0.000000 0.000000 

-0.000000 -0.000000 0.000000 
0.000000 -0.000000 0.000000 
0.000000 0.000000 0.000000 

-0.000000 -0.000000 0.000000 
0.000000 -0.000000 0.000000 
0.000000 0.000000 0.000000 

-0.000000 -0.000000 0.000000 
0.000000 -0.000000 0.000000 
0.000000 0.000000 0.000000 

-0.000000 0.000000 0.000000 
0.000000 -0.000000 0.000000 
0.000000 0.000000 0.000000 

-0.000000 0.000000 0.000000 
0.000000 -0.000000 0.000000 
0.000000 0.000000 0.000000 

-0.000000 -0.000000 0.000000 
0.000000 0.000000 0.000000 
0.000000 0.000000 0.000000 

0.000000 -0.000000 0.000000 
0.000000 -0.000000 0.000000 
0.000000 0.000000 0.000000 

0.000000 0.000000 0.000000 
0.000000 0.000000 0.000000 
0.000000 0.000000 0.000000 

0.000000 -0.000000 0.000000 
0.000000 0.000000 0.000000 
0.000000 0.000000 0.000000 

0.000000 0.000000 0.000000 
0.000000 -0.000000 0.000000 
0.000000 0.000000 0.000000 

0.000000 0.000000 0.000000 
0.000000 0.000000 0.000000 
0.000000 0.000000 0.000000 

0.000000 0.000000 0.000000 
0.000000 0.000000 0.000000 
0.000000 0.000000 0.000000 

0.000000 -0.000000 0.000000 
0.000000 -0.000000 0.000000 
0.000000 0.000000 0.000000 

0.000000 0.000000 0.000000 
0.000000 0.000000 0.000000 
0.000000 0.000000 0.000000 

0.000000 0.000000 0.000000 
0.000000 0.000000 0.000000 
0.000000 0.000000 0.000000 

0.000000 0.000000 0.000000 
0.000000 0.000000 0.000000 
0.000000 0.000000 0.000000 

0.000000 -0.000000 0.000000 
0.000000 -0.000000 0.000000 
0.000000 0.000000 0.000000 

-0.000000 -0.000000 0.000000 
0.000000 -0.000000 0.000000 
0.000000 0.000000 0.000000 

-0.000000 -0.000000 0.000000 
0.000000 -0.000000 0.000000 
0.000000 0.000000 0.000000 

-0.000000 -0.000000 0.000000 
0.000000 -0.000000 0.000000 
0.000000 0.000000 0.000000 

0.000000 -0.000000 0.000000 
0.000000 0.000000 0.000000 
0.000000 0.000000 0.000000 

0.000000 -0.000000 0.000000 
0.000000 0.000000 0.000000 
0.000000 0.000000 0.000000 

0.000000 0.000000 0.000000 
0.000000 0.000000 0.000000 
0.000000 0.000000 0.000000 

0.000000 -0.000000 0.000000 
0.000000 0.000000 0.000000 
0.000000 0.000000 0.000000 

0.000000 -0.000000 0.000000 
0.000000 -0.000000 0.000000 
0.000000 0.000000 0.000000 

0.000000 0.000000 0.000000 
0.000000 0.000000 0.000000 
0.000000 0.000000 0.000000 

-0.000000 0.000000 0.000000 
0.000000 -0.000000 0.000000 
0.000000 0.000000 0.000000 

-0.000000 -0.000000 0.000000 
0.000000 -0.000000 0.000000 
0.000000 0.000000 0.000000 

-0.000000 -0.000000 0.000000 
0.000000 -0.000000 0.000000 
0.000000 0.000000 0.000000 

-0.000000 -0.000000 0.000000 
0.000000 -0.000000 0.000000 
0.000000 0.000000 0.000000 

-0.000000 -0.000000 0.000000 
0.000000 -0.000000 0.000000 
0.000000 0.000000 0.000000 

-0.000000 0.000000 0.000000 
0.000000 -0.000000 0.000000 
0.000000 0.000000 0.000000 

-0.000000 -0.000000 0.000000 
0.000000 -0.000000 0.000000 
0.000000 0.000000 0.000000 

-0.000000 -0.000000 0.000000 
0.000000 -0.000000 0.000000 
0.000000 0.000000 0.000000 

-0.000000 0.000000 0.000000 
0.000000 -0.000000 0.000000 
0.000000 0.000000 0.000000 

0.000000 0.000000 0.000000 
0.000000 0.000000 0.000000 
0.000000 0.000000 0.000000 

0.000000 0.000000 0.000000 
0.000000 0.000000 0.000000 
0.000000 0.000000 0.000000 

-0.000000 0.000000 0.000000 
0.000000 -0.000000 0.000000 
0.000000 0.000000 0.000000 

0.000000 0.000000 0.000000 
0.000000 -0.000000 0.000000 
0.000000 0.000000 0.000000 

-0.000000 -0.000000 0.000000 
0.000000 0.000000 0.000000 
0.000000 0.000000 0.000000 

-0.000000 -0.000000 0.000000 
0.000000 0.000000 0.000000 
0.000000 0.000000 0.000000 

-0.000000 0.000000 0.000000 
0.000000 0.000000 0.000000 
0.000000 0.000000 0.000000 

-0.000000 0.000000 0.000000 
0.000000 -0.000000 0.000000 
0.000000 0.000000 0.000000 

-0.000000 0.000000 0.000000 
0.000000 -0.000000 0.000000 
0.000000 0.000000 0.000000 

-0.000000 0.000000 0.000000 
0.000000 0.000000 0.000000 
0.000000 0.000000 0.000000 

0.000000 -0.000000 0.000000 
0.000000 -0.000000 0.000000 
0.000000 0.000000 0.000000 

0.000000 0.000000 0.000000 
0.000000 -0.000000 0.000000 
0.000000 0.000000 0.000000 

-0.000000 0.000000 0.000000 
0.000000 -0.000000 0.000000 
0.000000 0.000000 0.000000 

TENSORS STRAIN float 
0.000000 -0.000000 0.000000 
0.000000 -0.000000 0.000000 
0.000000 0.000000 0.000000 

-0.000000 -0.000000 0.000000 
0.000000 -0.000000 0.000000 
0.000000 0.000000 0.000000 

0.000000 -0.000000 0.000000 
0.000000 -0.000000 0.000000 
0.000000 0.000000 0.000000 

0.000000 0.000000 0.000000 
0.000000 -0.000000 0.000000 
0.000000 0.000000 0.000000 

-0.000000 0.000000 0.000000 
0.000000 -0.000000 0.000000 
0.000000 0.000000 0.000000 

-0.000000 0.000000 0.000000 
0.000000 0.000000 0.000000 
0.000000 0.000000 0.000000 

-0.000000 0.000000 0.000000 
0.000000 -0.000000 0.000000 
0.000000 0.000000 0.000000 

0.000000 -0.000000 0.000000 
0.000000 -0.000000 0.000000 
0.000000 0.000000 0.000000 

0.000000 -0.000000 0.000000 
0.000000 -0.000000 0.000000 
0.000000 0.000000 0.000000 

-0.000000 0.000000 0.000000 
0.000000 0.000000 0.000000 
0.000000 0.000000 0.000000 

-0.000000 0.000000 0.000000 
0.000000 -0.000000 0.000000 
0.000000 0.000000 0.000000 

-0.000000 0.000000 0.000000 
0.000000 0.000000 0.000000 
0.000000 0.000000 0.000000 

-0.000000 0.000000 0.000000 
0.000000 0.000000 0.000000 
0.000000 0.000000 0.000000 

-0.000000 0.000000 0.000000 
0.000000 0.000000 0.000000 
0.000000 0.000000 0.000000 

-0.000000 -0.000000 0.000000 
0.000000 0.000000 0.000000 
0.000000 0.000000 0.000000 

-0.000000 -0.000000 0.000000 
0.000000 0.000000 0.000000 
0.000000 0.000000 0.000000 

0.000000 -0.000000 0.000000 
0.000000 -0.000000 0.000000 
0.000000 0.000000 0.000000 

0.000000 0.000000 0.000000 
0.000000 0.000000 0.000000 
0.000000 0.000000 0.000000 

0.000000 -0.000000 0.000000 
0.000000 0.000000 0.000000 
0.000000 0.000000 0.000000 

-0.000000 0.000000 0.000000 
0.000000 -0.000000 0.000000 
0.000000 0.000000 0.000000 

-0.000000 -0.000000 0.000000 
0.000000 0.000000 0.000000 
0.000000 0.000000 0.000000 

-0.000000 0.000000 0.000000 
0.000000 0.000000 0.000000 
0.000000 0.000000 0.000000 

-0.000000 0.000000 0.000000 
0.000000 -0.000000 0.000000 
0.000000 0.000000 0.000000 

-0.000000 0.000000 0.000000 
0.000000 0.000000 0.000000 
0.000000 0.000000 0.000000 

-0.000000 -0.000000 0.000000 
0.000000 -0.000000 0.000000 
0.000000 0.000000 0.000000 

0.000000 -0.000000 0.000000 
0.000000 -0.000000 0.000000 
0.000000 0.000000 0.000000 

0.000000 0.000000 0.000000 
0.000000 0.000000 0.000000 
0.000000 0.000000 0.000000 

0.000000 0.000000 0.000000 
0.000000 0.000000 0.000000 
0.000000 0.000000 0.000000 

-0.000000 -0.000000 0.000000 
0.000000 0.000000 0.000000 
0.000000 0.000000 0.000000 

0.000000 -0.000000 0.000000 
0.000000 -0.000000 0.000000 
0.000000 0.000000 0.000000 

0.000000 0.000000 0.000000 
0.000000 0.000000 0.000000 
0.000000 0.000000 0.000000 

0.000000 0.000000 0.000000 
0.000000 0.000000 0.000000 
0.000000 0.000000 0.000000 

-0.000000 0.000000 0.000000 
0.000000 0.000000 0.000000 
0.000000 0.000000 0.000000 

-0.000000 -0.000000 0.000000 
0.000000 0.000000 0.000000 
0.000000 0.000000 0.000000 

-0.000000 -0.000000 0.000000 
0.000000 0.000000 0.000000 
0.000000 0.000000 0.000000 

0.000000 -0.000000 0.000000 
0.000000 -0.000000 0.000000 
0.000000 0.000000 0.000000 

0.000000 0.000000 0.000000 
0.000000 0.000000 0.000000 
0.000000 0.000000 0.000000 

0.000000 0.000000 0.000000 
0.000000 0.000000 0.000000 
0.000000 0.000000 0.000000 

0.000000 0.000000 0.000000 
0.000000 -0.000000 0.000000 
0.000000 0.000000 0.000000 

-0.000000 0.000000 0.000000 
0.000000 0.000000 0.000000 
0.000000 0.000000 0.000000 

-0.000000 0.000000 0.000000 
0.000000 0.000000 0.000000 
0.000000 0.000000 0.000000 

-0.000000 -0.000000 0.000000 
0.000000 0.000000 0.000000 
0.000000 0.000000 0.000000 

-0.000000 -0.000000 0.000000 
0.000000 0.000000 0.000000 
0.000000 0.000000 0.000000 

-0.000000 0.000000 0.000000 
0.000000 0.000000 0.000000 
0.000000 0.000000 0.000000 

-0.000000 0.000000 0.000000 
0.000000 -0.000000 0.000000 
0.000000 0.000000 0.000000 

-0.000000 -0.000000 0.000000 
0.000000 0.000000 0.000000 
0.000000 0.000000 0.000000 

-0.000000 0.000000 0.000000 
0.000000 0.000000 0.000000 
0.000000 0.000000 0.000000 

-0.000000 -0.000000 0.000000 
0.000000 0.000000 0.000000 
0.000000 0.000000 0.000000 

-0.000000 0.000000 0.000000 
0.000000 0.000000 0.000000 
0.000000 0.000000 0.000000 

-0.000000 0.000000 0.000000 
0.000000 0.000000 0.000000 
0.000000 0.000000 0.000000 

0.000000 -0.000000 0.000000 
0.000000 -0.000000 0.000000 
0.000000 0.000000 0.000000 

0.000000 0.000000 0.000000 
0.000000 -0.000000 0.000000 
0.000000 0.000000 0.000000 

0.000000 0.000000 0.000000 
0.000000 -0.000000 0.000000 
0.000000 0.000000 0.000000 

0.000000 0.000000 0.000000 
0.000000 -0.000000 0.000000 
0.000000 0.000000 0.000000 

-0.000000 0.000000 0.000000 
0.000000 0.000000 0.000000 
0.000000 0.000000 0.000000 

0.000000 0.000000 0.000000 
0.000000 -0.000000 0.000000 
0.000000 0.000000 0.000000 

0.000000 0.000000 0.000000 
0.000000 -0.000000 0.000000 
0.000000 0.000000 0.000000 

0.000000 0.000000 0.000000 
0.000000 -0.000000 0.000000 
0.000000 0.000000 0.000000 

-0.000000 -0.000000 0.000000 
0.000000 -0.000000 0.000000 
0.000000 0.000000 0.000000 

-0.000000 0.000000 0.000000 
0.000000 -0.000000 0.000000 
0.000000 0.000000 0.000000 

-0.000000 0.000000 0.000000 
0.000000 0.000000 0.000000 
0.000000 0.000000 0.000000 

-0.000000 -0.000000 0.000000 
0.000000 0.000000 0.000000 
0.000000 0.000000 0.000000 

-0.000000 -0.000000 0.000000 
0.000000 0.000000 0.000000 
0.000000 0.000000 0.000000 

-0.000000 0.000000 0.000000 
0.000000 0.000000 0.000000 
0.000000 0.000000 0.000000 

-0.000000 -0.000000 0.000000 
0.000000 0.000000 0.000000 
0.000000 0.000000 0.000000 

-0.000000 -0.000000 0.000000 
0.000000 0.000000 0.000000 
0.000000 0.000000 0.000000 

-0.000000 0.000000 0.000000 
0.000000 -0.000000 0.000000 
0.000000 0.000000 0.000000 

-0.000000 0.000000 0.000000 
0.000000 -0.000000 0.000000 
0.000000 0.000000 0.000000 

-0.000000 0.000000 0.000000 
0.000000 -0.000000 0.000000 
0.000000 0.000000 0.000000 

-0.000000 0.000000 0.000000 
0.000000 0.000000 0.000000 
0.000000 0.000000 0.000000 

-0.000000 0.000000 0.000000 
0.000000 0.000000 0.000000 
0.000000 0.000000 0.000000 

-0.000000 0.000000 0.000000 
0.000000 0.000000 0.000000 
0.000000 0.000000 0.000000 

-0.000000 -0.000000 0.000000 
0.000000 -0.000000 0.000000 
0.000000 0.000000 0.000000 

-0.000000 -0.000000 0.000000 
0.000000 0.000000 0.000000 
0.000000 0.000000 0.000000 

-0.000000 -0.000000 0.000000 
0.000000 0.000000 0.000000 
0.000000 0.000000 0.000000 

0.000000 -0.000000 0.000000 
0.000000 -0.000000 0.000000 
0.000000 0.000000 0.000000 

0.000000 -0.000000 0.000000 
0.000000 0.000000 0.000000 
0.000000 0.000000 0.000000 

0.000000 -0.000000 0.000000 
0.000000 -0.000000 0.000000 
0.000000 0.000000 0.000000 

0.000000 -0.000000 0.000000 
0.000000 -0.000000 0.000000 
0.000000 0.000000 0.000000 

-0.000000 0.000000 0.000000 
0.000000 -0.000000 0.000000 
0.000000 0.000000 0.000000 

0.000000 -0.000000 0.000000 
0.000000 0.000000 0.000000 
0.000000 0.000000 0.000000 

0.000000 -0.000000 0.000000 
0.000000 0.000000 0.000000 
0.000000 0.000000 0.000000 

0.000000 -0.000000 0.000000 
0.000000 0.000000 0.000000 
0.000000 0.000000 0.000000 

-0.000000 0.000000 0.000000 
0.000000 0.000000 0.000000 
0.000000 0.000000 0.000000 

-0.000000 0.000000 0.000000 
0.000000 0.000000 0.000000 
0.000000 0.000000 0.000000 

-0.000000 0.000000 0.000000 
0.000000 0.000000 0.000000 
0.000000 0.000000 0.000000 

0.000000 -0.000000 0.000000 
0.000000 0.000000 0.000000 
0.000000 0.000000 0.000000 

0.000000 -0.000000 0.000000 
0.000000 0.000000 0.000000 
0.000000 0.000000 0.000000 

0.000000 -0.000000 0.000000 
0.000000 0.000000 0.000000 
0.000000 0.000000 0.000000 

-0.000000 -0.000000 0.000000 
0.000000 0.000000 0.000000 
0.000000 0.000000 0.000000 

-0.000000 0.000000 0.000000 
0.000000 -0.000000 0.000000 
0.000000 0.000000 0.000000 

0.000000 -0.000000 0.000000 
0.000000 0.000000 0.000000 
0.000000 0.000000 0.000000 

0.000000 -0.000000 0.000000 
0.000000 0.000000 0.000000 
0.000000 0.000000 0.000000 

0.000000 -0.000000 0.000000 
0.000000 0.000000 0.000000 
0.000000 0.000000 0.000000 

-0.000000 -0.000000 0.000000 
0.000000 -0.000000 0.000000 
0.000000 0.000000 0.000000 

-0.000000 -0.000000 0.000000 
0.000000 0.000000 0.000000 
0.000000 0.000000 0.000000 

-0.000000 -0.000000 0.000000 
0.000000 0.000000 0.000000 
0.000000 0.000000 0.000000 

-0.000000 0.000000 0.000000 
0.000000 0.000000 0.000000 
0.000000 0.000000 0.000000 

-0.000000 -0.000000 0.000000 
0.000000 0.000000 0.000000 
0.000000 0.000000 0.000000 

-0.000000 -0.000000 0.000000 
0.000000 0.000000 0.000000 
0.000000 0.000000 0.000000 

0.000000 -0.000000 0.000000 
0.000000 0.000000 0.000000 
0.000000 0.000000 0.000000 

-0.000000 -0.000000 0.000000 
0.000000 0.000000 0.000000 
0.000000 0.000000 0.000000 

-0.000000 -0.000000 0.000000 
0.000000 0.000000 0.000000 
0.000000 0.000000 0.000000 

-0.000000 -0.000000 0.000000 
0.000000 0.000000 0.000000 
0.000000 0.000000 0.000000 

0.000000 -0.000000 0.000000 
0.000000 -0.000000 0.000000 
0.000000 0.000000 0.000000 

-0.000000 -0.000000 0.000000 
0.000000 0.000000 0.000000 
0.000000 0.000000 0.000000 

-0.000000 0.000000 0.000000 
0.000000 0.000000 0.000000 
0.000000 0.000000 0.000000 

-0.000000 0.000000 0.000000 
0.000000 0.000000 0.000000 
0.000000 0.000000 0.000000 

-0.000000 0.000000 0.000000 
0.000000 0.000000 0.000000 
0.000000 0.000000 0.000000 

0.000000 -0.000000 0.000000 
0.000000 0.000000 0.000000 
0.000000 0.000000 0.000000 

0.000000 -0.000000 0.000000 
0.000000 0.000000 0.000000 
0.000000 0.000000 0.000000 

0.000000 -0.000000 0.000000 
0.000000 -0.000000 0.000000 
0.000000 0.000000 0.000000 

0.000000 -0.000000 0.000000 
0.000000 -0.000000 0.000000 
0.000000 0.000000 0.000000 

0.000000 0.000000 0.000000 
0.000000 -0.000000 0.000000 
0.000000 0.000000 0.000000 

-0.000000 0.000000 0.000000 
0.000000 -0.000000 0.000000 
0.000000 0.000000 0.000000 

-0.000000 0.000000 0.000000 
0.000000 0.000000 0.000000 
0.000000 0.000000 0.000000 

-0.000000 0.000000 0.000000 
0.000000 0.000000 0.000000 
0.000000 0.000000 0.000000 

-0.000000 0.000000 0.000000 
0.000000 0.000000 0.000000 
0.000000 0.000000 0.000000 

0.000000 0.000000 0.000000 
0.000000 -0.000000 0.000000 
0.000000 0.000000 0.000000 

0.000000 -0.000000 0.000000 
0.000000 -0.000000 0.000000 
0.000000 0.000000 0.000000 

0.000000 0.000000 0.000000 
0.000000 -0.000000 0.000000 
0.000000 0.000000 0.000000 

0.000000 0.000000 0.000000 
0.000000 -0.000000 0.000000 
0.000000 0.000000 0.000000 

0.000000 0.000000 0.000000 
0.000000 0.000000 0.000000 
0.000000 0.000000 0.000000 

0.000000 0.000000 0.000000 
0.000000 0.000000 0.000000 
0.000000 0.000000 0.000000 

0.000000 -0.000000 0.000000 
0.000000 0.000000 0.000000 
0.000000 0.000000 0.000000 

0.000000 -0.000000 0.000000 
0.000000 0.000000 0.000000 
0.000000 0.000000 0.000000 

-0.000000 -0.000000 0.000000 
0.000000 0.000000 0.000000 
0.000000 0.000000 0.000000 

-0.000000 -0.000000 0.000000 
0.000000 0.000000 0.000000 
0.000000 0.000000 0.000000 

-0.000000 -0.000000 0.000000 
0.000000 0.000000 0.000000 
0.000000 0.000000 0.000000 

-0.000000 -0.000000 0.000000 
0.000000 -0.000000 0.000000 
0.000000 0.000000 0.000000 

-0.000000 0.000000 0.000000 
0.000000 0.000000 0.000000 
0.000000 0.000000 0.000000 

0.000000 0.000000 0.000000 
0.000000 -0.000000 0.000000 
0.000000 0.000000 0.000000 

-0.000000 -0.000000 0.000000 
0.000000 0.000000 0.000000 
0.000000 0.000000 0.000000 

0.000000 -0.000000 0.000000 
0.000000 -0.000000 0.000000 
0.000000 0.000000 0.000000 

0.000000 0.000000 0.000000 
0.000000 0.000000 0.000000 
0.000000 0.000000 0.000000 

0.000000 -0.000000 0.000000 
0.000000 0.000000 0.000000 
0.000000 0.000000 0.000000 

0.000000 0.000000 0.000000 
0.000000 -0.000000 0.000000 
0.000000 0.000000 0.000000 

0.000000 0.000000 0.000000 
0.000000 0.000000 0.000000 
0.000000 0.000000 0.000000 

0.000000 0.000000 0.000000 
0.000000 -0.000000 0.000000 
0.000000 0.000000 0.000000 

0.000000 -0.000000 0.000000 
0.000000 -0.000000 0.000000 
0.000000 0.000000 0.000000 

0.000000 0.000000 0.000000 
0.000000 0.000000 0.000000 
0.000000 0.000000 0.000000 

0.000000 0.000000 0.000000 
0.000000 0.000000 0.000000 
0.000000 0.000000 0.000000 

0.000000 0.000000 0.000000 
0.000000 0.000000 0.000000 
0.000000 0.000000 0.000000 

0.000000 -0.000000 0.000000 
0.000000 -0.000000 0.000000 
0.000000 0.000000 0.000000 

-0.000000 -0.000000 0.000000 
0.000000 -0.000000 0.000000 
0.000000 0.000000 0.000000 

-0.000000 -0.000000 0.000000 
0.000000 0.000000 0.000000 
0.000000 0.000000 0.000000 

-0.000000 -0.000000 0.000000 
0.000000 -0.000000 0.000000 
0.000000 0.000000 0.000000 

0.000000 -0.000000 0.000000 
0.000000 0.000000 0.000000 
0.000000 0.000000 0.000000 

0.000000 -0.000000 0.000000 
0.000000 0.000000 0.000000 
0.000000 0.000000 0.000000 

0.000000 0.000000 0.000000 
0.000000 0.000000 0.000000 
0.000000 0.000000 0.000000 

0.000000 -0.000000 0.000000 
0.000000 -0.000000 0.000000 
0.000000 0.000000 0.000000 

0.000000 -0.000000 0.000000 
0.000000 -0.000000 0.000000 
0.000000 0.000000 0.000000 

0.000000 0.000000 0.000000 
0.000000 -0.000000 0.000000 
0.000000 0.000000 0.000000 

-0.000000 0.000000 0.000000 
0.000000 -0.000000 0.000000 
0.000000 0.000000 0.000000 

0.000000 -0.000000 0.000000 
0.000000 -0.000000 0.000000 
0.000000 0.000000 0.000000 

0.000000 -0.000000 0.000000 
0.000000 -0.000000 0.000000 
0.000000 0.000000 0.000000 

-0.000000 -0.000000 0.000000 
0.000000 -0.000000 0.000000 
0.000000 0.000000 0.000000 

-0.000000 -0.000000 0.000000 
0.000000 -0.000000 0.000000 
0.000000 0.000000 0.000000 

-0.000000 0.000000 0.000000 
0.000000 -0.000000 0.000000 
0.000000 0.000000 0.000000 

-0.000000 -0.000000 0.000000 
0.000000 -0.000000 0.000000 
0.000000 0.000000 0.000000 

-0.000000 -0.000000 0.000000 
0.000000 -0.000000 0.000000 
0.000000 0.000000 0.000000 

-0.000000 0.000000 0.000000 
0.000000 -0.000000 0.000000 
0.000000 0.000000 0.000000 

-0.000000 0.000000 0.000000 
0.000000 0.000000 0.000000 
0.000000 0.000000 0.000000 

-0.000000 0.000000 0.000000 
0.000000 0.000000 0.000000 
0.000000 0.000000 0.000000 

-0.000000 0.000000 0.000000 
0.000000 -0.000000 0.000000 
0.000000 0.000000 0.000000 

0.000000 0.000000 0.000000 
0.000000 -0.000000 0.000000 
0.000000 0.000000 0.000000 

-0.000000 -0.000000 0.000000 
0.000000 0.000000 0.000000 
0.000000 0.000000 0.000000 

-0.000000 -0.000000 0.000000 
0.000000 0.000000 0.000000 
0.000000 0.000000 0.000000 

-0.000000 0.000000 0.000000 
0.000000 0.000000 0.000000 
0.000000 0.000000 0.000000 

-0.000000 0.000000 0.000000 
0.000000 0.000000 0.000000 
0.000000 0.000000 0.000000 

-0.000000 0.000000 0.000000 
0.000000 -0.000000 0.000000 
0.000000 0.000000 0.000000 

-0.000000 0.000000 0.000000 
0.000000 0.000000 0.000000 
0.000000 0.000000 0.000000 

0.000000 -0.000000 0.000000 
0.000000 -0.000000 0.000000 
0.000000 0.000000 0.000000 

0.000000 0.000000 0.000000 
0.000000 -0.000000 0.000000 
0.000000 0.000000 0.000000 

0.000000 0.000000 0.000000 
0.000000 -0.000000 0.000000 
0.000000 0.000000 0.000000 

